p cnf 2644 46550
119 0
124 0
4 0
7 0
65 0
66 0
180 0
182 0
1918 0
1923 0
1979 0
1980 0
1800 0
1807 0
1860 0
1866 0
1 2 3 4 5 6 0
-1 -2 0
-1 -3 0
-1 -4 0
-1 -5 0
-1 -6 0
-2 -3 0
-2 -4 0
-2 -5 0
-2 -6 0
-3 -4 0
-3 -5 0
-3 -6 0
-4 -5 0
-4 -6 0
-5 -6 0
7 8 9 10 0
-7 -8 0
-7 -9 0
-7 -10 0
-8 -9 0
-8 -10 0
-9 -10 0
60 61 62 63 64 65 0
-60 -61 0
-60 -62 0
-60 -63 0
-60 -64 0
-60 -65 0
-61 -62 0
-61 -63 0
-61 -64 0
-61 -65 0
-62 -63 0
-62 -64 0
-62 -65 0
-63 -64 0
-63 -65 0
-64 -65 0
66 67 68 69 0
-66 -67 0
-66 -68 0
-66 -69 0
-67 -68 0
-67 -69 0
-68 -69 0
119 120 121 122 123 0
-119 -120 0
-119 -121 0
-119 -122 0
-119 -123 0
-120 -121 0
-120 -122 0
-120 -123 0
-121 -122 0
-121 -123 0
-122 -123 0
124 125 126 127 0
-124 -125 0
-124 -126 0
-124 -127 0
-125 -126 0
-125 -127 0
-126 -127 0
177 178 179 180 0
-177 -178 0
-177 -179 0
-177 -180 0
-178 -179 0
-178 -180 0
-179 -180 0
181 182 183 184 0
-181 -182 0
-181 -183 0
-181 -184 0
-182 -183 0
-182 -184 0
-183 -184 0
-1 -7 12 0
-12 7 0
-12 1 0
-1 -8 14 0
-14 8 0
-14 1 0
-1 -9 16 0
-16 9 0
-16 1 0
-1 -10 18 0
-18 10 0
-18 1 0
-2 -7 20 0
-20 7 0
-20 2 0
-2 -8 22 0
-22 8 0
-22 2 0
-2 -9 24 0
-24 9 0
-24 2 0
-2 -10 26 0
-26 10 0
-26 2 0
-3 -7 28 0
-28 7 0
-28 3 0
-3 -8 30 0
-30 8 0
-30 3 0
-3 -9 32 0
-32 9 0
-32 3 0
-3 -10 34 0
-34 10 0
-34 3 0
-4 -7 36 0
-36 7 0
-36 4 0
-4 -8 38 0
-38 8 0
-38 4 0
-4 -9 40 0
-40 9 0
-40 4 0
-4 -10 42 0
-42 10 0
-42 4 0
-5 -7 44 0
-44 7 0
-44 5 0
-5 -8 46 0
-46 8 0
-46 5 0
-5 -9 48 0
-48 9 0
-48 5 0
-5 -10 50 0
-50 10 0
-50 5 0
-6 -7 52 0
-52 7 0
-52 6 0
-6 -8 54 0
-54 8 0
-54 6 0
-6 -9 56 0
-56 9 0
-56 6 0
-6 -10 58 0
-58 10 0
-58 6 0
-60 -66 71 0
-71 66 0
-71 60 0
-60 -67 73 0
-73 67 0
-73 60 0
-60 -68 75 0
-75 68 0
-75 60 0
-60 -69 77 0
-77 69 0
-77 60 0
-61 -66 79 0
-79 66 0
-79 61 0
-61 -67 81 0
-81 67 0
-81 61 0
-61 -68 83 0
-83 68 0
-83 61 0
-61 -69 85 0
-85 69 0
-85 61 0
-62 -66 87 0
-87 66 0
-87 62 0
-62 -67 89 0
-89 67 0
-89 62 0
-62 -68 91 0
-91 68 0
-91 62 0
-62 -69 93 0
-93 69 0
-93 62 0
-63 -66 95 0
-95 66 0
-95 63 0
-63 -67 97 0
-97 67 0
-97 63 0
-63 -68 99 0
-99 68 0
-99 63 0
-63 -69 101 0
-101 69 0
-101 63 0
-64 -66 103 0
-103 66 0
-103 64 0
-64 -67 105 0
-105 67 0
-105 64 0
-64 -68 107 0
-107 68 0
-107 64 0
-64 -69 109 0
-109 69 0
-109 64 0
-65 -66 111 0
-111 66 0
-111 65 0
-65 -67 113 0
-113 67 0
-113 65 0
-65 -68 115 0
-115 68 0
-115 65 0
-65 -69 117 0
-117 69 0
-117 65 0
-119 -124 129 0
-129 124 0
-129 119 0
-119 -125 131 0
-131 125 0
-131 119 0
-119 -126 133 0
-133 126 0
-133 119 0
-119 -127 135 0
-135 127 0
-135 119 0
-119 -124 137 0
-120 -124 137 0
-137 124 0
-137 119 120 0
-119 -125 139 0
-120 -125 139 0
-139 125 0
-139 119 120 0
-119 -126 141 0
-120 -126 141 0
-141 126 0
-141 119 120 0
-119 -127 143 0
-120 -127 143 0
-143 127 0
-143 119 120 0
-120 -124 145 0
-121 -124 145 0
-145 124 0
-145 120 121 0
-120 -125 147 0
-121 -125 147 0
-147 125 0
-147 120 121 0
-120 -126 149 0
-121 -126 149 0
-149 126 0
-149 120 121 0
-120 -127 151 0
-121 -127 151 0
-151 127 0
-151 120 121 0
-121 -124 153 0
-122 -124 153 0
-153 124 0
-153 121 122 0
-121 -125 155 0
-122 -125 155 0
-155 125 0
-155 121 122 0
-121 -126 157 0
-122 -126 157 0
-157 126 0
-157 121 122 0
-121 -127 159 0
-122 -127 159 0
-159 127 0
-159 121 122 0
-122 -124 161 0
-123 -124 161 0
-161 124 0
-161 122 123 0
-122 -125 163 0
-123 -125 163 0
-163 125 0
-163 122 123 0
-122 -126 165 0
-123 -126 165 0
-165 126 0
-165 122 123 0
-122 -127 167 0
-123 -127 167 0
-167 127 0
-167 122 123 0
-123 -124 169 0
-169 124 0
-169 123 0
-123 -125 171 0
-171 125 0
-171 123 0
-123 -126 173 0
-173 126 0
-173 123 0
-123 -127 175 0
-175 127 0
-175 123 0
-177 -181 186 0
-186 181 0
-186 177 0
-177 -182 188 0
-188 182 0
-188 177 0
-177 -183 190 0
-190 183 0
-190 177 0
-177 -184 192 0
-192 184 0
-192 177 0
-177 -181 194 0
-178 -181 194 0
-194 181 0
-194 177 178 0
-177 -182 196 0
-178 -182 196 0
-196 182 0
-196 177 178 0
-177 -183 198 0
-178 -183 198 0
-198 183 0
-198 177 178 0
-177 -184 200 0
-178 -184 200 0
-200 184 0
-200 177 178 0
-177 -181 202 0
-178 -181 202 0
-179 -181 202 0
-202 181 0
-202 177 178 179 0
-177 -182 204 0
-178 -182 204 0
-179 -182 204 0
-204 182 0
-204 177 178 179 0
-177 -183 206 0
-178 -183 206 0
-179 -183 206 0
-206 183 0
-206 177 178 179 0
-177 -184 208 0
-178 -184 208 0
-179 -184 208 0
-208 184 0
-208 177 178 179 0
-178 -181 210 0
-179 -181 210 0
-180 -181 210 0
-210 181 0
-210 178 179 180 0
-178 -182 212 0
-179 -182 212 0
-180 -182 212 0
-212 182 0
-212 178 179 180 0
-178 -183 214 0
-179 -183 214 0
-180 -183 214 0
-214 183 0
-214 178 179 180 0
-178 -184 216 0
-179 -184 216 0
-180 -184 216 0
-216 184 0
-216 178 179 180 0
-179 -181 218 0
-180 -181 218 0
-218 181 0
-218 179 180 0
-179 -182 220 0
-180 -182 220 0
-220 182 0
-220 179 180 0
-179 -183 222 0
-180 -183 222 0
-222 183 0
-222 179 180 0
-179 -184 224 0
-180 -184 224 0
-224 184 0
-224 179 180 0
-180 -181 226 0
-226 181 0
-226 180 0
-180 -182 228 0
-228 182 0
-228 180 0
-180 -183 230 0
-230 183 0
-230 180 0
-180 -184 232 0
-232 184 0
-232 180 0
-12 234 0
-71 234 0
-129 234 0
-186 234 0
-234 12 71 129 186 0
-14 235 0
-73 235 0
-131 235 0
-188 235 0
-235 14 73 131 188 0
-16 236 0
-75 236 0
-133 236 0
-190 236 0
-236 16 75 133 190 0
-18 237 0
-77 237 0
-135 237 0
-192 237 0
-237 18 77 135 192 0
-20 238 0
-79 238 0
-137 238 0
-194 238 0
-238 20 79 137 194 0
-22 239 0
-81 239 0
-139 239 0
-196 239 0
-239 22 81 139 196 0
-24 240 0
-83 240 0
-141 240 0
-198 240 0
-240 24 83 141 198 0
-26 241 0
-85 241 0
-143 241 0
-200 241 0
-241 26 85 143 200 0
-28 242 0
-87 242 0
-145 242 0
-202 242 0
-242 28 87 145 202 0
-30 243 0
-89 243 0
-147 243 0
-204 243 0
-243 30 89 147 204 0
-32 244 0
-91 244 0
-149 244 0
-206 244 0
-244 32 91 149 206 0
-34 245 0
-93 245 0
-151 245 0
-208 245 0
-245 34 93 151 208 0
-36 246 0
-95 246 0
-153 246 0
-210 246 0
-246 36 95 153 210 0
-38 247 0
-97 247 0
-155 247 0
-212 247 0
-247 38 97 155 212 0
-40 248 0
-99 248 0
-157 248 0
-214 248 0
-248 40 99 157 214 0
-42 249 0
-101 249 0
-159 249 0
-216 249 0
-249 42 101 159 216 0
-44 250 0
-103 250 0
-161 250 0
-218 250 0
-250 44 103 161 218 0
-46 251 0
-105 251 0
-163 251 0
-220 251 0
-251 46 105 163 220 0
-48 252 0
-107 252 0
-165 252 0
-222 252 0
-252 48 107 165 222 0
-50 253 0
-109 253 0
-167 253 0
-224 253 0
-253 50 109 167 224 0
-52 254 0
-111 254 0
-169 254 0
-226 254 0
-254 52 111 169 226 0
-54 255 0
-113 255 0
-171 255 0
-228 255 0
-255 54 113 171 228 0
-56 256 0
-115 256 0
-173 256 0
-230 256 0
-256 56 115 173 230 0
-58 257 0
-117 257 0
-175 257 0
-232 257 0
-257 58 117 175 232 0
-12 -71 0
-14 -73 0
-16 -75 0
-18 -77 0
-20 -79 0
-22 -81 0
-24 -83 0
-26 -85 0
-28 -87 0
-30 -89 0
-32 -91 0
-34 -93 0
-36 -95 0
-38 -97 0
-40 -99 0
-42 -101 0
-44 -103 0
-46 -105 0
-48 -107 0
-50 -109 0
-52 -111 0
-54 -113 0
-56 -115 0
-58 -117 0
-12 -129 0
-14 -131 0
-16 -133 0
-18 -135 0
-20 -137 0
-22 -139 0
-24 -141 0
-26 -143 0
-28 -145 0
-30 -147 0
-32 -149 0
-34 -151 0
-36 -153 0
-38 -155 0
-40 -157 0
-42 -159 0
-44 -161 0
-46 -163 0
-48 -165 0
-50 -167 0
-52 -169 0
-54 -171 0
-56 -173 0
-58 -175 0
-12 -186 0
-14 -188 0
-16 -190 0
-18 -192 0
-20 -194 0
-22 -196 0
-24 -198 0
-26 -200 0
-28 -202 0
-30 -204 0
-32 -206 0
-34 -208 0
-36 -210 0
-38 -212 0
-40 -214 0
-42 -216 0
-44 -218 0
-46 -220 0
-48 -222 0
-50 -224 0
-52 -226 0
-54 -228 0
-56 -230 0
-58 -232 0
-71 -129 0
-73 -131 0
-75 -133 0
-77 -135 0
-79 -137 0
-81 -139 0
-83 -141 0
-85 -143 0
-87 -145 0
-89 -147 0
-91 -149 0
-93 -151 0
-95 -153 0
-97 -155 0
-99 -157 0
-101 -159 0
-103 -161 0
-105 -163 0
-107 -165 0
-109 -167 0
-111 -169 0
-113 -171 0
-115 -173 0
-117 -175 0
-71 -186 0
-73 -188 0
-75 -190 0
-77 -192 0
-79 -194 0
-81 -196 0
-83 -198 0
-85 -200 0
-87 -202 0
-89 -204 0
-91 -206 0
-93 -208 0
-95 -210 0
-97 -212 0
-99 -214 0
-101 -216 0
-103 -218 0
-105 -220 0
-107 -222 0
-109 -224 0
-111 -226 0
-113 -228 0
-115 -230 0
-117 -232 0
-129 -186 0
-131 -188 0
-133 -190 0
-135 -192 0
-137 -194 0
-139 -196 0
-141 -198 0
-143 -200 0
-145 -202 0
-147 -204 0
-149 -206 0
-151 -208 0
-153 -210 0
-155 -212 0
-157 -214 0
-159 -216 0
-161 -218 0
-163 -220 0
-165 -222 0
-167 -224 0
-169 -226 0
-171 -228 0
-173 -230 0
-175 -232 0
-1 -8 234 0
-1 -9 235 0
-1 -10 236 0
-2 -8 238 0
-2 -9 239 0
-2 -10 240 0
-3 -8 242 0
-3 -9 243 0
-3 -10 244 0
-4 -8 246 0
-4 -9 247 0
-4 -10 248 0
-5 -8 250 0
-5 -9 251 0
-5 -10 252 0
-6 -8 254 0
-6 -9 255 0
-6 -10 256 0
-60 -67 234 0
-60 -68 235 0
-60 -69 236 0
-61 -67 238 0
-61 -68 239 0
-61 -69 240 0
-62 -67 242 0
-62 -68 243 0
-62 -69 244 0
-63 -67 246 0
-63 -68 247 0
-63 -69 248 0
-64 -67 250 0
-64 -68 251 0
-64 -69 252 0
-65 -67 254 0
-65 -68 255 0
-65 -69 256 0
-119 -125 234 238 0
-119 -126 235 239 0
-119 -127 236 240 0
-120 -125 238 242 0
-120 -126 239 243 0
-120 -127 240 244 0
-121 -125 242 246 0
-121 -126 243 247 0
-121 -127 244 248 0
-122 -125 246 250 0
-122 -126 247 251 0
-122 -127 248 252 0
-123 -125 250 254 0
-123 -126 251 255 0
-123 -127 252 256 0
-177 -182 234 238 0
-177 -182 234 242 0
-177 -182 238 242 0
-177 -183 235 239 0
-177 -183 235 243 0
-177 -183 239 243 0
-177 -184 236 240 0
-177 -184 236 244 0
-177 -184 240 244 0
-178 -182 238 242 0
-178 -182 238 246 0
-178 -182 242 246 0
-178 -183 239 243 0
-178 -183 239 247 0
-178 -183 243 247 0
-178 -184 240 244 0
-178 -184 240 248 0
-178 -184 244 248 0
-179 -182 242 246 0
-179 -182 242 250 0
-179 -182 246 250 0
-179 -183 243 247 0
-179 -183 243 251 0
-179 -183 247 251 0
-179 -184 244 248 0
-179 -184 244 252 0
-179 -184 248 252 0
-180 -182 246 250 0
-180 -182 246 254 0
-180 -182 250 254 0
-180 -183 247 251 0
-180 -183 247 255 0
-180 -183 251 255 0
-180 -184 248 252 0
-180 -184 248 256 0
-180 -184 252 256 0
-12 -235 13 0
-13 12 0
-13 235 0
-14 -236 15 0
-15 14 0
-15 236 0
-16 -237 17 0
-17 16 0
-17 237 0
-19 0
-20 -239 21 0
-21 20 0
-21 239 0
-22 -240 23 0
-23 22 0
-23 240 0
-24 -241 25 0
-25 24 0
-25 241 0
-27 0
-28 -243 29 0
-29 28 0
-29 243 0
-30 -244 31 0
-31 30 0
-31 244 0
-32 -245 33 0
-33 32 0
-33 245 0
-35 0
-36 -247 37 0
-37 36 0
-37 247 0
-38 -248 39 0
-39 38 0
-39 248 0
-40 -249 41 0
-41 40 0
-41 249 0
-43 0
-44 -251 45 0
-45 44 0
-45 251 0
-46 -252 47 0
-47 46 0
-47 252 0
-48 -253 49 0
-49 48 0
-49 253 0
-51 0
-52 -255 53 0
-53 52 0
-53 255 0
-54 -256 55 0
-55 54 0
-55 256 0
-56 -257 57 0
-57 56 0
-57 257 0
-59 0
-11 -13 0
-11 -15 0
-11 -17 0
-11 -19 0
-11 -21 0
-11 -23 0
-11 -25 0
-11 -27 0
-11 -29 0
-11 -31 0
-11 -33 0
-11 -35 0
-11 -37 0
-11 -39 0
-11 -41 0
-11 -43 0
-11 -45 0
-11 -47 0
-11 -49 0
-11 -51 0
-11 -53 0
-11 -55 0
-11 -57 0
-11 -59 0
11 13 15 17 19 21 23 25 27 29 31 33 35 37 39 41 43 45 47 49 51 53 55 57 59 0
-71 -235 72 0
-72 71 0
-72 235 0
-73 -236 74 0
-74 73 0
-74 236 0
-75 -237 76 0
-76 75 0
-76 237 0
-78 0
-79 -239 80 0
-80 79 0
-80 239 0
-81 -240 82 0
-82 81 0
-82 240 0
-83 -241 84 0
-84 83 0
-84 241 0
-86 0
-87 -243 88 0
-88 87 0
-88 243 0
-89 -244 90 0
-90 89 0
-90 244 0
-91 -245 92 0
-92 91 0
-92 245 0
-94 0
-95 -247 96 0
-96 95 0
-96 247 0
-97 -248 98 0
-98 97 0
-98 248 0
-99 -249 100 0
-100 99 0
-100 249 0
-102 0
-103 -251 104 0
-104 103 0
-104 251 0
-105 -252 106 0
-106 105 0
-106 252 0
-107 -253 108 0
-108 107 0
-108 253 0
-110 0
-111 -255 112 0
-112 111 0
-112 255 0
-113 -256 114 0
-114 113 0
-114 256 0
-115 -257 116 0
-116 115 0
-116 257 0
-118 0
-70 -72 0
-70 -74 0
-70 -76 0
-70 -78 0
-70 -80 0
-70 -82 0
-70 -84 0
-70 -86 0
-70 -88 0
-70 -90 0
-70 -92 0
-70 -94 0
-70 -96 0
-70 -98 0
-70 -100 0
-70 -102 0
-70 -104 0
-70 -106 0
-70 -108 0
-70 -110 0
-70 -112 0
-70 -114 0
-70 -116 0
-70 -118 0
70 72 74 76 78 80 82 84 86 88 90 92 94 96 98 100 102 104 106 108 110 112 114 116 118 0
-129 -235 130 0
-130 129 0
-130 235 0
-131 -236 132 0
-132 131 0
-132 236 0
-133 -237 134 0
-134 133 0
-134 237 0
-136 0
-137 -239 138 0
-138 137 0
-138 239 0
-139 -240 140 0
-140 139 0
-140 240 0
-141 -241 142 0
-142 141 0
-142 241 0
-144 0
-145 -243 146 0
-146 145 0
-146 243 0
-147 -244 148 0
-148 147 0
-148 244 0
-149 -245 150 0
-150 149 0
-150 245 0
-152 0
-153 -247 154 0
-154 153 0
-154 247 0
-155 -248 156 0
-156 155 0
-156 248 0
-157 -249 158 0
-158 157 0
-158 249 0
-160 0
-161 -251 162 0
-162 161 0
-162 251 0
-163 -252 164 0
-164 163 0
-164 252 0
-165 -253 166 0
-166 165 0
-166 253 0
-168 0
-169 -255 170 0
-170 169 0
-170 255 0
-171 -256 172 0
-172 171 0
-172 256 0
-173 -257 174 0
-174 173 0
-174 257 0
-176 0
-128 -130 0
-128 -132 0
-128 -134 0
-128 -136 0
-128 -138 0
-128 -140 0
-128 -142 0
-128 -144 0
-128 -146 0
-128 -148 0
-128 -150 0
-128 -152 0
-128 -154 0
-128 -156 0
-128 -158 0
-128 -160 0
-128 -162 0
-128 -164 0
-128 -166 0
-128 -168 0
-128 -170 0
-128 -172 0
-128 -174 0
-128 -176 0
128 130 132 134 136 138 140 142 144 146 148 150 152 154 156 158 160 162 164 166 168 170 172 174 176 0
-186 -235 187 0
-187 186 0
-187 235 0
-188 -236 189 0
-189 188 0
-189 236 0
-190 -237 191 0
-191 190 0
-191 237 0
-193 0
-194 -239 195 0
-195 194 0
-195 239 0
-196 -240 197 0
-197 196 0
-197 240 0
-198 -241 199 0
-199 198 0
-199 241 0
-201 0
-202 -243 203 0
-203 202 0
-203 243 0
-204 -244 205 0
-205 204 0
-205 244 0
-206 -245 207 0
-207 206 0
-207 245 0
-209 0
-210 -247 211 0
-211 210 0
-211 247 0
-212 -248 213 0
-213 212 0
-213 248 0
-214 -249 215 0
-215 214 0
-215 249 0
-217 0
-218 -251 219 0
-219 218 0
-219 251 0
-220 -252 221 0
-221 220 0
-221 252 0
-222 -253 223 0
-223 222 0
-223 253 0
-225 0
-226 -255 227 0
-227 226 0
-227 255 0
-228 -256 229 0
-229 228 0
-229 256 0
-230 -257 231 0
-231 230 0
-231 257 0
-233 0
-185 -187 0
-185 -189 0
-185 -191 0
-185 -193 0
-185 -195 0
-185 -197 0
-185 -199 0
-185 -201 0
-185 -203 0
-185 -205 0
-185 -207 0
-185 -209 0
-185 -211 0
-185 -213 0
-185 -215 0
-185 -217 0
-185 -219 0
-185 -221 0
-185 -223 0
-185 -225 0
-185 -227 0
-185 -229 0
-185 -231 0
-185 -233 0
185 187 189 191 193 195 197 199 201 203 205 207 209 211 213 215 217 219 221 223 225 227 229 231 233 0
258 259 260 261 262 263 0
-258 -259 0
-258 -260 0
-258 -261 0
-258 -262 0
-258 -263 0
-259 -260 0
-259 -261 0
-259 -262 0
-259 -263 0
-260 -261 0
-260 -262 0
-260 -263 0
-261 -262 0
-261 -263 0
-262 -263 0
264 265 266 267 0
-264 -265 0
-264 -266 0
-264 -267 0
-265 -266 0
-265 -267 0
-266 -267 0
317 318 319 320 321 322 0
-317 -318 0
-317 -319 0
-317 -320 0
-317 -321 0
-317 -322 0
-318 -319 0
-318 -320 0
-318 -321 0
-318 -322 0
-319 -320 0
-319 -321 0
-319 -322 0
-320 -321 0
-320 -322 0
-321 -322 0
323 324 325 326 0
-323 -324 0
-323 -325 0
-323 -326 0
-324 -325 0
-324 -326 0
-325 -326 0
376 377 378 379 380 0
-376 -377 0
-376 -378 0
-376 -379 0
-376 -380 0
-377 -378 0
-377 -379 0
-377 -380 0
-378 -379 0
-378 -380 0
-379 -380 0
381 382 383 384 0
-381 -382 0
-381 -383 0
-381 -384 0
-382 -383 0
-382 -384 0
-383 -384 0
434 435 436 437 0
-434 -435 0
-434 -436 0
-434 -437 0
-435 -436 0
-435 -437 0
-436 -437 0
438 439 440 441 0
-438 -439 0
-438 -440 0
-438 -441 0
-439 -440 0
-439 -441 0
-440 -441 0
-258 -264 269 0
-269 264 0
-269 258 0
-258 -265 271 0
-271 265 0
-271 258 0
-258 -266 273 0
-273 266 0
-273 258 0
-258 -267 275 0
-275 267 0
-275 258 0
-259 -264 277 0
-277 264 0
-277 259 0
-259 -265 279 0
-279 265 0
-279 259 0
-259 -266 281 0
-281 266 0
-281 259 0
-259 -267 283 0
-283 267 0
-283 259 0
-260 -264 285 0
-285 264 0
-285 260 0
-260 -265 287 0
-287 265 0
-287 260 0
-260 -266 289 0
-289 266 0
-289 260 0
-260 -267 291 0
-291 267 0
-291 260 0
-261 -264 293 0
-293 264 0
-293 261 0
-261 -265 295 0
-295 265 0
-295 261 0
-261 -266 297 0
-297 266 0
-297 261 0
-261 -267 299 0
-299 267 0
-299 261 0
-262 -264 301 0
-301 264 0
-301 262 0
-262 -265 303 0
-303 265 0
-303 262 0
-262 -266 305 0
-305 266 0
-305 262 0
-262 -267 307 0
-307 267 0
-307 262 0
-263 -264 309 0
-309 264 0
-309 263 0
-263 -265 311 0
-311 265 0
-311 263 0
-263 -266 313 0
-313 266 0
-313 263 0
-263 -267 315 0
-315 267 0
-315 263 0
-317 -323 328 0
-328 323 0
-328 317 0
-317 -324 330 0
-330 324 0
-330 317 0
-317 -325 332 0
-332 325 0
-332 317 0
-317 -326 334 0
-334 326 0
-334 317 0
-318 -323 336 0
-336 323 0
-336 318 0
-318 -324 338 0
-338 324 0
-338 318 0
-318 -325 340 0
-340 325 0
-340 318 0
-318 -326 342 0
-342 326 0
-342 318 0
-319 -323 344 0
-344 323 0
-344 319 0
-319 -324 346 0
-346 324 0
-346 319 0
-319 -325 348 0
-348 325 0
-348 319 0
-319 -326 350 0
-350 326 0
-350 319 0
-320 -323 352 0
-352 323 0
-352 320 0
-320 -324 354 0
-354 324 0
-354 320 0
-320 -325 356 0
-356 325 0
-356 320 0
-320 -326 358 0
-358 326 0
-358 320 0
-321 -323 360 0
-360 323 0
-360 321 0
-321 -324 362 0
-362 324 0
-362 321 0
-321 -325 364 0
-364 325 0
-364 321 0
-321 -326 366 0
-366 326 0
-366 321 0
-322 -323 368 0
-368 323 0
-368 322 0
-322 -324 370 0
-370 324 0
-370 322 0
-322 -325 372 0
-372 325 0
-372 322 0
-322 -326 374 0
-374 326 0
-374 322 0
-376 -381 386 0
-386 381 0
-386 376 0
-376 -382 388 0
-388 382 0
-388 376 0
-376 -383 390 0
-390 383 0
-390 376 0
-376 -384 392 0
-392 384 0
-392 376 0
-376 -381 394 0
-377 -381 394 0
-394 381 0
-394 376 377 0
-376 -382 396 0
-377 -382 396 0
-396 382 0
-396 376 377 0
-376 -383 398 0
-377 -383 398 0
-398 383 0
-398 376 377 0
-376 -384 400 0
-377 -384 400 0
-400 384 0
-400 376 377 0
-377 -381 402 0
-378 -381 402 0
-402 381 0
-402 377 378 0
-377 -382 404 0
-378 -382 404 0
-404 382 0
-404 377 378 0
-377 -383 406 0
-378 -383 406 0
-406 383 0
-406 377 378 0
-377 -384 408 0
-378 -384 408 0
-408 384 0
-408 377 378 0
-378 -381 410 0
-379 -381 410 0
-410 381 0
-410 378 379 0
-378 -382 412 0
-379 -382 412 0
-412 382 0
-412 378 379 0
-378 -383 414 0
-379 -383 414 0
-414 383 0
-414 378 379 0
-378 -384 416 0
-379 -384 416 0
-416 384 0
-416 378 379 0
-379 -381 418 0
-380 -381 418 0
-418 381 0
-418 379 380 0
-379 -382 420 0
-380 -382 420 0
-420 382 0
-420 379 380 0
-379 -383 422 0
-380 -383 422 0
-422 383 0
-422 379 380 0
-379 -384 424 0
-380 -384 424 0
-424 384 0
-424 379 380 0
-380 -381 426 0
-426 381 0
-426 380 0
-380 -382 428 0
-428 382 0
-428 380 0
-380 -383 430 0
-430 383 0
-430 380 0
-380 -384 432 0
-432 384 0
-432 380 0
-434 -438 443 0
-443 438 0
-443 434 0
-434 -439 445 0
-445 439 0
-445 434 0
-434 -440 447 0
-447 440 0
-447 434 0
-434 -441 449 0
-449 441 0
-449 434 0
-434 -438 451 0
-435 -438 451 0
-451 438 0
-451 434 435 0
-434 -439 453 0
-435 -439 453 0
-453 439 0
-453 434 435 0
-434 -440 455 0
-435 -440 455 0
-455 440 0
-455 434 435 0
-434 -441 457 0
-435 -441 457 0
-457 441 0
-457 434 435 0
-434 -438 459 0
-435 -438 459 0
-436 -438 459 0
-459 438 0
-459 434 435 436 0
-434 -439 461 0
-435 -439 461 0
-436 -439 461 0
-461 439 0
-461 434 435 436 0
-434 -440 463 0
-435 -440 463 0
-436 -440 463 0
-463 440 0
-463 434 435 436 0
-434 -441 465 0
-435 -441 465 0
-436 -441 465 0
-465 441 0
-465 434 435 436 0
-435 -438 467 0
-436 -438 467 0
-437 -438 467 0
-467 438 0
-467 435 436 437 0
-435 -439 469 0
-436 -439 469 0
-437 -439 469 0
-469 439 0
-469 435 436 437 0
-435 -440 471 0
-436 -440 471 0
-437 -440 471 0
-471 440 0
-471 435 436 437 0
-435 -441 473 0
-436 -441 473 0
-437 -441 473 0
-473 441 0
-473 435 436 437 0
-436 -438 475 0
-437 -438 475 0
-475 438 0
-475 436 437 0
-436 -439 477 0
-437 -439 477 0
-477 439 0
-477 436 437 0
-436 -440 479 0
-437 -440 479 0
-479 440 0
-479 436 437 0
-436 -441 481 0
-437 -441 481 0
-481 441 0
-481 436 437 0
-437 -438 483 0
-483 438 0
-483 437 0
-437 -439 485 0
-485 439 0
-485 437 0
-437 -440 487 0
-487 440 0
-487 437 0
-437 -441 489 0
-489 441 0
-489 437 0
-269 491 0
-328 491 0
-386 491 0
-443 491 0
-491 269 328 386 443 0
-271 492 0
-330 492 0
-388 492 0
-445 492 0
-492 271 330 388 445 0
-273 493 0
-332 493 0
-390 493 0
-447 493 0
-493 273 332 390 447 0
-275 494 0
-334 494 0
-392 494 0
-449 494 0
-494 275 334 392 449 0
-277 495 0
-336 495 0
-394 495 0
-451 495 0
-495 277 336 394 451 0
-279 496 0
-338 496 0
-396 496 0
-453 496 0
-496 279 338 396 453 0
-281 497 0
-340 497 0
-398 497 0
-455 497 0
-497 281 340 398 455 0
-283 498 0
-342 498 0
-400 498 0
-457 498 0
-498 283 342 400 457 0
-285 499 0
-344 499 0
-402 499 0
-459 499 0
-499 285 344 402 459 0
-287 500 0
-346 500 0
-404 500 0
-461 500 0
-500 287 346 404 461 0
-289 501 0
-348 501 0
-406 501 0
-463 501 0
-501 289 348 406 463 0
-291 502 0
-350 502 0
-408 502 0
-465 502 0
-502 291 350 408 465 0
-293 503 0
-352 503 0
-410 503 0
-467 503 0
-503 293 352 410 467 0
-295 504 0
-354 504 0
-412 504 0
-469 504 0
-504 295 354 412 469 0
-297 505 0
-356 505 0
-414 505 0
-471 505 0
-505 297 356 414 471 0
-299 506 0
-358 506 0
-416 506 0
-473 506 0
-506 299 358 416 473 0
-301 507 0
-360 507 0
-418 507 0
-475 507 0
-507 301 360 418 475 0
-303 508 0
-362 508 0
-420 508 0
-477 508 0
-508 303 362 420 477 0
-305 509 0
-364 509 0
-422 509 0
-479 509 0
-509 305 364 422 479 0
-307 510 0
-366 510 0
-424 510 0
-481 510 0
-510 307 366 424 481 0
-309 511 0
-368 511 0
-426 511 0
-483 511 0
-511 309 368 426 483 0
-311 512 0
-370 512 0
-428 512 0
-485 512 0
-512 311 370 428 485 0
-313 513 0
-372 513 0
-430 513 0
-487 513 0
-513 313 372 430 487 0
-315 514 0
-374 514 0
-432 514 0
-489 514 0
-514 315 374 432 489 0
-269 -328 0
-271 -330 0
-273 -332 0
-275 -334 0
-277 -336 0
-279 -338 0
-281 -340 0
-283 -342 0
-285 -344 0
-287 -346 0
-289 -348 0
-291 -350 0
-293 -352 0
-295 -354 0
-297 -356 0
-299 -358 0
-301 -360 0
-303 -362 0
-305 -364 0
-307 -366 0
-309 -368 0
-311 -370 0
-313 -372 0
-315 -374 0
-269 -386 0
-271 -388 0
-273 -390 0
-275 -392 0
-277 -394 0
-279 -396 0
-281 -398 0
-283 -400 0
-285 -402 0
-287 -404 0
-289 -406 0
-291 -408 0
-293 -410 0
-295 -412 0
-297 -414 0
-299 -416 0
-301 -418 0
-303 -420 0
-305 -422 0
-307 -424 0
-309 -426 0
-311 -428 0
-313 -430 0
-315 -432 0
-269 -443 0
-271 -445 0
-273 -447 0
-275 -449 0
-277 -451 0
-279 -453 0
-281 -455 0
-283 -457 0
-285 -459 0
-287 -461 0
-289 -463 0
-291 -465 0
-293 -467 0
-295 -469 0
-297 -471 0
-299 -473 0
-301 -475 0
-303 -477 0
-305 -479 0
-307 -481 0
-309 -483 0
-311 -485 0
-313 -487 0
-315 -489 0
-328 -386 0
-330 -388 0
-332 -390 0
-334 -392 0
-336 -394 0
-338 -396 0
-340 -398 0
-342 -400 0
-344 -402 0
-346 -404 0
-348 -406 0
-350 -408 0
-352 -410 0
-354 -412 0
-356 -414 0
-358 -416 0
-360 -418 0
-362 -420 0
-364 -422 0
-366 -424 0
-368 -426 0
-370 -428 0
-372 -430 0
-374 -432 0
-328 -443 0
-330 -445 0
-332 -447 0
-334 -449 0
-336 -451 0
-338 -453 0
-340 -455 0
-342 -457 0
-344 -459 0
-346 -461 0
-348 -463 0
-350 -465 0
-352 -467 0
-354 -469 0
-356 -471 0
-358 -473 0
-360 -475 0
-362 -477 0
-364 -479 0
-366 -481 0
-368 -483 0
-370 -485 0
-372 -487 0
-374 -489 0
-386 -443 0
-388 -445 0
-390 -447 0
-392 -449 0
-394 -451 0
-396 -453 0
-398 -455 0
-400 -457 0
-402 -459 0
-404 -461 0
-406 -463 0
-408 -465 0
-410 -467 0
-412 -469 0
-414 -471 0
-416 -473 0
-418 -475 0
-420 -477 0
-422 -479 0
-424 -481 0
-426 -483 0
-428 -485 0
-430 -487 0
-432 -489 0
-258 -265 491 0
-258 -266 492 0
-258 -267 493 0
-259 -265 495 0
-259 -266 496 0
-259 -267 497 0
-260 -265 499 0
-260 -266 500 0
-260 -267 501 0
-261 -265 503 0
-261 -266 504 0
-261 -267 505 0
-262 -265 507 0
-262 -266 508 0
-262 -267 509 0
-263 -265 511 0
-263 -266 512 0
-263 -267 513 0
-317 -324 491 0
-317 -325 492 0
-317 -326 493 0
-318 -324 495 0
-318 -325 496 0
-318 -326 497 0
-319 -324 499 0
-319 -325 500 0
-319 -326 501 0
-320 -324 503 0
-320 -325 504 0
-320 -326 505 0
-321 -324 507 0
-321 -325 508 0
-321 -326 509 0
-322 -324 511 0
-322 -325 512 0
-322 -326 513 0
-376 -382 491 495 0
-376 -383 492 496 0
-376 -384 493 497 0
-377 -382 495 499 0
-377 -383 496 500 0
-377 -384 497 501 0
-378 -382 499 503 0
-378 -383 500 504 0
-378 -384 501 505 0
-379 -382 503 507 0
-379 -383 504 508 0
-379 -384 505 509 0
-380 -382 507 511 0
-380 -383 508 512 0
-380 -384 509 513 0
-434 -439 491 495 0
-434 -439 491 499 0
-434 -439 495 499 0
-434 -440 492 496 0
-434 -440 492 500 0
-434 -440 496 500 0
-434 -441 493 497 0
-434 -441 493 501 0
-434 -441 497 501 0
-435 -439 495 499 0
-435 -439 495 503 0
-435 -439 499 503 0
-435 -440 496 500 0
-435 -440 496 504 0
-435 -440 500 504 0
-435 -441 497 501 0
-435 -441 497 505 0
-435 -441 501 505 0
-436 -439 499 503 0
-436 -439 499 507 0
-436 -439 503 507 0
-436 -440 500 504 0
-436 -440 500 508 0
-436 -440 504 508 0
-436 -441 501 505 0
-436 -441 501 509 0
-436 -441 505 509 0
-437 -439 503 507 0
-437 -439 503 511 0
-437 -439 507 511 0
-437 -440 504 508 0
-437 -440 504 512 0
-437 -440 508 512 0
-437 -441 505 509 0
-437 -441 505 513 0
-437 -441 509 513 0
-269 -492 270 0
-270 269 0
-270 492 0
-271 -493 272 0
-272 271 0
-272 493 0
-273 -494 274 0
-274 273 0
-274 494 0
-276 0
-277 -496 278 0
-278 277 0
-278 496 0
-279 -497 280 0
-280 279 0
-280 497 0
-281 -498 282 0
-282 281 0
-282 498 0
-284 0
-285 -500 286 0
-286 285 0
-286 500 0
-287 -501 288 0
-288 287 0
-288 501 0
-289 -502 290 0
-290 289 0
-290 502 0
-292 0
-293 -504 294 0
-294 293 0
-294 504 0
-295 -505 296 0
-296 295 0
-296 505 0
-297 -506 298 0
-298 297 0
-298 506 0
-300 0
-301 -508 302 0
-302 301 0
-302 508 0
-303 -509 304 0
-304 303 0
-304 509 0
-305 -510 306 0
-306 305 0
-306 510 0
-308 0
-309 -512 310 0
-310 309 0
-310 512 0
-311 -513 312 0
-312 311 0
-312 513 0
-313 -514 314 0
-314 313 0
-314 514 0
-316 0
-268 -270 0
-268 -272 0
-268 -274 0
-268 -276 0
-268 -278 0
-268 -280 0
-268 -282 0
-268 -284 0
-268 -286 0
-268 -288 0
-268 -290 0
-268 -292 0
-268 -294 0
-268 -296 0
-268 -298 0
-268 -300 0
-268 -302 0
-268 -304 0
-268 -306 0
-268 -308 0
-268 -310 0
-268 -312 0
-268 -314 0
-268 -316 0
268 270 272 274 276 278 280 282 284 286 288 290 292 294 296 298 300 302 304 306 308 310 312 314 316 0
-328 -492 329 0
-329 328 0
-329 492 0
-330 -493 331 0
-331 330 0
-331 493 0
-332 -494 333 0
-333 332 0
-333 494 0
-335 0
-336 -496 337 0
-337 336 0
-337 496 0
-338 -497 339 0
-339 338 0
-339 497 0
-340 -498 341 0
-341 340 0
-341 498 0
-343 0
-344 -500 345 0
-345 344 0
-345 500 0
-346 -501 347 0
-347 346 0
-347 501 0
-348 -502 349 0
-349 348 0
-349 502 0
-351 0
-352 -504 353 0
-353 352 0
-353 504 0
-354 -505 355 0
-355 354 0
-355 505 0
-356 -506 357 0
-357 356 0
-357 506 0
-359 0
-360 -508 361 0
-361 360 0
-361 508 0
-362 -509 363 0
-363 362 0
-363 509 0
-364 -510 365 0
-365 364 0
-365 510 0
-367 0
-368 -512 369 0
-369 368 0
-369 512 0
-370 -513 371 0
-371 370 0
-371 513 0
-372 -514 373 0
-373 372 0
-373 514 0
-375 0
-327 -329 0
-327 -331 0
-327 -333 0
-327 -335 0
-327 -337 0
-327 -339 0
-327 -341 0
-327 -343 0
-327 -345 0
-327 -347 0
-327 -349 0
-327 -351 0
-327 -353 0
-327 -355 0
-327 -357 0
-327 -359 0
-327 -361 0
-327 -363 0
-327 -365 0
-327 -367 0
-327 -369 0
-327 -371 0
-327 -373 0
-327 -375 0
327 329 331 333 335 337 339 341 343 345 347 349 351 353 355 357 359 361 363 365 367 369 371 373 375 0
-386 -492 387 0
-387 386 0
-387 492 0
-388 -493 389 0
-389 388 0
-389 493 0
-390 -494 391 0
-391 390 0
-391 494 0
-393 0
-394 -496 395 0
-395 394 0
-395 496 0
-396 -497 397 0
-397 396 0
-397 497 0
-398 -498 399 0
-399 398 0
-399 498 0
-401 0
-402 -500 403 0
-403 402 0
-403 500 0
-404 -501 405 0
-405 404 0
-405 501 0
-406 -502 407 0
-407 406 0
-407 502 0
-409 0
-410 -504 411 0
-411 410 0
-411 504 0
-412 -505 413 0
-413 412 0
-413 505 0
-414 -506 415 0
-415 414 0
-415 506 0
-417 0
-418 -508 419 0
-419 418 0
-419 508 0
-420 -509 421 0
-421 420 0
-421 509 0
-422 -510 423 0
-423 422 0
-423 510 0
-425 0
-426 -512 427 0
-427 426 0
-427 512 0
-428 -513 429 0
-429 428 0
-429 513 0
-430 -514 431 0
-431 430 0
-431 514 0
-433 0
-385 -387 0
-385 -389 0
-385 -391 0
-385 -393 0
-385 -395 0
-385 -397 0
-385 -399 0
-385 -401 0
-385 -403 0
-385 -405 0
-385 -407 0
-385 -409 0
-385 -411 0
-385 -413 0
-385 -415 0
-385 -417 0
-385 -419 0
-385 -421 0
-385 -423 0
-385 -425 0
-385 -427 0
-385 -429 0
-385 -431 0
-385 -433 0
385 387 389 391 393 395 397 399 401 403 405 407 409 411 413 415 417 419 421 423 425 427 429 431 433 0
-443 -492 444 0
-444 443 0
-444 492 0
-445 -493 446 0
-446 445 0
-446 493 0
-447 -494 448 0
-448 447 0
-448 494 0
-450 0
-451 -496 452 0
-452 451 0
-452 496 0
-453 -497 454 0
-454 453 0
-454 497 0
-455 -498 456 0
-456 455 0
-456 498 0
-458 0
-459 -500 460 0
-460 459 0
-460 500 0
-461 -501 462 0
-462 461 0
-462 501 0
-463 -502 464 0
-464 463 0
-464 502 0
-466 0
-467 -504 468 0
-468 467 0
-468 504 0
-469 -505 470 0
-470 469 0
-470 505 0
-471 -506 472 0
-472 471 0
-472 506 0
-474 0
-475 -508 476 0
-476 475 0
-476 508 0
-477 -509 478 0
-478 477 0
-478 509 0
-479 -510 480 0
-480 479 0
-480 510 0
-482 0
-483 -512 484 0
-484 483 0
-484 512 0
-485 -513 486 0
-486 485 0
-486 513 0
-487 -514 488 0
-488 487 0
-488 514 0
-490 0
-442 -444 0
-442 -446 0
-442 -448 0
-442 -450 0
-442 -452 0
-442 -454 0
-442 -456 0
-442 -458 0
-442 -460 0
-442 -462 0
-442 -464 0
-442 -466 0
-442 -468 0
-442 -470 0
-442 -472 0
-442 -474 0
-442 -476 0
-442 -478 0
-442 -480 0
-442 -482 0
-442 -484 0
-442 -486 0
-442 -488 0
-442 -490 0
442 444 446 448 450 452 454 456 458 460 462 464 466 468 470 472 474 476 478 480 482 484 486 488 490 0
515 516 517 518 519 520 0
-515 -516 0
-515 -517 0
-515 -518 0
-515 -519 0
-515 -520 0
-516 -517 0
-516 -518 0
-516 -519 0
-516 -520 0
-517 -518 0
-517 -519 0
-517 -520 0
-518 -519 0
-518 -520 0
-519 -520 0
521 522 523 524 0
-521 -522 0
-521 -523 0
-521 -524 0
-522 -523 0
-522 -524 0
-523 -524 0
574 575 576 577 578 579 0
-574 -575 0
-574 -576 0
-574 -577 0
-574 -578 0
-574 -579 0
-575 -576 0
-575 -577 0
-575 -578 0
-575 -579 0
-576 -577 0
-576 -578 0
-576 -579 0
-577 -578 0
-577 -579 0
-578 -579 0
580 581 582 583 0
-580 -581 0
-580 -582 0
-580 -583 0
-581 -582 0
-581 -583 0
-582 -583 0
633 634 635 636 637 0
-633 -634 0
-633 -635 0
-633 -636 0
-633 -637 0
-634 -635 0
-634 -636 0
-634 -637 0
-635 -636 0
-635 -637 0
-636 -637 0
638 639 640 641 0
-638 -639 0
-638 -640 0
-638 -641 0
-639 -640 0
-639 -641 0
-640 -641 0
691 692 693 694 0
-691 -692 0
-691 -693 0
-691 -694 0
-692 -693 0
-692 -694 0
-693 -694 0
695 696 697 698 0
-695 -696 0
-695 -697 0
-695 -698 0
-696 -697 0
-696 -698 0
-697 -698 0
-515 -521 526 0
-526 521 0
-526 515 0
-515 -522 528 0
-528 522 0
-528 515 0
-515 -523 530 0
-530 523 0
-530 515 0
-515 -524 532 0
-532 524 0
-532 515 0
-516 -521 534 0
-534 521 0
-534 516 0
-516 -522 536 0
-536 522 0
-536 516 0
-516 -523 538 0
-538 523 0
-538 516 0
-516 -524 540 0
-540 524 0
-540 516 0
-517 -521 542 0
-542 521 0
-542 517 0
-517 -522 544 0
-544 522 0
-544 517 0
-517 -523 546 0
-546 523 0
-546 517 0
-517 -524 548 0
-548 524 0
-548 517 0
-518 -521 550 0
-550 521 0
-550 518 0
-518 -522 552 0
-552 522 0
-552 518 0
-518 -523 554 0
-554 523 0
-554 518 0
-518 -524 556 0
-556 524 0
-556 518 0
-519 -521 558 0
-558 521 0
-558 519 0
-519 -522 560 0
-560 522 0
-560 519 0
-519 -523 562 0
-562 523 0
-562 519 0
-519 -524 564 0
-564 524 0
-564 519 0
-520 -521 566 0
-566 521 0
-566 520 0
-520 -522 568 0
-568 522 0
-568 520 0
-520 -523 570 0
-570 523 0
-570 520 0
-520 -524 572 0
-572 524 0
-572 520 0
-574 -580 585 0
-585 580 0
-585 574 0
-574 -581 587 0
-587 581 0
-587 574 0
-574 -582 589 0
-589 582 0
-589 574 0
-574 -583 591 0
-591 583 0
-591 574 0
-575 -580 593 0
-593 580 0
-593 575 0
-575 -581 595 0
-595 581 0
-595 575 0
-575 -582 597 0
-597 582 0
-597 575 0
-575 -583 599 0
-599 583 0
-599 575 0
-576 -580 601 0
-601 580 0
-601 576 0
-576 -581 603 0
-603 581 0
-603 576 0
-576 -582 605 0
-605 582 0
-605 576 0
-576 -583 607 0
-607 583 0
-607 576 0
-577 -580 609 0
-609 580 0
-609 577 0
-577 -581 611 0
-611 581 0
-611 577 0
-577 -582 613 0
-613 582 0
-613 577 0
-577 -583 615 0
-615 583 0
-615 577 0
-578 -580 617 0
-617 580 0
-617 578 0
-578 -581 619 0
-619 581 0
-619 578 0
-578 -582 621 0
-621 582 0
-621 578 0
-578 -583 623 0
-623 583 0
-623 578 0
-579 -580 625 0
-625 580 0
-625 579 0
-579 -581 627 0
-627 581 0
-627 579 0
-579 -582 629 0
-629 582 0
-629 579 0
-579 -583 631 0
-631 583 0
-631 579 0
-633 -638 643 0
-643 638 0
-643 633 0
-633 -639 645 0
-645 639 0
-645 633 0
-633 -640 647 0
-647 640 0
-647 633 0
-633 -641 649 0
-649 641 0
-649 633 0
-633 -638 651 0
-634 -638 651 0
-651 638 0
-651 633 634 0
-633 -639 653 0
-634 -639 653 0
-653 639 0
-653 633 634 0
-633 -640 655 0
-634 -640 655 0
-655 640 0
-655 633 634 0
-633 -641 657 0
-634 -641 657 0
-657 641 0
-657 633 634 0
-634 -638 659 0
-635 -638 659 0
-659 638 0
-659 634 635 0
-634 -639 661 0
-635 -639 661 0
-661 639 0
-661 634 635 0
-634 -640 663 0
-635 -640 663 0
-663 640 0
-663 634 635 0
-634 -641 665 0
-635 -641 665 0
-665 641 0
-665 634 635 0
-635 -638 667 0
-636 -638 667 0
-667 638 0
-667 635 636 0
-635 -639 669 0
-636 -639 669 0
-669 639 0
-669 635 636 0
-635 -640 671 0
-636 -640 671 0
-671 640 0
-671 635 636 0
-635 -641 673 0
-636 -641 673 0
-673 641 0
-673 635 636 0
-636 -638 675 0
-637 -638 675 0
-675 638 0
-675 636 637 0
-636 -639 677 0
-637 -639 677 0
-677 639 0
-677 636 637 0
-636 -640 679 0
-637 -640 679 0
-679 640 0
-679 636 637 0
-636 -641 681 0
-637 -641 681 0
-681 641 0
-681 636 637 0
-637 -638 683 0
-683 638 0
-683 637 0
-637 -639 685 0
-685 639 0
-685 637 0
-637 -640 687 0
-687 640 0
-687 637 0
-637 -641 689 0
-689 641 0
-689 637 0
-691 -695 700 0
-700 695 0
-700 691 0
-691 -696 702 0
-702 696 0
-702 691 0
-691 -697 704 0
-704 697 0
-704 691 0
-691 -698 706 0
-706 698 0
-706 691 0
-691 -695 708 0
-692 -695 708 0
-708 695 0
-708 691 692 0
-691 -696 710 0
-692 -696 710 0
-710 696 0
-710 691 692 0
-691 -697 712 0
-692 -697 712 0
-712 697 0
-712 691 692 0
-691 -698 714 0
-692 -698 714 0
-714 698 0
-714 691 692 0
-691 -695 716 0
-692 -695 716 0
-693 -695 716 0
-716 695 0
-716 691 692 693 0
-691 -696 718 0
-692 -696 718 0
-693 -696 718 0
-718 696 0
-718 691 692 693 0
-691 -697 720 0
-692 -697 720 0
-693 -697 720 0
-720 697 0
-720 691 692 693 0
-691 -698 722 0
-692 -698 722 0
-693 -698 722 0
-722 698 0
-722 691 692 693 0
-692 -695 724 0
-693 -695 724 0
-694 -695 724 0
-724 695 0
-724 692 693 694 0
-692 -696 726 0
-693 -696 726 0
-694 -696 726 0
-726 696 0
-726 692 693 694 0
-692 -697 728 0
-693 -697 728 0
-694 -697 728 0
-728 697 0
-728 692 693 694 0
-692 -698 730 0
-693 -698 730 0
-694 -698 730 0
-730 698 0
-730 692 693 694 0
-693 -695 732 0
-694 -695 732 0
-732 695 0
-732 693 694 0
-693 -696 734 0
-694 -696 734 0
-734 696 0
-734 693 694 0
-693 -697 736 0
-694 -697 736 0
-736 697 0
-736 693 694 0
-693 -698 738 0
-694 -698 738 0
-738 698 0
-738 693 694 0
-694 -695 740 0
-740 695 0
-740 694 0
-694 -696 742 0
-742 696 0
-742 694 0
-694 -697 744 0
-744 697 0
-744 694 0
-694 -698 746 0
-746 698 0
-746 694 0
-526 748 0
-585 748 0
-643 748 0
-700 748 0
-748 526 585 643 700 0
-528 749 0
-587 749 0
-645 749 0
-702 749 0
-749 528 587 645 702 0
-530 750 0
-589 750 0
-647 750 0
-704 750 0
-750 530 589 647 704 0
-532 751 0
-591 751 0
-649 751 0
-706 751 0
-751 532 591 649 706 0
-534 752 0
-593 752 0
-651 752 0
-708 752 0
-752 534 593 651 708 0
-536 753 0
-595 753 0
-653 753 0
-710 753 0
-753 536 595 653 710 0
-538 754 0
-597 754 0
-655 754 0
-712 754 0
-754 538 597 655 712 0
-540 755 0
-599 755 0
-657 755 0
-714 755 0
-755 540 599 657 714 0
-542 756 0
-601 756 0
-659 756 0
-716 756 0
-756 542 601 659 716 0
-544 757 0
-603 757 0
-661 757 0
-718 757 0
-757 544 603 661 718 0
-546 758 0
-605 758 0
-663 758 0
-720 758 0
-758 546 605 663 720 0
-548 759 0
-607 759 0
-665 759 0
-722 759 0
-759 548 607 665 722 0
-550 760 0
-609 760 0
-667 760 0
-724 760 0
-760 550 609 667 724 0
-552 761 0
-611 761 0
-669 761 0
-726 761 0
-761 552 611 669 726 0
-554 762 0
-613 762 0
-671 762 0
-728 762 0
-762 554 613 671 728 0
-556 763 0
-615 763 0
-673 763 0
-730 763 0
-763 556 615 673 730 0
-558 764 0
-617 764 0
-675 764 0
-732 764 0
-764 558 617 675 732 0
-560 765 0
-619 765 0
-677 765 0
-734 765 0
-765 560 619 677 734 0
-562 766 0
-621 766 0
-679 766 0
-736 766 0
-766 562 621 679 736 0
-564 767 0
-623 767 0
-681 767 0
-738 767 0
-767 564 623 681 738 0
-566 768 0
-625 768 0
-683 768 0
-740 768 0
-768 566 625 683 740 0
-568 769 0
-627 769 0
-685 769 0
-742 769 0
-769 568 627 685 742 0
-570 770 0
-629 770 0
-687 770 0
-744 770 0
-770 570 629 687 744 0
-572 771 0
-631 771 0
-689 771 0
-746 771 0
-771 572 631 689 746 0
-526 -585 0
-528 -587 0
-530 -589 0
-532 -591 0
-534 -593 0
-536 -595 0
-538 -597 0
-540 -599 0
-542 -601 0
-544 -603 0
-546 -605 0
-548 -607 0
-550 -609 0
-552 -611 0
-554 -613 0
-556 -615 0
-558 -617 0
-560 -619 0
-562 -621 0
-564 -623 0
-566 -625 0
-568 -627 0
-570 -629 0
-572 -631 0
-526 -643 0
-528 -645 0
-530 -647 0
-532 -649 0
-534 -651 0
-536 -653 0
-538 -655 0
-540 -657 0
-542 -659 0
-544 -661 0
-546 -663 0
-548 -665 0
-550 -667 0
-552 -669 0
-554 -671 0
-556 -673 0
-558 -675 0
-560 -677 0
-562 -679 0
-564 -681 0
-566 -683 0
-568 -685 0
-570 -687 0
-572 -689 0
-526 -700 0
-528 -702 0
-530 -704 0
-532 -706 0
-534 -708 0
-536 -710 0
-538 -712 0
-540 -714 0
-542 -716 0
-544 -718 0
-546 -720 0
-548 -722 0
-550 -724 0
-552 -726 0
-554 -728 0
-556 -730 0
-558 -732 0
-560 -734 0
-562 -736 0
-564 -738 0
-566 -740 0
-568 -742 0
-570 -744 0
-572 -746 0
-585 -643 0
-587 -645 0
-589 -647 0
-591 -649 0
-593 -651 0
-595 -653 0
-597 -655 0
-599 -657 0
-601 -659 0
-603 -661 0
-605 -663 0
-607 -665 0
-609 -667 0
-611 -669 0
-613 -671 0
-615 -673 0
-617 -675 0
-619 -677 0
-621 -679 0
-623 -681 0
-625 -683 0
-627 -685 0
-629 -687 0
-631 -689 0
-585 -700 0
-587 -702 0
-589 -704 0
-591 -706 0
-593 -708 0
-595 -710 0
-597 -712 0
-599 -714 0
-601 -716 0
-603 -718 0
-605 -720 0
-607 -722 0
-609 -724 0
-611 -726 0
-613 -728 0
-615 -730 0
-617 -732 0
-619 -734 0
-621 -736 0
-623 -738 0
-625 -740 0
-627 -742 0
-629 -744 0
-631 -746 0
-643 -700 0
-645 -702 0
-647 -704 0
-649 -706 0
-651 -708 0
-653 -710 0
-655 -712 0
-657 -714 0
-659 -716 0
-661 -718 0
-663 -720 0
-665 -722 0
-667 -724 0
-669 -726 0
-671 -728 0
-673 -730 0
-675 -732 0
-677 -734 0
-679 -736 0
-681 -738 0
-683 -740 0
-685 -742 0
-687 -744 0
-689 -746 0
-515 -522 748 0
-515 -523 749 0
-515 -524 750 0
-516 -522 752 0
-516 -523 753 0
-516 -524 754 0
-517 -522 756 0
-517 -523 757 0
-517 -524 758 0
-518 -522 760 0
-518 -523 761 0
-518 -524 762 0
-519 -522 764 0
-519 -523 765 0
-519 -524 766 0
-520 -522 768 0
-520 -523 769 0
-520 -524 770 0
-574 -581 748 0
-574 -582 749 0
-574 -583 750 0
-575 -581 752 0
-575 -582 753 0
-575 -583 754 0
-576 -581 756 0
-576 -582 757 0
-576 -583 758 0
-577 -581 760 0
-577 -582 761 0
-577 -583 762 0
-578 -581 764 0
-578 -582 765 0
-578 -583 766 0
-579 -581 768 0
-579 -582 769 0
-579 -583 770 0
-633 -639 748 752 0
-633 -640 749 753 0
-633 -641 750 754 0
-634 -639 752 756 0
-634 -640 753 757 0
-634 -641 754 758 0
-635 -639 756 760 0
-635 -640 757 761 0
-635 -641 758 762 0
-636 -639 760 764 0
-636 -640 761 765 0
-636 -641 762 766 0
-637 -639 764 768 0
-637 -640 765 769 0
-637 -641 766 770 0
-691 -696 748 752 0
-691 -696 748 756 0
-691 -696 752 756 0
-691 -697 749 753 0
-691 -697 749 757 0
-691 -697 753 757 0
-691 -698 750 754 0
-691 -698 750 758 0
-691 -698 754 758 0
-692 -696 752 756 0
-692 -696 752 760 0
-692 -696 756 760 0
-692 -697 753 757 0
-692 -697 753 761 0
-692 -697 757 761 0
-692 -698 754 758 0
-692 -698 754 762 0
-692 -698 758 762 0
-693 -696 756 760 0
-693 -696 756 764 0
-693 -696 760 764 0
-693 -697 757 761 0
-693 -697 757 765 0
-693 -697 761 765 0
-693 -698 758 762 0
-693 -698 758 766 0
-693 -698 762 766 0
-694 -696 760 764 0
-694 -696 760 768 0
-694 -696 764 768 0
-694 -697 761 765 0
-694 -697 761 769 0
-694 -697 765 769 0
-694 -698 762 766 0
-694 -698 762 770 0
-694 -698 766 770 0
-526 -749 527 0
-527 526 0
-527 749 0
-528 -750 529 0
-529 528 0
-529 750 0
-530 -751 531 0
-531 530 0
-531 751 0
-533 0
-534 -753 535 0
-535 534 0
-535 753 0
-536 -754 537 0
-537 536 0
-537 754 0
-538 -755 539 0
-539 538 0
-539 755 0
-541 0
-542 -757 543 0
-543 542 0
-543 757 0
-544 -758 545 0
-545 544 0
-545 758 0
-546 -759 547 0
-547 546 0
-547 759 0
-549 0
-550 -761 551 0
-551 550 0
-551 761 0
-552 -762 553 0
-553 552 0
-553 762 0
-554 -763 555 0
-555 554 0
-555 763 0
-557 0
-558 -765 559 0
-559 558 0
-559 765 0
-560 -766 561 0
-561 560 0
-561 766 0
-562 -767 563 0
-563 562 0
-563 767 0
-565 0
-566 -769 567 0
-567 566 0
-567 769 0
-568 -770 569 0
-569 568 0
-569 770 0
-570 -771 571 0
-571 570 0
-571 771 0
-573 0
-525 -527 0
-525 -529 0
-525 -531 0
-525 -533 0
-525 -535 0
-525 -537 0
-525 -539 0
-525 -541 0
-525 -543 0
-525 -545 0
-525 -547 0
-525 -549 0
-525 -551 0
-525 -553 0
-525 -555 0
-525 -557 0
-525 -559 0
-525 -561 0
-525 -563 0
-525 -565 0
-525 -567 0
-525 -569 0
-525 -571 0
-525 -573 0
525 527 529 531 533 535 537 539 541 543 545 547 549 551 553 555 557 559 561 563 565 567 569 571 573 0
-585 -749 586 0
-586 585 0
-586 749 0
-587 -750 588 0
-588 587 0
-588 750 0
-589 -751 590 0
-590 589 0
-590 751 0
-592 0
-593 -753 594 0
-594 593 0
-594 753 0
-595 -754 596 0
-596 595 0
-596 754 0
-597 -755 598 0
-598 597 0
-598 755 0
-600 0
-601 -757 602 0
-602 601 0
-602 757 0
-603 -758 604 0
-604 603 0
-604 758 0
-605 -759 606 0
-606 605 0
-606 759 0
-608 0
-609 -761 610 0
-610 609 0
-610 761 0
-611 -762 612 0
-612 611 0
-612 762 0
-613 -763 614 0
-614 613 0
-614 763 0
-616 0
-617 -765 618 0
-618 617 0
-618 765 0
-619 -766 620 0
-620 619 0
-620 766 0
-621 -767 622 0
-622 621 0
-622 767 0
-624 0
-625 -769 626 0
-626 625 0
-626 769 0
-627 -770 628 0
-628 627 0
-628 770 0
-629 -771 630 0
-630 629 0
-630 771 0
-632 0
-584 -586 0
-584 -588 0
-584 -590 0
-584 -592 0
-584 -594 0
-584 -596 0
-584 -598 0
-584 -600 0
-584 -602 0
-584 -604 0
-584 -606 0
-584 -608 0
-584 -610 0
-584 -612 0
-584 -614 0
-584 -616 0
-584 -618 0
-584 -620 0
-584 -622 0
-584 -624 0
-584 -626 0
-584 -628 0
-584 -630 0
-584 -632 0
584 586 588 590 592 594 596 598 600 602 604 606 608 610 612 614 616 618 620 622 624 626 628 630 632 0
-643 -749 644 0
-644 643 0
-644 749 0
-645 -750 646 0
-646 645 0
-646 750 0
-647 -751 648 0
-648 647 0
-648 751 0
-650 0
-651 -753 652 0
-652 651 0
-652 753 0
-653 -754 654 0
-654 653 0
-654 754 0
-655 -755 656 0
-656 655 0
-656 755 0
-658 0
-659 -757 660 0
-660 659 0
-660 757 0
-661 -758 662 0
-662 661 0
-662 758 0
-663 -759 664 0
-664 663 0
-664 759 0
-666 0
-667 -761 668 0
-668 667 0
-668 761 0
-669 -762 670 0
-670 669 0
-670 762 0
-671 -763 672 0
-672 671 0
-672 763 0
-674 0
-675 -765 676 0
-676 675 0
-676 765 0
-677 -766 678 0
-678 677 0
-678 766 0
-679 -767 680 0
-680 679 0
-680 767 0
-682 0
-683 -769 684 0
-684 683 0
-684 769 0
-685 -770 686 0
-686 685 0
-686 770 0
-687 -771 688 0
-688 687 0
-688 771 0
-690 0
-642 -644 0
-642 -646 0
-642 -648 0
-642 -650 0
-642 -652 0
-642 -654 0
-642 -656 0
-642 -658 0
-642 -660 0
-642 -662 0
-642 -664 0
-642 -666 0
-642 -668 0
-642 -670 0
-642 -672 0
-642 -674 0
-642 -676 0
-642 -678 0
-642 -680 0
-642 -682 0
-642 -684 0
-642 -686 0
-642 -688 0
-642 -690 0
642 644 646 648 650 652 654 656 658 660 662 664 666 668 670 672 674 676 678 680 682 684 686 688 690 0
-700 -749 701 0
-701 700 0
-701 749 0
-702 -750 703 0
-703 702 0
-703 750 0
-704 -751 705 0
-705 704 0
-705 751 0
-707 0
-708 -753 709 0
-709 708 0
-709 753 0
-710 -754 711 0
-711 710 0
-711 754 0
-712 -755 713 0
-713 712 0
-713 755 0
-715 0
-716 -757 717 0
-717 716 0
-717 757 0
-718 -758 719 0
-719 718 0
-719 758 0
-720 -759 721 0
-721 720 0
-721 759 0
-723 0
-724 -761 725 0
-725 724 0
-725 761 0
-726 -762 727 0
-727 726 0
-727 762 0
-728 -763 729 0
-729 728 0
-729 763 0
-731 0
-732 -765 733 0
-733 732 0
-733 765 0
-734 -766 735 0
-735 734 0
-735 766 0
-736 -767 737 0
-737 736 0
-737 767 0
-739 0
-740 -769 741 0
-741 740 0
-741 769 0
-742 -770 743 0
-743 742 0
-743 770 0
-744 -771 745 0
-745 744 0
-745 771 0
-747 0
-699 -701 0
-699 -703 0
-699 -705 0
-699 -707 0
-699 -709 0
-699 -711 0
-699 -713 0
-699 -715 0
-699 -717 0
-699 -719 0
-699 -721 0
-699 -723 0
-699 -725 0
-699 -727 0
-699 -729 0
-699 -731 0
-699 -733 0
-699 -735 0
-699 -737 0
-699 -739 0
-699 -741 0
-699 -743 0
-699 -745 0
-699 -747 0
699 701 703 705 707 709 711 713 715 717 719 721 723 725 727 729 731 733 735 737 739 741 743 745 747 0
772 773 774 775 776 777 0
-772 -773 0
-772 -774 0
-772 -775 0
-772 -776 0
-772 -777 0
-773 -774 0
-773 -775 0
-773 -776 0
-773 -777 0
-774 -775 0
-774 -776 0
-774 -777 0
-775 -776 0
-775 -777 0
-776 -777 0
778 779 780 781 0
-778 -779 0
-778 -780 0
-778 -781 0
-779 -780 0
-779 -781 0
-780 -781 0
831 832 833 834 835 836 0
-831 -832 0
-831 -833 0
-831 -834 0
-831 -835 0
-831 -836 0
-832 -833 0
-832 -834 0
-832 -835 0
-832 -836 0
-833 -834 0
-833 -835 0
-833 -836 0
-834 -835 0
-834 -836 0
-835 -836 0
837 838 839 840 0
-837 -838 0
-837 -839 0
-837 -840 0
-838 -839 0
-838 -840 0
-839 -840 0
890 891 892 893 894 0
-890 -891 0
-890 -892 0
-890 -893 0
-890 -894 0
-891 -892 0
-891 -893 0
-891 -894 0
-892 -893 0
-892 -894 0
-893 -894 0
895 896 897 898 0
-895 -896 0
-895 -897 0
-895 -898 0
-896 -897 0
-896 -898 0
-897 -898 0
948 949 950 951 0
-948 -949 0
-948 -950 0
-948 -951 0
-949 -950 0
-949 -951 0
-950 -951 0
952 953 954 955 0
-952 -953 0
-952 -954 0
-952 -955 0
-953 -954 0
-953 -955 0
-954 -955 0
-772 -778 783 0
-783 778 0
-783 772 0
-772 -779 785 0
-785 779 0
-785 772 0
-772 -780 787 0
-787 780 0
-787 772 0
-772 -781 789 0
-789 781 0
-789 772 0
-773 -778 791 0
-791 778 0
-791 773 0
-773 -779 793 0
-793 779 0
-793 773 0
-773 -780 795 0
-795 780 0
-795 773 0
-773 -781 797 0
-797 781 0
-797 773 0
-774 -778 799 0
-799 778 0
-799 774 0
-774 -779 801 0
-801 779 0
-801 774 0
-774 -780 803 0
-803 780 0
-803 774 0
-774 -781 805 0
-805 781 0
-805 774 0
-775 -778 807 0
-807 778 0
-807 775 0
-775 -779 809 0
-809 779 0
-809 775 0
-775 -780 811 0
-811 780 0
-811 775 0
-775 -781 813 0
-813 781 0
-813 775 0
-776 -778 815 0
-815 778 0
-815 776 0
-776 -779 817 0
-817 779 0
-817 776 0
-776 -780 819 0
-819 780 0
-819 776 0
-776 -781 821 0
-821 781 0
-821 776 0
-777 -778 823 0
-823 778 0
-823 777 0
-777 -779 825 0
-825 779 0
-825 777 0
-777 -780 827 0
-827 780 0
-827 777 0
-777 -781 829 0
-829 781 0
-829 777 0
-831 -837 842 0
-842 837 0
-842 831 0
-831 -838 844 0
-844 838 0
-844 831 0
-831 -839 846 0
-846 839 0
-846 831 0
-831 -840 848 0
-848 840 0
-848 831 0
-832 -837 850 0
-850 837 0
-850 832 0
-832 -838 852 0
-852 838 0
-852 832 0
-832 -839 854 0
-854 839 0
-854 832 0
-832 -840 856 0
-856 840 0
-856 832 0
-833 -837 858 0
-858 837 0
-858 833 0
-833 -838 860 0
-860 838 0
-860 833 0
-833 -839 862 0
-862 839 0
-862 833 0
-833 -840 864 0
-864 840 0
-864 833 0
-834 -837 866 0
-866 837 0
-866 834 0
-834 -838 868 0
-868 838 0
-868 834 0
-834 -839 870 0
-870 839 0
-870 834 0
-834 -840 872 0
-872 840 0
-872 834 0
-835 -837 874 0
-874 837 0
-874 835 0
-835 -838 876 0
-876 838 0
-876 835 0
-835 -839 878 0
-878 839 0
-878 835 0
-835 -840 880 0
-880 840 0
-880 835 0
-836 -837 882 0
-882 837 0
-882 836 0
-836 -838 884 0
-884 838 0
-884 836 0
-836 -839 886 0
-886 839 0
-886 836 0
-836 -840 888 0
-888 840 0
-888 836 0
-890 -895 900 0
-900 895 0
-900 890 0
-890 -896 902 0
-902 896 0
-902 890 0
-890 -897 904 0
-904 897 0
-904 890 0
-890 -898 906 0
-906 898 0
-906 890 0
-890 -895 908 0
-891 -895 908 0
-908 895 0
-908 890 891 0
-890 -896 910 0
-891 -896 910 0
-910 896 0
-910 890 891 0
-890 -897 912 0
-891 -897 912 0
-912 897 0
-912 890 891 0
-890 -898 914 0
-891 -898 914 0
-914 898 0
-914 890 891 0
-891 -895 916 0
-892 -895 916 0
-916 895 0
-916 891 892 0
-891 -896 918 0
-892 -896 918 0
-918 896 0
-918 891 892 0
-891 -897 920 0
-892 -897 920 0
-920 897 0
-920 891 892 0
-891 -898 922 0
-892 -898 922 0
-922 898 0
-922 891 892 0
-892 -895 924 0
-893 -895 924 0
-924 895 0
-924 892 893 0
-892 -896 926 0
-893 -896 926 0
-926 896 0
-926 892 893 0
-892 -897 928 0
-893 -897 928 0
-928 897 0
-928 892 893 0
-892 -898 930 0
-893 -898 930 0
-930 898 0
-930 892 893 0
-893 -895 932 0
-894 -895 932 0
-932 895 0
-932 893 894 0
-893 -896 934 0
-894 -896 934 0
-934 896 0
-934 893 894 0
-893 -897 936 0
-894 -897 936 0
-936 897 0
-936 893 894 0
-893 -898 938 0
-894 -898 938 0
-938 898 0
-938 893 894 0
-894 -895 940 0
-940 895 0
-940 894 0
-894 -896 942 0
-942 896 0
-942 894 0
-894 -897 944 0
-944 897 0
-944 894 0
-894 -898 946 0
-946 898 0
-946 894 0
-948 -952 957 0
-957 952 0
-957 948 0
-948 -953 959 0
-959 953 0
-959 948 0
-948 -954 961 0
-961 954 0
-961 948 0
-948 -955 963 0
-963 955 0
-963 948 0
-948 -952 965 0
-949 -952 965 0
-965 952 0
-965 948 949 0
-948 -953 967 0
-949 -953 967 0
-967 953 0
-967 948 949 0
-948 -954 969 0
-949 -954 969 0
-969 954 0
-969 948 949 0
-948 -955 971 0
-949 -955 971 0
-971 955 0
-971 948 949 0
-948 -952 973 0
-949 -952 973 0
-950 -952 973 0
-973 952 0
-973 948 949 950 0
-948 -953 975 0
-949 -953 975 0
-950 -953 975 0
-975 953 0
-975 948 949 950 0
-948 -954 977 0
-949 -954 977 0
-950 -954 977 0
-977 954 0
-977 948 949 950 0
-948 -955 979 0
-949 -955 979 0
-950 -955 979 0
-979 955 0
-979 948 949 950 0
-949 -952 981 0
-950 -952 981 0
-951 -952 981 0
-981 952 0
-981 949 950 951 0
-949 -953 983 0
-950 -953 983 0
-951 -953 983 0
-983 953 0
-983 949 950 951 0
-949 -954 985 0
-950 -954 985 0
-951 -954 985 0
-985 954 0
-985 949 950 951 0
-949 -955 987 0
-950 -955 987 0
-951 -955 987 0
-987 955 0
-987 949 950 951 0
-950 -952 989 0
-951 -952 989 0
-989 952 0
-989 950 951 0
-950 -953 991 0
-951 -953 991 0
-991 953 0
-991 950 951 0
-950 -954 993 0
-951 -954 993 0
-993 954 0
-993 950 951 0
-950 -955 995 0
-951 -955 995 0
-995 955 0
-995 950 951 0
-951 -952 997 0
-997 952 0
-997 951 0
-951 -953 999 0
-999 953 0
-999 951 0
-951 -954 1001 0
-1001 954 0
-1001 951 0
-951 -955 1003 0
-1003 955 0
-1003 951 0
-783 1005 0
-842 1005 0
-900 1005 0
-957 1005 0
-1005 783 842 900 957 0
-785 1006 0
-844 1006 0
-902 1006 0
-959 1006 0
-1006 785 844 902 959 0
-787 1007 0
-846 1007 0
-904 1007 0
-961 1007 0
-1007 787 846 904 961 0
-789 1008 0
-848 1008 0
-906 1008 0
-963 1008 0
-1008 789 848 906 963 0
-791 1009 0
-850 1009 0
-908 1009 0
-965 1009 0
-1009 791 850 908 965 0
-793 1010 0
-852 1010 0
-910 1010 0
-967 1010 0
-1010 793 852 910 967 0
-795 1011 0
-854 1011 0
-912 1011 0
-969 1011 0
-1011 795 854 912 969 0
-797 1012 0
-856 1012 0
-914 1012 0
-971 1012 0
-1012 797 856 914 971 0
-799 1013 0
-858 1013 0
-916 1013 0
-973 1013 0
-1013 799 858 916 973 0
-801 1014 0
-860 1014 0
-918 1014 0
-975 1014 0
-1014 801 860 918 975 0
-803 1015 0
-862 1015 0
-920 1015 0
-977 1015 0
-1015 803 862 920 977 0
-805 1016 0
-864 1016 0
-922 1016 0
-979 1016 0
-1016 805 864 922 979 0
-807 1017 0
-866 1017 0
-924 1017 0
-981 1017 0
-1017 807 866 924 981 0
-809 1018 0
-868 1018 0
-926 1018 0
-983 1018 0
-1018 809 868 926 983 0
-811 1019 0
-870 1019 0
-928 1019 0
-985 1019 0
-1019 811 870 928 985 0
-813 1020 0
-872 1020 0
-930 1020 0
-987 1020 0
-1020 813 872 930 987 0
-815 1021 0
-874 1021 0
-932 1021 0
-989 1021 0
-1021 815 874 932 989 0
-817 1022 0
-876 1022 0
-934 1022 0
-991 1022 0
-1022 817 876 934 991 0
-819 1023 0
-878 1023 0
-936 1023 0
-993 1023 0
-1023 819 878 936 993 0
-821 1024 0
-880 1024 0
-938 1024 0
-995 1024 0
-1024 821 880 938 995 0
-823 1025 0
-882 1025 0
-940 1025 0
-997 1025 0
-1025 823 882 940 997 0
-825 1026 0
-884 1026 0
-942 1026 0
-999 1026 0
-1026 825 884 942 999 0
-827 1027 0
-886 1027 0
-944 1027 0
-1001 1027 0
-1027 827 886 944 1001 0
-829 1028 0
-888 1028 0
-946 1028 0
-1003 1028 0
-1028 829 888 946 1003 0
-783 -842 0
-785 -844 0
-787 -846 0
-789 -848 0
-791 -850 0
-793 -852 0
-795 -854 0
-797 -856 0
-799 -858 0
-801 -860 0
-803 -862 0
-805 -864 0
-807 -866 0
-809 -868 0
-811 -870 0
-813 -872 0
-815 -874 0
-817 -876 0
-819 -878 0
-821 -880 0
-823 -882 0
-825 -884 0
-827 -886 0
-829 -888 0
-783 -900 0
-785 -902 0
-787 -904 0
-789 -906 0
-791 -908 0
-793 -910 0
-795 -912 0
-797 -914 0
-799 -916 0
-801 -918 0
-803 -920 0
-805 -922 0
-807 -924 0
-809 -926 0
-811 -928 0
-813 -930 0
-815 -932 0
-817 -934 0
-819 -936 0
-821 -938 0
-823 -940 0
-825 -942 0
-827 -944 0
-829 -946 0
-783 -957 0
-785 -959 0
-787 -961 0
-789 -963 0
-791 -965 0
-793 -967 0
-795 -969 0
-797 -971 0
-799 -973 0
-801 -975 0
-803 -977 0
-805 -979 0
-807 -981 0
-809 -983 0
-811 -985 0
-813 -987 0
-815 -989 0
-817 -991 0
-819 -993 0
-821 -995 0
-823 -997 0
-825 -999 0
-827 -1001 0
-829 -1003 0
-842 -900 0
-844 -902 0
-846 -904 0
-848 -906 0
-850 -908 0
-852 -910 0
-854 -912 0
-856 -914 0
-858 -916 0
-860 -918 0
-862 -920 0
-864 -922 0
-866 -924 0
-868 -926 0
-870 -928 0
-872 -930 0
-874 -932 0
-876 -934 0
-878 -936 0
-880 -938 0
-882 -940 0
-884 -942 0
-886 -944 0
-888 -946 0
-842 -957 0
-844 -959 0
-846 -961 0
-848 -963 0
-850 -965 0
-852 -967 0
-854 -969 0
-856 -971 0
-858 -973 0
-860 -975 0
-862 -977 0
-864 -979 0
-866 -981 0
-868 -983 0
-870 -985 0
-872 -987 0
-874 -989 0
-876 -991 0
-878 -993 0
-880 -995 0
-882 -997 0
-884 -999 0
-886 -1001 0
-888 -1003 0
-900 -957 0
-902 -959 0
-904 -961 0
-906 -963 0
-908 -965 0
-910 -967 0
-912 -969 0
-914 -971 0
-916 -973 0
-918 -975 0
-920 -977 0
-922 -979 0
-924 -981 0
-926 -983 0
-928 -985 0
-930 -987 0
-932 -989 0
-934 -991 0
-936 -993 0
-938 -995 0
-940 -997 0
-942 -999 0
-944 -1001 0
-946 -1003 0
-772 -779 1005 0
-772 -780 1006 0
-772 -781 1007 0
-773 -779 1009 0
-773 -780 1010 0
-773 -781 1011 0
-774 -779 1013 0
-774 -780 1014 0
-774 -781 1015 0
-775 -779 1017 0
-775 -780 1018 0
-775 -781 1019 0
-776 -779 1021 0
-776 -780 1022 0
-776 -781 1023 0
-777 -779 1025 0
-777 -780 1026 0
-777 -781 1027 0
-831 -838 1005 0
-831 -839 1006 0
-831 -840 1007 0
-832 -838 1009 0
-832 -839 1010 0
-832 -840 1011 0
-833 -838 1013 0
-833 -839 1014 0
-833 -840 1015 0
-834 -838 1017 0
-834 -839 1018 0
-834 -840 1019 0
-835 -838 1021 0
-835 -839 1022 0
-835 -840 1023 0
-836 -838 1025 0
-836 -839 1026 0
-836 -840 1027 0
-890 -896 1005 1009 0
-890 -897 1006 1010 0
-890 -898 1007 1011 0
-891 -896 1009 1013 0
-891 -897 1010 1014 0
-891 -898 1011 1015 0
-892 -896 1013 1017 0
-892 -897 1014 1018 0
-892 -898 1015 1019 0
-893 -896 1017 1021 0
-893 -897 1018 1022 0
-893 -898 1019 1023 0
-894 -896 1021 1025 0
-894 -897 1022 1026 0
-894 -898 1023 1027 0
-948 -953 1005 1009 0
-948 -953 1005 1013 0
-948 -953 1009 1013 0
-948 -954 1006 1010 0
-948 -954 1006 1014 0
-948 -954 1010 1014 0
-948 -955 1007 1011 0
-948 -955 1007 1015 0
-948 -955 1011 1015 0
-949 -953 1009 1013 0
-949 -953 1009 1017 0
-949 -953 1013 1017 0
-949 -954 1010 1014 0
-949 -954 1010 1018 0
-949 -954 1014 1018 0
-949 -955 1011 1015 0
-949 -955 1011 1019 0
-949 -955 1015 1019 0
-950 -953 1013 1017 0
-950 -953 1013 1021 0
-950 -953 1017 1021 0
-950 -954 1014 1018 0
-950 -954 1014 1022 0
-950 -954 1018 1022 0
-950 -955 1015 1019 0
-950 -955 1015 1023 0
-950 -955 1019 1023 0
-951 -953 1017 1021 0
-951 -953 1017 1025 0
-951 -953 1021 1025 0
-951 -954 1018 1022 0
-951 -954 1018 1026 0
-951 -954 1022 1026 0
-951 -955 1019 1023 0
-951 -955 1019 1027 0
-951 -955 1023 1027 0
-783 -1006 784 0
-784 783 0
-784 1006 0
-785 -1007 786 0
-786 785 0
-786 1007 0
-787 -1008 788 0
-788 787 0
-788 1008 0
-790 0
-791 -1010 792 0
-792 791 0
-792 1010 0
-793 -1011 794 0
-794 793 0
-794 1011 0
-795 -1012 796 0
-796 795 0
-796 1012 0
-798 0
-799 -1014 800 0
-800 799 0
-800 1014 0
-801 -1015 802 0
-802 801 0
-802 1015 0
-803 -1016 804 0
-804 803 0
-804 1016 0
-806 0
-807 -1018 808 0
-808 807 0
-808 1018 0
-809 -1019 810 0
-810 809 0
-810 1019 0
-811 -1020 812 0
-812 811 0
-812 1020 0
-814 0
-815 -1022 816 0
-816 815 0
-816 1022 0
-817 -1023 818 0
-818 817 0
-818 1023 0
-819 -1024 820 0
-820 819 0
-820 1024 0
-822 0
-823 -1026 824 0
-824 823 0
-824 1026 0
-825 -1027 826 0
-826 825 0
-826 1027 0
-827 -1028 828 0
-828 827 0
-828 1028 0
-830 0
-782 -784 0
-782 -786 0
-782 -788 0
-782 -790 0
-782 -792 0
-782 -794 0
-782 -796 0
-782 -798 0
-782 -800 0
-782 -802 0
-782 -804 0
-782 -806 0
-782 -808 0
-782 -810 0
-782 -812 0
-782 -814 0
-782 -816 0
-782 -818 0
-782 -820 0
-782 -822 0
-782 -824 0
-782 -826 0
-782 -828 0
-782 -830 0
782 784 786 788 790 792 794 796 798 800 802 804 806 808 810 812 814 816 818 820 822 824 826 828 830 0
-842 -1006 843 0
-843 842 0
-843 1006 0
-844 -1007 845 0
-845 844 0
-845 1007 0
-846 -1008 847 0
-847 846 0
-847 1008 0
-849 0
-850 -1010 851 0
-851 850 0
-851 1010 0
-852 -1011 853 0
-853 852 0
-853 1011 0
-854 -1012 855 0
-855 854 0
-855 1012 0
-857 0
-858 -1014 859 0
-859 858 0
-859 1014 0
-860 -1015 861 0
-861 860 0
-861 1015 0
-862 -1016 863 0
-863 862 0
-863 1016 0
-865 0
-866 -1018 867 0
-867 866 0
-867 1018 0
-868 -1019 869 0
-869 868 0
-869 1019 0
-870 -1020 871 0
-871 870 0
-871 1020 0
-873 0
-874 -1022 875 0
-875 874 0
-875 1022 0
-876 -1023 877 0
-877 876 0
-877 1023 0
-878 -1024 879 0
-879 878 0
-879 1024 0
-881 0
-882 -1026 883 0
-883 882 0
-883 1026 0
-884 -1027 885 0
-885 884 0
-885 1027 0
-886 -1028 887 0
-887 886 0
-887 1028 0
-889 0
-841 -843 0
-841 -845 0
-841 -847 0
-841 -849 0
-841 -851 0
-841 -853 0
-841 -855 0
-841 -857 0
-841 -859 0
-841 -861 0
-841 -863 0
-841 -865 0
-841 -867 0
-841 -869 0
-841 -871 0
-841 -873 0
-841 -875 0
-841 -877 0
-841 -879 0
-841 -881 0
-841 -883 0
-841 -885 0
-841 -887 0
-841 -889 0
841 843 845 847 849 851 853 855 857 859 861 863 865 867 869 871 873 875 877 879 881 883 885 887 889 0
-900 -1006 901 0
-901 900 0
-901 1006 0
-902 -1007 903 0
-903 902 0
-903 1007 0
-904 -1008 905 0
-905 904 0
-905 1008 0
-907 0
-908 -1010 909 0
-909 908 0
-909 1010 0
-910 -1011 911 0
-911 910 0
-911 1011 0
-912 -1012 913 0
-913 912 0
-913 1012 0
-915 0
-916 -1014 917 0
-917 916 0
-917 1014 0
-918 -1015 919 0
-919 918 0
-919 1015 0
-920 -1016 921 0
-921 920 0
-921 1016 0
-923 0
-924 -1018 925 0
-925 924 0
-925 1018 0
-926 -1019 927 0
-927 926 0
-927 1019 0
-928 -1020 929 0
-929 928 0
-929 1020 0
-931 0
-932 -1022 933 0
-933 932 0
-933 1022 0
-934 -1023 935 0
-935 934 0
-935 1023 0
-936 -1024 937 0
-937 936 0
-937 1024 0
-939 0
-940 -1026 941 0
-941 940 0
-941 1026 0
-942 -1027 943 0
-943 942 0
-943 1027 0
-944 -1028 945 0
-945 944 0
-945 1028 0
-947 0
-899 -901 0
-899 -903 0
-899 -905 0
-899 -907 0
-899 -909 0
-899 -911 0
-899 -913 0
-899 -915 0
-899 -917 0
-899 -919 0
-899 -921 0
-899 -923 0
-899 -925 0
-899 -927 0
-899 -929 0
-899 -931 0
-899 -933 0
-899 -935 0
-899 -937 0
-899 -939 0
-899 -941 0
-899 -943 0
-899 -945 0
-899 -947 0
899 901 903 905 907 909 911 913 915 917 919 921 923 925 927 929 931 933 935 937 939 941 943 945 947 0
-957 -1006 958 0
-958 957 0
-958 1006 0
-959 -1007 960 0
-960 959 0
-960 1007 0
-961 -1008 962 0
-962 961 0
-962 1008 0
-964 0
-965 -1010 966 0
-966 965 0
-966 1010 0
-967 -1011 968 0
-968 967 0
-968 1011 0
-969 -1012 970 0
-970 969 0
-970 1012 0
-972 0
-973 -1014 974 0
-974 973 0
-974 1014 0
-975 -1015 976 0
-976 975 0
-976 1015 0
-977 -1016 978 0
-978 977 0
-978 1016 0
-980 0
-981 -1018 982 0
-982 981 0
-982 1018 0
-983 -1019 984 0
-984 983 0
-984 1019 0
-985 -1020 986 0
-986 985 0
-986 1020 0
-988 0
-989 -1022 990 0
-990 989 0
-990 1022 0
-991 -1023 992 0
-992 991 0
-992 1023 0
-993 -1024 994 0
-994 993 0
-994 1024 0
-996 0
-997 -1026 998 0
-998 997 0
-998 1026 0
-999 -1027 1000 0
-1000 999 0
-1000 1027 0
-1001 -1028 1002 0
-1002 1001 0
-1002 1028 0
-1004 0
-956 -958 0
-956 -960 0
-956 -962 0
-956 -964 0
-956 -966 0
-956 -968 0
-956 -970 0
-956 -972 0
-956 -974 0
-956 -976 0
-956 -978 0
-956 -980 0
-956 -982 0
-956 -984 0
-956 -986 0
-956 -988 0
-956 -990 0
-956 -992 0
-956 -994 0
-956 -996 0
-956 -998 0
-956 -1000 0
-956 -1002 0
-956 -1004 0
956 958 960 962 964 966 968 970 972 974 976 978 980 982 984 986 988 990 992 994 996 998 1000 1002 1004 0
1029 1030 1031 1032 1033 1034 0
-1029 -1030 0
-1029 -1031 0
-1029 -1032 0
-1029 -1033 0
-1029 -1034 0
-1030 -1031 0
-1030 -1032 0
-1030 -1033 0
-1030 -1034 0
-1031 -1032 0
-1031 -1033 0
-1031 -1034 0
-1032 -1033 0
-1032 -1034 0
-1033 -1034 0
1035 1036 1037 1038 0
-1035 -1036 0
-1035 -1037 0
-1035 -1038 0
-1036 -1037 0
-1036 -1038 0
-1037 -1038 0
1088 1089 1090 1091 1092 1093 0
-1088 -1089 0
-1088 -1090 0
-1088 -1091 0
-1088 -1092 0
-1088 -1093 0
-1089 -1090 0
-1089 -1091 0
-1089 -1092 0
-1089 -1093 0
-1090 -1091 0
-1090 -1092 0
-1090 -1093 0
-1091 -1092 0
-1091 -1093 0
-1092 -1093 0
1094 1095 1096 1097 0
-1094 -1095 0
-1094 -1096 0
-1094 -1097 0
-1095 -1096 0
-1095 -1097 0
-1096 -1097 0
1147 1148 1149 1150 1151 0
-1147 -1148 0
-1147 -1149 0
-1147 -1150 0
-1147 -1151 0
-1148 -1149 0
-1148 -1150 0
-1148 -1151 0
-1149 -1150 0
-1149 -1151 0
-1150 -1151 0
1152 1153 1154 1155 0
-1152 -1153 0
-1152 -1154 0
-1152 -1155 0
-1153 -1154 0
-1153 -1155 0
-1154 -1155 0
1205 1206 1207 1208 0
-1205 -1206 0
-1205 -1207 0
-1205 -1208 0
-1206 -1207 0
-1206 -1208 0
-1207 -1208 0
1209 1210 1211 1212 0
-1209 -1210 0
-1209 -1211 0
-1209 -1212 0
-1210 -1211 0
-1210 -1212 0
-1211 -1212 0
-1029 -1035 1040 0
-1040 1035 0
-1040 1029 0
-1029 -1036 1042 0
-1042 1036 0
-1042 1029 0
-1029 -1037 1044 0
-1044 1037 0
-1044 1029 0
-1029 -1038 1046 0
-1046 1038 0
-1046 1029 0
-1030 -1035 1048 0
-1048 1035 0
-1048 1030 0
-1030 -1036 1050 0
-1050 1036 0
-1050 1030 0
-1030 -1037 1052 0
-1052 1037 0
-1052 1030 0
-1030 -1038 1054 0
-1054 1038 0
-1054 1030 0
-1031 -1035 1056 0
-1056 1035 0
-1056 1031 0
-1031 -1036 1058 0
-1058 1036 0
-1058 1031 0
-1031 -1037 1060 0
-1060 1037 0
-1060 1031 0
-1031 -1038 1062 0
-1062 1038 0
-1062 1031 0
-1032 -1035 1064 0
-1064 1035 0
-1064 1032 0
-1032 -1036 1066 0
-1066 1036 0
-1066 1032 0
-1032 -1037 1068 0
-1068 1037 0
-1068 1032 0
-1032 -1038 1070 0
-1070 1038 0
-1070 1032 0
-1033 -1035 1072 0
-1072 1035 0
-1072 1033 0
-1033 -1036 1074 0
-1074 1036 0
-1074 1033 0
-1033 -1037 1076 0
-1076 1037 0
-1076 1033 0
-1033 -1038 1078 0
-1078 1038 0
-1078 1033 0
-1034 -1035 1080 0
-1080 1035 0
-1080 1034 0
-1034 -1036 1082 0
-1082 1036 0
-1082 1034 0
-1034 -1037 1084 0
-1084 1037 0
-1084 1034 0
-1034 -1038 1086 0
-1086 1038 0
-1086 1034 0
-1088 -1094 1099 0
-1099 1094 0
-1099 1088 0
-1088 -1095 1101 0
-1101 1095 0
-1101 1088 0
-1088 -1096 1103 0
-1103 1096 0
-1103 1088 0
-1088 -1097 1105 0
-1105 1097 0
-1105 1088 0
-1089 -1094 1107 0
-1107 1094 0
-1107 1089 0
-1089 -1095 1109 0
-1109 1095 0
-1109 1089 0
-1089 -1096 1111 0
-1111 1096 0
-1111 1089 0
-1089 -1097 1113 0
-1113 1097 0
-1113 1089 0
-1090 -1094 1115 0
-1115 1094 0
-1115 1090 0
-1090 -1095 1117 0
-1117 1095 0
-1117 1090 0
-1090 -1096 1119 0
-1119 1096 0
-1119 1090 0
-1090 -1097 1121 0
-1121 1097 0
-1121 1090 0
-1091 -1094 1123 0
-1123 1094 0
-1123 1091 0
-1091 -1095 1125 0
-1125 1095 0
-1125 1091 0
-1091 -1096 1127 0
-1127 1096 0
-1127 1091 0
-1091 -1097 1129 0
-1129 1097 0
-1129 1091 0
-1092 -1094 1131 0
-1131 1094 0
-1131 1092 0
-1092 -1095 1133 0
-1133 1095 0
-1133 1092 0
-1092 -1096 1135 0
-1135 1096 0
-1135 1092 0
-1092 -1097 1137 0
-1137 1097 0
-1137 1092 0
-1093 -1094 1139 0
-1139 1094 0
-1139 1093 0
-1093 -1095 1141 0
-1141 1095 0
-1141 1093 0
-1093 -1096 1143 0
-1143 1096 0
-1143 1093 0
-1093 -1097 1145 0
-1145 1097 0
-1145 1093 0
-1147 -1152 1157 0
-1157 1152 0
-1157 1147 0
-1147 -1153 1159 0
-1159 1153 0
-1159 1147 0
-1147 -1154 1161 0
-1161 1154 0
-1161 1147 0
-1147 -1155 1163 0
-1163 1155 0
-1163 1147 0
-1147 -1152 1165 0
-1148 -1152 1165 0
-1165 1152 0
-1165 1147 1148 0
-1147 -1153 1167 0
-1148 -1153 1167 0
-1167 1153 0
-1167 1147 1148 0
-1147 -1154 1169 0
-1148 -1154 1169 0
-1169 1154 0
-1169 1147 1148 0
-1147 -1155 1171 0
-1148 -1155 1171 0
-1171 1155 0
-1171 1147 1148 0
-1148 -1152 1173 0
-1149 -1152 1173 0
-1173 1152 0
-1173 1148 1149 0
-1148 -1153 1175 0
-1149 -1153 1175 0
-1175 1153 0
-1175 1148 1149 0
-1148 -1154 1177 0
-1149 -1154 1177 0
-1177 1154 0
-1177 1148 1149 0
-1148 -1155 1179 0
-1149 -1155 1179 0
-1179 1155 0
-1179 1148 1149 0
-1149 -1152 1181 0
-1150 -1152 1181 0
-1181 1152 0
-1181 1149 1150 0
-1149 -1153 1183 0
-1150 -1153 1183 0
-1183 1153 0
-1183 1149 1150 0
-1149 -1154 1185 0
-1150 -1154 1185 0
-1185 1154 0
-1185 1149 1150 0
-1149 -1155 1187 0
-1150 -1155 1187 0
-1187 1155 0
-1187 1149 1150 0
-1150 -1152 1189 0
-1151 -1152 1189 0
-1189 1152 0
-1189 1150 1151 0
-1150 -1153 1191 0
-1151 -1153 1191 0
-1191 1153 0
-1191 1150 1151 0
-1150 -1154 1193 0
-1151 -1154 1193 0
-1193 1154 0
-1193 1150 1151 0
-1150 -1155 1195 0
-1151 -1155 1195 0
-1195 1155 0
-1195 1150 1151 0
-1151 -1152 1197 0
-1197 1152 0
-1197 1151 0
-1151 -1153 1199 0
-1199 1153 0
-1199 1151 0
-1151 -1154 1201 0
-1201 1154 0
-1201 1151 0
-1151 -1155 1203 0
-1203 1155 0
-1203 1151 0
-1205 -1209 1214 0
-1214 1209 0
-1214 1205 0
-1205 -1210 1216 0
-1216 1210 0
-1216 1205 0
-1205 -1211 1218 0
-1218 1211 0
-1218 1205 0
-1205 -1212 1220 0
-1220 1212 0
-1220 1205 0
-1205 -1209 1222 0
-1206 -1209 1222 0
-1222 1209 0
-1222 1205 1206 0
-1205 -1210 1224 0
-1206 -1210 1224 0
-1224 1210 0
-1224 1205 1206 0
-1205 -1211 1226 0
-1206 -1211 1226 0
-1226 1211 0
-1226 1205 1206 0
-1205 -1212 1228 0
-1206 -1212 1228 0
-1228 1212 0
-1228 1205 1206 0
-1205 -1209 1230 0
-1206 -1209 1230 0
-1207 -1209 1230 0
-1230 1209 0
-1230 1205 1206 1207 0
-1205 -1210 1232 0
-1206 -1210 1232 0
-1207 -1210 1232 0
-1232 1210 0
-1232 1205 1206 1207 0
-1205 -1211 1234 0
-1206 -1211 1234 0
-1207 -1211 1234 0
-1234 1211 0
-1234 1205 1206 1207 0
-1205 -1212 1236 0
-1206 -1212 1236 0
-1207 -1212 1236 0
-1236 1212 0
-1236 1205 1206 1207 0
-1206 -1209 1238 0
-1207 -1209 1238 0
-1208 -1209 1238 0
-1238 1209 0
-1238 1206 1207 1208 0
-1206 -1210 1240 0
-1207 -1210 1240 0
-1208 -1210 1240 0
-1240 1210 0
-1240 1206 1207 1208 0
-1206 -1211 1242 0
-1207 -1211 1242 0
-1208 -1211 1242 0
-1242 1211 0
-1242 1206 1207 1208 0
-1206 -1212 1244 0
-1207 -1212 1244 0
-1208 -1212 1244 0
-1244 1212 0
-1244 1206 1207 1208 0
-1207 -1209 1246 0
-1208 -1209 1246 0
-1246 1209 0
-1246 1207 1208 0
-1207 -1210 1248 0
-1208 -1210 1248 0
-1248 1210 0
-1248 1207 1208 0
-1207 -1211 1250 0
-1208 -1211 1250 0
-1250 1211 0
-1250 1207 1208 0
-1207 -1212 1252 0
-1208 -1212 1252 0
-1252 1212 0
-1252 1207 1208 0
-1208 -1209 1254 0
-1254 1209 0
-1254 1208 0
-1208 -1210 1256 0
-1256 1210 0
-1256 1208 0
-1208 -1211 1258 0
-1258 1211 0
-1258 1208 0
-1208 -1212 1260 0
-1260 1212 0
-1260 1208 0
-1040 1262 0
-1099 1262 0
-1157 1262 0
-1214 1262 0
-1262 1040 1099 1157 1214 0
-1042 1263 0
-1101 1263 0
-1159 1263 0
-1216 1263 0
-1263 1042 1101 1159 1216 0
-1044 1264 0
-1103 1264 0
-1161 1264 0
-1218 1264 0
-1264 1044 1103 1161 1218 0
-1046 1265 0
-1105 1265 0
-1163 1265 0
-1220 1265 0
-1265 1046 1105 1163 1220 0
-1048 1266 0
-1107 1266 0
-1165 1266 0
-1222 1266 0
-1266 1048 1107 1165 1222 0
-1050 1267 0
-1109 1267 0
-1167 1267 0
-1224 1267 0
-1267 1050 1109 1167 1224 0
-1052 1268 0
-1111 1268 0
-1169 1268 0
-1226 1268 0
-1268 1052 1111 1169 1226 0
-1054 1269 0
-1113 1269 0
-1171 1269 0
-1228 1269 0
-1269 1054 1113 1171 1228 0
-1056 1270 0
-1115 1270 0
-1173 1270 0
-1230 1270 0
-1270 1056 1115 1173 1230 0
-1058 1271 0
-1117 1271 0
-1175 1271 0
-1232 1271 0
-1271 1058 1117 1175 1232 0
-1060 1272 0
-1119 1272 0
-1177 1272 0
-1234 1272 0
-1272 1060 1119 1177 1234 0
-1062 1273 0
-1121 1273 0
-1179 1273 0
-1236 1273 0
-1273 1062 1121 1179 1236 0
-1064 1274 0
-1123 1274 0
-1181 1274 0
-1238 1274 0
-1274 1064 1123 1181 1238 0
-1066 1275 0
-1125 1275 0
-1183 1275 0
-1240 1275 0
-1275 1066 1125 1183 1240 0
-1068 1276 0
-1127 1276 0
-1185 1276 0
-1242 1276 0
-1276 1068 1127 1185 1242 0
-1070 1277 0
-1129 1277 0
-1187 1277 0
-1244 1277 0
-1277 1070 1129 1187 1244 0
-1072 1278 0
-1131 1278 0
-1189 1278 0
-1246 1278 0
-1278 1072 1131 1189 1246 0
-1074 1279 0
-1133 1279 0
-1191 1279 0
-1248 1279 0
-1279 1074 1133 1191 1248 0
-1076 1280 0
-1135 1280 0
-1193 1280 0
-1250 1280 0
-1280 1076 1135 1193 1250 0
-1078 1281 0
-1137 1281 0
-1195 1281 0
-1252 1281 0
-1281 1078 1137 1195 1252 0
-1080 1282 0
-1139 1282 0
-1197 1282 0
-1254 1282 0
-1282 1080 1139 1197 1254 0
-1082 1283 0
-1141 1283 0
-1199 1283 0
-1256 1283 0
-1283 1082 1141 1199 1256 0
-1084 1284 0
-1143 1284 0
-1201 1284 0
-1258 1284 0
-1284 1084 1143 1201 1258 0
-1086 1285 0
-1145 1285 0
-1203 1285 0
-1260 1285 0
-1285 1086 1145 1203 1260 0
-1040 -1099 0
-1042 -1101 0
-1044 -1103 0
-1046 -1105 0
-1048 -1107 0
-1050 -1109 0
-1052 -1111 0
-1054 -1113 0
-1056 -1115 0
-1058 -1117 0
-1060 -1119 0
-1062 -1121 0
-1064 -1123 0
-1066 -1125 0
-1068 -1127 0
-1070 -1129 0
-1072 -1131 0
-1074 -1133 0
-1076 -1135 0
-1078 -1137 0
-1080 -1139 0
-1082 -1141 0
-1084 -1143 0
-1086 -1145 0
-1040 -1157 0
-1042 -1159 0
-1044 -1161 0
-1046 -1163 0
-1048 -1165 0
-1050 -1167 0
-1052 -1169 0
-1054 -1171 0
-1056 -1173 0
-1058 -1175 0
-1060 -1177 0
-1062 -1179 0
-1064 -1181 0
-1066 -1183 0
-1068 -1185 0
-1070 -1187 0
-1072 -1189 0
-1074 -1191 0
-1076 -1193 0
-1078 -1195 0
-1080 -1197 0
-1082 -1199 0
-1084 -1201 0
-1086 -1203 0
-1040 -1214 0
-1042 -1216 0
-1044 -1218 0
-1046 -1220 0
-1048 -1222 0
-1050 -1224 0
-1052 -1226 0
-1054 -1228 0
-1056 -1230 0
-1058 -1232 0
-1060 -1234 0
-1062 -1236 0
-1064 -1238 0
-1066 -1240 0
-1068 -1242 0
-1070 -1244 0
-1072 -1246 0
-1074 -1248 0
-1076 -1250 0
-1078 -1252 0
-1080 -1254 0
-1082 -1256 0
-1084 -1258 0
-1086 -1260 0
-1099 -1157 0
-1101 -1159 0
-1103 -1161 0
-1105 -1163 0
-1107 -1165 0
-1109 -1167 0
-1111 -1169 0
-1113 -1171 0
-1115 -1173 0
-1117 -1175 0
-1119 -1177 0
-1121 -1179 0
-1123 -1181 0
-1125 -1183 0
-1127 -1185 0
-1129 -1187 0
-1131 -1189 0
-1133 -1191 0
-1135 -1193 0
-1137 -1195 0
-1139 -1197 0
-1141 -1199 0
-1143 -1201 0
-1145 -1203 0
-1099 -1214 0
-1101 -1216 0
-1103 -1218 0
-1105 -1220 0
-1107 -1222 0
-1109 -1224 0
-1111 -1226 0
-1113 -1228 0
-1115 -1230 0
-1117 -1232 0
-1119 -1234 0
-1121 -1236 0
-1123 -1238 0
-1125 -1240 0
-1127 -1242 0
-1129 -1244 0
-1131 -1246 0
-1133 -1248 0
-1135 -1250 0
-1137 -1252 0
-1139 -1254 0
-1141 -1256 0
-1143 -1258 0
-1145 -1260 0
-1157 -1214 0
-1159 -1216 0
-1161 -1218 0
-1163 -1220 0
-1165 -1222 0
-1167 -1224 0
-1169 -1226 0
-1171 -1228 0
-1173 -1230 0
-1175 -1232 0
-1177 -1234 0
-1179 -1236 0
-1181 -1238 0
-1183 -1240 0
-1185 -1242 0
-1187 -1244 0
-1189 -1246 0
-1191 -1248 0
-1193 -1250 0
-1195 -1252 0
-1197 -1254 0
-1199 -1256 0
-1201 -1258 0
-1203 -1260 0
-1029 -1036 1262 0
-1029 -1037 1263 0
-1029 -1038 1264 0
-1030 -1036 1266 0
-1030 -1037 1267 0
-1030 -1038 1268 0
-1031 -1036 1270 0
-1031 -1037 1271 0
-1031 -1038 1272 0
-1032 -1036 1274 0
-1032 -1037 1275 0
-1032 -1038 1276 0
-1033 -1036 1278 0
-1033 -1037 1279 0
-1033 -1038 1280 0
-1034 -1036 1282 0
-1034 -1037 1283 0
-1034 -1038 1284 0
-1088 -1095 1262 0
-1088 -1096 1263 0
-1088 -1097 1264 0
-1089 -1095 1266 0
-1089 -1096 1267 0
-1089 -1097 1268 0
-1090 -1095 1270 0
-1090 -1096 1271 0
-1090 -1097 1272 0
-1091 -1095 1274 0
-1091 -1096 1275 0
-1091 -1097 1276 0
-1092 -1095 1278 0
-1092 -1096 1279 0
-1092 -1097 1280 0
-1093 -1095 1282 0
-1093 -1096 1283 0
-1093 -1097 1284 0
-1147 -1153 1262 1266 0
-1147 -1154 1263 1267 0
-1147 -1155 1264 1268 0
-1148 -1153 1266 1270 0
-1148 -1154 1267 1271 0
-1148 -1155 1268 1272 0
-1149 -1153 1270 1274 0
-1149 -1154 1271 1275 0
-1149 -1155 1272 1276 0
-1150 -1153 1274 1278 0
-1150 -1154 1275 1279 0
-1150 -1155 1276 1280 0
-1151 -1153 1278 1282 0
-1151 -1154 1279 1283 0
-1151 -1155 1280 1284 0
-1205 -1210 1262 1266 0
-1205 -1210 1262 1270 0
-1205 -1210 1266 1270 0
-1205 -1211 1263 1267 0
-1205 -1211 1263 1271 0
-1205 -1211 1267 1271 0
-1205 -1212 1264 1268 0
-1205 -1212 1264 1272 0
-1205 -1212 1268 1272 0
-1206 -1210 1266 1270 0
-1206 -1210 1266 1274 0
-1206 -1210 1270 1274 0
-1206 -1211 1267 1271 0
-1206 -1211 1267 1275 0
-1206 -1211 1271 1275 0
-1206 -1212 1268 1272 0
-1206 -1212 1268 1276 0
-1206 -1212 1272 1276 0
-1207 -1210 1270 1274 0
-1207 -1210 1270 1278 0
-1207 -1210 1274 1278 0
-1207 -1211 1271 1275 0
-1207 -1211 1271 1279 0
-1207 -1211 1275 1279 0
-1207 -1212 1272 1276 0
-1207 -1212 1272 1280 0
-1207 -1212 1276 1280 0
-1208 -1210 1274 1278 0
-1208 -1210 1274 1282 0
-1208 -1210 1278 1282 0
-1208 -1211 1275 1279 0
-1208 -1211 1275 1283 0
-1208 -1211 1279 1283 0
-1208 -1212 1276 1280 0
-1208 -1212 1276 1284 0
-1208 -1212 1280 1284 0
-1040 -1263 1041 0
-1041 1040 0
-1041 1263 0
-1042 -1264 1043 0
-1043 1042 0
-1043 1264 0
-1044 -1265 1045 0
-1045 1044 0
-1045 1265 0
-1047 0
-1048 -1267 1049 0
-1049 1048 0
-1049 1267 0
-1050 -1268 1051 0
-1051 1050 0
-1051 1268 0
-1052 -1269 1053 0
-1053 1052 0
-1053 1269 0
-1055 0
-1056 -1271 1057 0
-1057 1056 0
-1057 1271 0
-1058 -1272 1059 0
-1059 1058 0
-1059 1272 0
-1060 -1273 1061 0
-1061 1060 0
-1061 1273 0
-1063 0
-1064 -1275 1065 0
-1065 1064 0
-1065 1275 0
-1066 -1276 1067 0
-1067 1066 0
-1067 1276 0
-1068 -1277 1069 0
-1069 1068 0
-1069 1277 0
-1071 0
-1072 -1279 1073 0
-1073 1072 0
-1073 1279 0
-1074 -1280 1075 0
-1075 1074 0
-1075 1280 0
-1076 -1281 1077 0
-1077 1076 0
-1077 1281 0
-1079 0
-1080 -1283 1081 0
-1081 1080 0
-1081 1283 0
-1082 -1284 1083 0
-1083 1082 0
-1083 1284 0
-1084 -1285 1085 0
-1085 1084 0
-1085 1285 0
-1087 0
-1039 -1041 0
-1039 -1043 0
-1039 -1045 0
-1039 -1047 0
-1039 -1049 0
-1039 -1051 0
-1039 -1053 0
-1039 -1055 0
-1039 -1057 0
-1039 -1059 0
-1039 -1061 0
-1039 -1063 0
-1039 -1065 0
-1039 -1067 0
-1039 -1069 0
-1039 -1071 0
-1039 -1073 0
-1039 -1075 0
-1039 -1077 0
-1039 -1079 0
-1039 -1081 0
-1039 -1083 0
-1039 -1085 0
-1039 -1087 0
1039 1041 1043 1045 1047 1049 1051 1053 1055 1057 1059 1061 1063 1065 1067 1069 1071 1073 1075 1077 1079 1081 1083 1085 1087 0
-1099 -1263 1100 0
-1100 1099 0
-1100 1263 0
-1101 -1264 1102 0
-1102 1101 0
-1102 1264 0
-1103 -1265 1104 0
-1104 1103 0
-1104 1265 0
-1106 0
-1107 -1267 1108 0
-1108 1107 0
-1108 1267 0
-1109 -1268 1110 0
-1110 1109 0
-1110 1268 0
-1111 -1269 1112 0
-1112 1111 0
-1112 1269 0
-1114 0
-1115 -1271 1116 0
-1116 1115 0
-1116 1271 0
-1117 -1272 1118 0
-1118 1117 0
-1118 1272 0
-1119 -1273 1120 0
-1120 1119 0
-1120 1273 0
-1122 0
-1123 -1275 1124 0
-1124 1123 0
-1124 1275 0
-1125 -1276 1126 0
-1126 1125 0
-1126 1276 0
-1127 -1277 1128 0
-1128 1127 0
-1128 1277 0
-1130 0
-1131 -1279 1132 0
-1132 1131 0
-1132 1279 0
-1133 -1280 1134 0
-1134 1133 0
-1134 1280 0
-1135 -1281 1136 0
-1136 1135 0
-1136 1281 0
-1138 0
-1139 -1283 1140 0
-1140 1139 0
-1140 1283 0
-1141 -1284 1142 0
-1142 1141 0
-1142 1284 0
-1143 -1285 1144 0
-1144 1143 0
-1144 1285 0
-1146 0
-1098 -1100 0
-1098 -1102 0
-1098 -1104 0
-1098 -1106 0
-1098 -1108 0
-1098 -1110 0
-1098 -1112 0
-1098 -1114 0
-1098 -1116 0
-1098 -1118 0
-1098 -1120 0
-1098 -1122 0
-1098 -1124 0
-1098 -1126 0
-1098 -1128 0
-1098 -1130 0
-1098 -1132 0
-1098 -1134 0
-1098 -1136 0
-1098 -1138 0
-1098 -1140 0
-1098 -1142 0
-1098 -1144 0
-1098 -1146 0
1098 1100 1102 1104 1106 1108 1110 1112 1114 1116 1118 1120 1122 1124 1126 1128 1130 1132 1134 1136 1138 1140 1142 1144 1146 0
-1157 -1263 1158 0
-1158 1157 0
-1158 1263 0
-1159 -1264 1160 0
-1160 1159 0
-1160 1264 0
-1161 -1265 1162 0
-1162 1161 0
-1162 1265 0
-1164 0
-1165 -1267 1166 0
-1166 1165 0
-1166 1267 0
-1167 -1268 1168 0
-1168 1167 0
-1168 1268 0
-1169 -1269 1170 0
-1170 1169 0
-1170 1269 0
-1172 0
-1173 -1271 1174 0
-1174 1173 0
-1174 1271 0
-1175 -1272 1176 0
-1176 1175 0
-1176 1272 0
-1177 -1273 1178 0
-1178 1177 0
-1178 1273 0
-1180 0
-1181 -1275 1182 0
-1182 1181 0
-1182 1275 0
-1183 -1276 1184 0
-1184 1183 0
-1184 1276 0
-1185 -1277 1186 0
-1186 1185 0
-1186 1277 0
-1188 0
-1189 -1279 1190 0
-1190 1189 0
-1190 1279 0
-1191 -1280 1192 0
-1192 1191 0
-1192 1280 0
-1193 -1281 1194 0
-1194 1193 0
-1194 1281 0
-1196 0
-1197 -1283 1198 0
-1198 1197 0
-1198 1283 0
-1199 -1284 1200 0
-1200 1199 0
-1200 1284 0
-1201 -1285 1202 0
-1202 1201 0
-1202 1285 0
-1204 0
-1156 -1158 0
-1156 -1160 0
-1156 -1162 0
-1156 -1164 0
-1156 -1166 0
-1156 -1168 0
-1156 -1170 0
-1156 -1172 0
-1156 -1174 0
-1156 -1176 0
-1156 -1178 0
-1156 -1180 0
-1156 -1182 0
-1156 -1184 0
-1156 -1186 0
-1156 -1188 0
-1156 -1190 0
-1156 -1192 0
-1156 -1194 0
-1156 -1196 0
-1156 -1198 0
-1156 -1200 0
-1156 -1202 0
-1156 -1204 0
1156 1158 1160 1162 1164 1166 1168 1170 1172 1174 1176 1178 1180 1182 1184 1186 1188 1190 1192 1194 1196 1198 1200 1202 1204 0
-1214 -1263 1215 0
-1215 1214 0
-1215 1263 0
-1216 -1264 1217 0
-1217 1216 0
-1217 1264 0
-1218 -1265 1219 0
-1219 1218 0
-1219 1265 0
-1221 0
-1222 -1267 1223 0
-1223 1222 0
-1223 1267 0
-1224 -1268 1225 0
-1225 1224 0
-1225 1268 0
-1226 -1269 1227 0
-1227 1226 0
-1227 1269 0
-1229 0
-1230 -1271 1231 0
-1231 1230 0
-1231 1271 0
-1232 -1272 1233 0
-1233 1232 0
-1233 1272 0
-1234 -1273 1235 0
-1235 1234 0
-1235 1273 0
-1237 0
-1238 -1275 1239 0
-1239 1238 0
-1239 1275 0
-1240 -1276 1241 0
-1241 1240 0
-1241 1276 0
-1242 -1277 1243 0
-1243 1242 0
-1243 1277 0
-1245 0
-1246 -1279 1247 0
-1247 1246 0
-1247 1279 0
-1248 -1280 1249 0
-1249 1248 0
-1249 1280 0
-1250 -1281 1251 0
-1251 1250 0
-1251 1281 0
-1253 0
-1254 -1283 1255 0
-1255 1254 0
-1255 1283 0
-1256 -1284 1257 0
-1257 1256 0
-1257 1284 0
-1258 -1285 1259 0
-1259 1258 0
-1259 1285 0
-1261 0
-1213 -1215 0
-1213 -1217 0
-1213 -1219 0
-1213 -1221 0
-1213 -1223 0
-1213 -1225 0
-1213 -1227 0
-1213 -1229 0
-1213 -1231 0
-1213 -1233 0
-1213 -1235 0
-1213 -1237 0
-1213 -1239 0
-1213 -1241 0
-1213 -1243 0
-1213 -1245 0
-1213 -1247 0
-1213 -1249 0
-1213 -1251 0
-1213 -1253 0
-1213 -1255 0
-1213 -1257 0
-1213 -1259 0
-1213 -1261 0
1213 1215 1217 1219 1221 1223 1225 1227 1229 1231 1233 1235 1237 1239 1241 1243 1245 1247 1249 1251 1253 1255 1257 1259 1261 0
1286 1287 1288 1289 1290 1291 0
-1286 -1287 0
-1286 -1288 0
-1286 -1289 0
-1286 -1290 0
-1286 -1291 0
-1287 -1288 0
-1287 -1289 0
-1287 -1290 0
-1287 -1291 0
-1288 -1289 0
-1288 -1290 0
-1288 -1291 0
-1289 -1290 0
-1289 -1291 0
-1290 -1291 0
1292 1293 1294 1295 0
-1292 -1293 0
-1292 -1294 0
-1292 -1295 0
-1293 -1294 0
-1293 -1295 0
-1294 -1295 0
1345 1346 1347 1348 1349 1350 0
-1345 -1346 0
-1345 -1347 0
-1345 -1348 0
-1345 -1349 0
-1345 -1350 0
-1346 -1347 0
-1346 -1348 0
-1346 -1349 0
-1346 -1350 0
-1347 -1348 0
-1347 -1349 0
-1347 -1350 0
-1348 -1349 0
-1348 -1350 0
-1349 -1350 0
1351 1352 1353 1354 0
-1351 -1352 0
-1351 -1353 0
-1351 -1354 0
-1352 -1353 0
-1352 -1354 0
-1353 -1354 0
1404 1405 1406 1407 1408 0
-1404 -1405 0
-1404 -1406 0
-1404 -1407 0
-1404 -1408 0
-1405 -1406 0
-1405 -1407 0
-1405 -1408 0
-1406 -1407 0
-1406 -1408 0
-1407 -1408 0
1409 1410 1411 1412 0
-1409 -1410 0
-1409 -1411 0
-1409 -1412 0
-1410 -1411 0
-1410 -1412 0
-1411 -1412 0
1462 1463 1464 1465 0
-1462 -1463 0
-1462 -1464 0
-1462 -1465 0
-1463 -1464 0
-1463 -1465 0
-1464 -1465 0
1466 1467 1468 1469 0
-1466 -1467 0
-1466 -1468 0
-1466 -1469 0
-1467 -1468 0
-1467 -1469 0
-1468 -1469 0
-1286 -1292 1297 0
-1297 1292 0
-1297 1286 0
-1286 -1293 1299 0
-1299 1293 0
-1299 1286 0
-1286 -1294 1301 0
-1301 1294 0
-1301 1286 0
-1286 -1295 1303 0
-1303 1295 0
-1303 1286 0
-1287 -1292 1305 0
-1305 1292 0
-1305 1287 0
-1287 -1293 1307 0
-1307 1293 0
-1307 1287 0
-1287 -1294 1309 0
-1309 1294 0
-1309 1287 0
-1287 -1295 1311 0
-1311 1295 0
-1311 1287 0
-1288 -1292 1313 0
-1313 1292 0
-1313 1288 0
-1288 -1293 1315 0
-1315 1293 0
-1315 1288 0
-1288 -1294 1317 0
-1317 1294 0
-1317 1288 0
-1288 -1295 1319 0
-1319 1295 0
-1319 1288 0
-1289 -1292 1321 0
-1321 1292 0
-1321 1289 0
-1289 -1293 1323 0
-1323 1293 0
-1323 1289 0
-1289 -1294 1325 0
-1325 1294 0
-1325 1289 0
-1289 -1295 1327 0
-1327 1295 0
-1327 1289 0
-1290 -1292 1329 0
-1329 1292 0
-1329 1290 0
-1290 -1293 1331 0
-1331 1293 0
-1331 1290 0
-1290 -1294 1333 0
-1333 1294 0
-1333 1290 0
-1290 -1295 1335 0
-1335 1295 0
-1335 1290 0
-1291 -1292 1337 0
-1337 1292 0
-1337 1291 0
-1291 -1293 1339 0
-1339 1293 0
-1339 1291 0
-1291 -1294 1341 0
-1341 1294 0
-1341 1291 0
-1291 -1295 1343 0
-1343 1295 0
-1343 1291 0
-1345 -1351 1356 0
-1356 1351 0
-1356 1345 0
-1345 -1352 1358 0
-1358 1352 0
-1358 1345 0
-1345 -1353 1360 0
-1360 1353 0
-1360 1345 0
-1345 -1354 1362 0
-1362 1354 0
-1362 1345 0
-1346 -1351 1364 0
-1364 1351 0
-1364 1346 0
-1346 -1352 1366 0
-1366 1352 0
-1366 1346 0
-1346 -1353 1368 0
-1368 1353 0
-1368 1346 0
-1346 -1354 1370 0
-1370 1354 0
-1370 1346 0
-1347 -1351 1372 0
-1372 1351 0
-1372 1347 0
-1347 -1352 1374 0
-1374 1352 0
-1374 1347 0
-1347 -1353 1376 0
-1376 1353 0
-1376 1347 0
-1347 -1354 1378 0
-1378 1354 0
-1378 1347 0
-1348 -1351 1380 0
-1380 1351 0
-1380 1348 0
-1348 -1352 1382 0
-1382 1352 0
-1382 1348 0
-1348 -1353 1384 0
-1384 1353 0
-1384 1348 0
-1348 -1354 1386 0
-1386 1354 0
-1386 1348 0
-1349 -1351 1388 0
-1388 1351 0
-1388 1349 0
-1349 -1352 1390 0
-1390 1352 0
-1390 1349 0
-1349 -1353 1392 0
-1392 1353 0
-1392 1349 0
-1349 -1354 1394 0
-1394 1354 0
-1394 1349 0
-1350 -1351 1396 0
-1396 1351 0
-1396 1350 0
-1350 -1352 1398 0
-1398 1352 0
-1398 1350 0
-1350 -1353 1400 0
-1400 1353 0
-1400 1350 0
-1350 -1354 1402 0
-1402 1354 0
-1402 1350 0
-1404 -1409 1414 0
-1414 1409 0
-1414 1404 0
-1404 -1410 1416 0
-1416 1410 0
-1416 1404 0
-1404 -1411 1418 0
-1418 1411 0
-1418 1404 0
-1404 -1412 1420 0
-1420 1412 0
-1420 1404 0
-1404 -1409 1422 0
-1405 -1409 1422 0
-1422 1409 0
-1422 1404 1405 0
-1404 -1410 1424 0
-1405 -1410 1424 0
-1424 1410 0
-1424 1404 1405 0
-1404 -1411 1426 0
-1405 -1411 1426 0
-1426 1411 0
-1426 1404 1405 0
-1404 -1412 1428 0
-1405 -1412 1428 0
-1428 1412 0
-1428 1404 1405 0
-1405 -1409 1430 0
-1406 -1409 1430 0
-1430 1409 0
-1430 1405 1406 0
-1405 -1410 1432 0
-1406 -1410 1432 0
-1432 1410 0
-1432 1405 1406 0
-1405 -1411 1434 0
-1406 -1411 1434 0
-1434 1411 0
-1434 1405 1406 0
-1405 -1412 1436 0
-1406 -1412 1436 0
-1436 1412 0
-1436 1405 1406 0
-1406 -1409 1438 0
-1407 -1409 1438 0
-1438 1409 0
-1438 1406 1407 0
-1406 -1410 1440 0
-1407 -1410 1440 0
-1440 1410 0
-1440 1406 1407 0
-1406 -1411 1442 0
-1407 -1411 1442 0
-1442 1411 0
-1442 1406 1407 0
-1406 -1412 1444 0
-1407 -1412 1444 0
-1444 1412 0
-1444 1406 1407 0
-1407 -1409 1446 0
-1408 -1409 1446 0
-1446 1409 0
-1446 1407 1408 0
-1407 -1410 1448 0
-1408 -1410 1448 0
-1448 1410 0
-1448 1407 1408 0
-1407 -1411 1450 0
-1408 -1411 1450 0
-1450 1411 0
-1450 1407 1408 0
-1407 -1412 1452 0
-1408 -1412 1452 0
-1452 1412 0
-1452 1407 1408 0
-1408 -1409 1454 0
-1454 1409 0
-1454 1408 0
-1408 -1410 1456 0
-1456 1410 0
-1456 1408 0
-1408 -1411 1458 0
-1458 1411 0
-1458 1408 0
-1408 -1412 1460 0
-1460 1412 0
-1460 1408 0
-1462 -1466 1471 0
-1471 1466 0
-1471 1462 0
-1462 -1467 1473 0
-1473 1467 0
-1473 1462 0
-1462 -1468 1475 0
-1475 1468 0
-1475 1462 0
-1462 -1469 1477 0
-1477 1469 0
-1477 1462 0
-1462 -1466 1479 0
-1463 -1466 1479 0
-1479 1466 0
-1479 1462 1463 0
-1462 -1467 1481 0
-1463 -1467 1481 0
-1481 1467 0
-1481 1462 1463 0
-1462 -1468 1483 0
-1463 -1468 1483 0
-1483 1468 0
-1483 1462 1463 0
-1462 -1469 1485 0
-1463 -1469 1485 0
-1485 1469 0
-1485 1462 1463 0
-1462 -1466 1487 0
-1463 -1466 1487 0
-1464 -1466 1487 0
-1487 1466 0
-1487 1462 1463 1464 0
-1462 -1467 1489 0
-1463 -1467 1489 0
-1464 -1467 1489 0
-1489 1467 0
-1489 1462 1463 1464 0
-1462 -1468 1491 0
-1463 -1468 1491 0
-1464 -1468 1491 0
-1491 1468 0
-1491 1462 1463 1464 0
-1462 -1469 1493 0
-1463 -1469 1493 0
-1464 -1469 1493 0
-1493 1469 0
-1493 1462 1463 1464 0
-1463 -1466 1495 0
-1464 -1466 1495 0
-1465 -1466 1495 0
-1495 1466 0
-1495 1463 1464 1465 0
-1463 -1467 1497 0
-1464 -1467 1497 0
-1465 -1467 1497 0
-1497 1467 0
-1497 1463 1464 1465 0
-1463 -1468 1499 0
-1464 -1468 1499 0
-1465 -1468 1499 0
-1499 1468 0
-1499 1463 1464 1465 0
-1463 -1469 1501 0
-1464 -1469 1501 0
-1465 -1469 1501 0
-1501 1469 0
-1501 1463 1464 1465 0
-1464 -1466 1503 0
-1465 -1466 1503 0
-1503 1466 0
-1503 1464 1465 0
-1464 -1467 1505 0
-1465 -1467 1505 0
-1505 1467 0
-1505 1464 1465 0
-1464 -1468 1507 0
-1465 -1468 1507 0
-1507 1468 0
-1507 1464 1465 0
-1464 -1469 1509 0
-1465 -1469 1509 0
-1509 1469 0
-1509 1464 1465 0
-1465 -1466 1511 0
-1511 1466 0
-1511 1465 0
-1465 -1467 1513 0
-1513 1467 0
-1513 1465 0
-1465 -1468 1515 0
-1515 1468 0
-1515 1465 0
-1465 -1469 1517 0
-1517 1469 0
-1517 1465 0
-1297 1519 0
-1356 1519 0
-1414 1519 0
-1471 1519 0
-1519 1297 1356 1414 1471 0
-1299 1520 0
-1358 1520 0
-1416 1520 0
-1473 1520 0
-1520 1299 1358 1416 1473 0
-1301 1521 0
-1360 1521 0
-1418 1521 0
-1475 1521 0
-1521 1301 1360 1418 1475 0
-1303 1522 0
-1362 1522 0
-1420 1522 0
-1477 1522 0
-1522 1303 1362 1420 1477 0
-1305 1523 0
-1364 1523 0
-1422 1523 0
-1479 1523 0
-1523 1305 1364 1422 1479 0
-1307 1524 0
-1366 1524 0
-1424 1524 0
-1481 1524 0
-1524 1307 1366 1424 1481 0
-1309 1525 0
-1368 1525 0
-1426 1525 0
-1483 1525 0
-1525 1309 1368 1426 1483 0
-1311 1526 0
-1370 1526 0
-1428 1526 0
-1485 1526 0
-1526 1311 1370 1428 1485 0
-1313 1527 0
-1372 1527 0
-1430 1527 0
-1487 1527 0
-1527 1313 1372 1430 1487 0
-1315 1528 0
-1374 1528 0
-1432 1528 0
-1489 1528 0
-1528 1315 1374 1432 1489 0
-1317 1529 0
-1376 1529 0
-1434 1529 0
-1491 1529 0
-1529 1317 1376 1434 1491 0
-1319 1530 0
-1378 1530 0
-1436 1530 0
-1493 1530 0
-1530 1319 1378 1436 1493 0
-1321 1531 0
-1380 1531 0
-1438 1531 0
-1495 1531 0
-1531 1321 1380 1438 1495 0
-1323 1532 0
-1382 1532 0
-1440 1532 0
-1497 1532 0
-1532 1323 1382 1440 1497 0
-1325 1533 0
-1384 1533 0
-1442 1533 0
-1499 1533 0
-1533 1325 1384 1442 1499 0
-1327 1534 0
-1386 1534 0
-1444 1534 0
-1501 1534 0
-1534 1327 1386 1444 1501 0
-1329 1535 0
-1388 1535 0
-1446 1535 0
-1503 1535 0
-1535 1329 1388 1446 1503 0
-1331 1536 0
-1390 1536 0
-1448 1536 0
-1505 1536 0
-1536 1331 1390 1448 1505 0
-1333 1537 0
-1392 1537 0
-1450 1537 0
-1507 1537 0
-1537 1333 1392 1450 1507 0
-1335 1538 0
-1394 1538 0
-1452 1538 0
-1509 1538 0
-1538 1335 1394 1452 1509 0
-1337 1539 0
-1396 1539 0
-1454 1539 0
-1511 1539 0
-1539 1337 1396 1454 1511 0
-1339 1540 0
-1398 1540 0
-1456 1540 0
-1513 1540 0
-1540 1339 1398 1456 1513 0
-1341 1541 0
-1400 1541 0
-1458 1541 0
-1515 1541 0
-1541 1341 1400 1458 1515 0
-1343 1542 0
-1402 1542 0
-1460 1542 0
-1517 1542 0
-1542 1343 1402 1460 1517 0
-1297 -1356 0
-1299 -1358 0
-1301 -1360 0
-1303 -1362 0
-1305 -1364 0
-1307 -1366 0
-1309 -1368 0
-1311 -1370 0
-1313 -1372 0
-1315 -1374 0
-1317 -1376 0
-1319 -1378 0
-1321 -1380 0
-1323 -1382 0
-1325 -1384 0
-1327 -1386 0
-1329 -1388 0
-1331 -1390 0
-1333 -1392 0
-1335 -1394 0
-1337 -1396 0
-1339 -1398 0
-1341 -1400 0
-1343 -1402 0
-1297 -1414 0
-1299 -1416 0
-1301 -1418 0
-1303 -1420 0
-1305 -1422 0
-1307 -1424 0
-1309 -1426 0
-1311 -1428 0
-1313 -1430 0
-1315 -1432 0
-1317 -1434 0
-1319 -1436 0
-1321 -1438 0
-1323 -1440 0
-1325 -1442 0
-1327 -1444 0
-1329 -1446 0
-1331 -1448 0
-1333 -1450 0
-1335 -1452 0
-1337 -1454 0
-1339 -1456 0
-1341 -1458 0
-1343 -1460 0
-1297 -1471 0
-1299 -1473 0
-1301 -1475 0
-1303 -1477 0
-1305 -1479 0
-1307 -1481 0
-1309 -1483 0
-1311 -1485 0
-1313 -1487 0
-1315 -1489 0
-1317 -1491 0
-1319 -1493 0
-1321 -1495 0
-1323 -1497 0
-1325 -1499 0
-1327 -1501 0
-1329 -1503 0
-1331 -1505 0
-1333 -1507 0
-1335 -1509 0
-1337 -1511 0
-1339 -1513 0
-1341 -1515 0
-1343 -1517 0
-1356 -1414 0
-1358 -1416 0
-1360 -1418 0
-1362 -1420 0
-1364 -1422 0
-1366 -1424 0
-1368 -1426 0
-1370 -1428 0
-1372 -1430 0
-1374 -1432 0
-1376 -1434 0
-1378 -1436 0
-1380 -1438 0
-1382 -1440 0
-1384 -1442 0
-1386 -1444 0
-1388 -1446 0
-1390 -1448 0
-1392 -1450 0
-1394 -1452 0
-1396 -1454 0
-1398 -1456 0
-1400 -1458 0
-1402 -1460 0
-1356 -1471 0
-1358 -1473 0
-1360 -1475 0
-1362 -1477 0
-1364 -1479 0
-1366 -1481 0
-1368 -1483 0
-1370 -1485 0
-1372 -1487 0
-1374 -1489 0
-1376 -1491 0
-1378 -1493 0
-1380 -1495 0
-1382 -1497 0
-1384 -1499 0
-1386 -1501 0
-1388 -1503 0
-1390 -1505 0
-1392 -1507 0
-1394 -1509 0
-1396 -1511 0
-1398 -1513 0
-1400 -1515 0
-1402 -1517 0
-1414 -1471 0
-1416 -1473 0
-1418 -1475 0
-1420 -1477 0
-1422 -1479 0
-1424 -1481 0
-1426 -1483 0
-1428 -1485 0
-1430 -1487 0
-1432 -1489 0
-1434 -1491 0
-1436 -1493 0
-1438 -1495 0
-1440 -1497 0
-1442 -1499 0
-1444 -1501 0
-1446 -1503 0
-1448 -1505 0
-1450 -1507 0
-1452 -1509 0
-1454 -1511 0
-1456 -1513 0
-1458 -1515 0
-1460 -1517 0
-1286 -1293 1519 0
-1286 -1294 1520 0
-1286 -1295 1521 0
-1287 -1293 1523 0
-1287 -1294 1524 0
-1287 -1295 1525 0
-1288 -1293 1527 0
-1288 -1294 1528 0
-1288 -1295 1529 0
-1289 -1293 1531 0
-1289 -1294 1532 0
-1289 -1295 1533 0
-1290 -1293 1535 0
-1290 -1294 1536 0
-1290 -1295 1537 0
-1291 -1293 1539 0
-1291 -1294 1540 0
-1291 -1295 1541 0
-1345 -1352 1519 0
-1345 -1353 1520 0
-1345 -1354 1521 0
-1346 -1352 1523 0
-1346 -1353 1524 0
-1346 -1354 1525 0
-1347 -1352 1527 0
-1347 -1353 1528 0
-1347 -1354 1529 0
-1348 -1352 1531 0
-1348 -1353 1532 0
-1348 -1354 1533 0
-1349 -1352 1535 0
-1349 -1353 1536 0
-1349 -1354 1537 0
-1350 -1352 1539 0
-1350 -1353 1540 0
-1350 -1354 1541 0
-1404 -1410 1519 1523 0
-1404 -1411 1520 1524 0
-1404 -1412 1521 1525 0
-1405 -1410 1523 1527 0
-1405 -1411 1524 1528 0
-1405 -1412 1525 1529 0
-1406 -1410 1527 1531 0
-1406 -1411 1528 1532 0
-1406 -1412 1529 1533 0
-1407 -1410 1531 1535 0
-1407 -1411 1532 1536 0
-1407 -1412 1533 1537 0
-1408 -1410 1535 1539 0
-1408 -1411 1536 1540 0
-1408 -1412 1537 1541 0
-1462 -1467 1519 1523 0
-1462 -1467 1519 1527 0
-1462 -1467 1523 1527 0
-1462 -1468 1520 1524 0
-1462 -1468 1520 1528 0
-1462 -1468 1524 1528 0
-1462 -1469 1521 1525 0
-1462 -1469 1521 1529 0
-1462 -1469 1525 1529 0
-1463 -1467 1523 1527 0
-1463 -1467 1523 1531 0
-1463 -1467 1527 1531 0
-1463 -1468 1524 1528 0
-1463 -1468 1524 1532 0
-1463 -1468 1528 1532 0
-1463 -1469 1525 1529 0
-1463 -1469 1525 1533 0
-1463 -1469 1529 1533 0
-1464 -1467 1527 1531 0
-1464 -1467 1527 1535 0
-1464 -1467 1531 1535 0
-1464 -1468 1528 1532 0
-1464 -1468 1528 1536 0
-1464 -1468 1532 1536 0
-1464 -1469 1529 1533 0
-1464 -1469 1529 1537 0
-1464 -1469 1533 1537 0
-1465 -1467 1531 1535 0
-1465 -1467 1531 1539 0
-1465 -1467 1535 1539 0
-1465 -1468 1532 1536 0
-1465 -1468 1532 1540 0
-1465 -1468 1536 1540 0
-1465 -1469 1533 1537 0
-1465 -1469 1533 1541 0
-1465 -1469 1537 1541 0
-1297 -1520 1298 0
-1298 1297 0
-1298 1520 0
-1299 -1521 1300 0
-1300 1299 0
-1300 1521 0
-1301 -1522 1302 0
-1302 1301 0
-1302 1522 0
-1304 0
-1305 -1524 1306 0
-1306 1305 0
-1306 1524 0
-1307 -1525 1308 0
-1308 1307 0
-1308 1525 0
-1309 -1526 1310 0
-1310 1309 0
-1310 1526 0
-1312 0
-1313 -1528 1314 0
-1314 1313 0
-1314 1528 0
-1315 -1529 1316 0
-1316 1315 0
-1316 1529 0
-1317 -1530 1318 0
-1318 1317 0
-1318 1530 0
-1320 0
-1321 -1532 1322 0
-1322 1321 0
-1322 1532 0
-1323 -1533 1324 0
-1324 1323 0
-1324 1533 0
-1325 -1534 1326 0
-1326 1325 0
-1326 1534 0
-1328 0
-1329 -1536 1330 0
-1330 1329 0
-1330 1536 0
-1331 -1537 1332 0
-1332 1331 0
-1332 1537 0
-1333 -1538 1334 0
-1334 1333 0
-1334 1538 0
-1336 0
-1337 -1540 1338 0
-1338 1337 0
-1338 1540 0
-1339 -1541 1340 0
-1340 1339 0
-1340 1541 0
-1341 -1542 1342 0
-1342 1341 0
-1342 1542 0
-1344 0
-1296 -1298 0
-1296 -1300 0
-1296 -1302 0
-1296 -1304 0
-1296 -1306 0
-1296 -1308 0
-1296 -1310 0
-1296 -1312 0
-1296 -1314 0
-1296 -1316 0
-1296 -1318 0
-1296 -1320 0
-1296 -1322 0
-1296 -1324 0
-1296 -1326 0
-1296 -1328 0
-1296 -1330 0
-1296 -1332 0
-1296 -1334 0
-1296 -1336 0
-1296 -1338 0
-1296 -1340 0
-1296 -1342 0
-1296 -1344 0
1296 1298 1300 1302 1304 1306 1308 1310 1312 1314 1316 1318 1320 1322 1324 1326 1328 1330 1332 1334 1336 1338 1340 1342 1344 0
-1356 -1520 1357 0
-1357 1356 0
-1357 1520 0
-1358 -1521 1359 0
-1359 1358 0
-1359 1521 0
-1360 -1522 1361 0
-1361 1360 0
-1361 1522 0
-1363 0
-1364 -1524 1365 0
-1365 1364 0
-1365 1524 0
-1366 -1525 1367 0
-1367 1366 0
-1367 1525 0
-1368 -1526 1369 0
-1369 1368 0
-1369 1526 0
-1371 0
-1372 -1528 1373 0
-1373 1372 0
-1373 1528 0
-1374 -1529 1375 0
-1375 1374 0
-1375 1529 0
-1376 -1530 1377 0
-1377 1376 0
-1377 1530 0
-1379 0
-1380 -1532 1381 0
-1381 1380 0
-1381 1532 0
-1382 -1533 1383 0
-1383 1382 0
-1383 1533 0
-1384 -1534 1385 0
-1385 1384 0
-1385 1534 0
-1387 0
-1388 -1536 1389 0
-1389 1388 0
-1389 1536 0
-1390 -1537 1391 0
-1391 1390 0
-1391 1537 0
-1392 -1538 1393 0
-1393 1392 0
-1393 1538 0
-1395 0
-1396 -1540 1397 0
-1397 1396 0
-1397 1540 0
-1398 -1541 1399 0
-1399 1398 0
-1399 1541 0
-1400 -1542 1401 0
-1401 1400 0
-1401 1542 0
-1403 0
-1355 -1357 0
-1355 -1359 0
-1355 -1361 0
-1355 -1363 0
-1355 -1365 0
-1355 -1367 0
-1355 -1369 0
-1355 -1371 0
-1355 -1373 0
-1355 -1375 0
-1355 -1377 0
-1355 -1379 0
-1355 -1381 0
-1355 -1383 0
-1355 -1385 0
-1355 -1387 0
-1355 -1389 0
-1355 -1391 0
-1355 -1393 0
-1355 -1395 0
-1355 -1397 0
-1355 -1399 0
-1355 -1401 0
-1355 -1403 0
1355 1357 1359 1361 1363 1365 1367 1369 1371 1373 1375 1377 1379 1381 1383 1385 1387 1389 1391 1393 1395 1397 1399 1401 1403 0
-1414 -1520 1415 0
-1415 1414 0
-1415 1520 0
-1416 -1521 1417 0
-1417 1416 0
-1417 1521 0
-1418 -1522 1419 0
-1419 1418 0
-1419 1522 0
-1421 0
-1422 -1524 1423 0
-1423 1422 0
-1423 1524 0
-1424 -1525 1425 0
-1425 1424 0
-1425 1525 0
-1426 -1526 1427 0
-1427 1426 0
-1427 1526 0
-1429 0
-1430 -1528 1431 0
-1431 1430 0
-1431 1528 0
-1432 -1529 1433 0
-1433 1432 0
-1433 1529 0
-1434 -1530 1435 0
-1435 1434 0
-1435 1530 0
-1437 0
-1438 -1532 1439 0
-1439 1438 0
-1439 1532 0
-1440 -1533 1441 0
-1441 1440 0
-1441 1533 0
-1442 -1534 1443 0
-1443 1442 0
-1443 1534 0
-1445 0
-1446 -1536 1447 0
-1447 1446 0
-1447 1536 0
-1448 -1537 1449 0
-1449 1448 0
-1449 1537 0
-1450 -1538 1451 0
-1451 1450 0
-1451 1538 0
-1453 0
-1454 -1540 1455 0
-1455 1454 0
-1455 1540 0
-1456 -1541 1457 0
-1457 1456 0
-1457 1541 0
-1458 -1542 1459 0
-1459 1458 0
-1459 1542 0
-1461 0
-1413 -1415 0
-1413 -1417 0
-1413 -1419 0
-1413 -1421 0
-1413 -1423 0
-1413 -1425 0
-1413 -1427 0
-1413 -1429 0
-1413 -1431 0
-1413 -1433 0
-1413 -1435 0
-1413 -1437 0
-1413 -1439 0
-1413 -1441 0
-1413 -1443 0
-1413 -1445 0
-1413 -1447 0
-1413 -1449 0
-1413 -1451 0
-1413 -1453 0
-1413 -1455 0
-1413 -1457 0
-1413 -1459 0
-1413 -1461 0
1413 1415 1417 1419 1421 1423 1425 1427 1429 1431 1433 1435 1437 1439 1441 1443 1445 1447 1449 1451 1453 1455 1457 1459 1461 0
-1471 -1520 1472 0
-1472 1471 0
-1472 1520 0
-1473 -1521 1474 0
-1474 1473 0
-1474 1521 0
-1475 -1522 1476 0
-1476 1475 0
-1476 1522 0
-1478 0
-1479 -1524 1480 0
-1480 1479 0
-1480 1524 0
-1481 -1525 1482 0
-1482 1481 0
-1482 1525 0
-1483 -1526 1484 0
-1484 1483 0
-1484 1526 0
-1486 0
-1487 -1528 1488 0
-1488 1487 0
-1488 1528 0
-1489 -1529 1490 0
-1490 1489 0
-1490 1529 0
-1491 -1530 1492 0
-1492 1491 0
-1492 1530 0
-1494 0
-1495 -1532 1496 0
-1496 1495 0
-1496 1532 0
-1497 -1533 1498 0
-1498 1497 0
-1498 1533 0
-1499 -1534 1500 0
-1500 1499 0
-1500 1534 0
-1502 0
-1503 -1536 1504 0
-1504 1503 0
-1504 1536 0
-1505 -1537 1506 0
-1506 1505 0
-1506 1537 0
-1507 -1538 1508 0
-1508 1507 0
-1508 1538 0
-1510 0
-1511 -1540 1512 0
-1512 1511 0
-1512 1540 0
-1513 -1541 1514 0
-1514 1513 0
-1514 1541 0
-1515 -1542 1516 0
-1516 1515 0
-1516 1542 0
-1518 0
-1470 -1472 0
-1470 -1474 0
-1470 -1476 0
-1470 -1478 0
-1470 -1480 0
-1470 -1482 0
-1470 -1484 0
-1470 -1486 0
-1470 -1488 0
-1470 -1490 0
-1470 -1492 0
-1470 -1494 0
-1470 -1496 0
-1470 -1498 0
-1470 -1500 0
-1470 -1502 0
-1470 -1504 0
-1470 -1506 0
-1470 -1508 0
-1470 -1510 0
-1470 -1512 0
-1470 -1514 0
-1470 -1516 0
-1470 -1518 0
1470 1472 1474 1476 1478 1480 1482 1484 1486 1488 1490 1492 1494 1496 1498 1500 1502 1504 1506 1508 1510 1512 1514 1516 1518 0
1543 1544 1545 1546 1547 1548 0
-1543 -1544 0
-1543 -1545 0
-1543 -1546 0
-1543 -1547 0
-1543 -1548 0
-1544 -1545 0
-1544 -1546 0
-1544 -1547 0
-1544 -1548 0
-1545 -1546 0
-1545 -1547 0
-1545 -1548 0
-1546 -1547 0
-1546 -1548 0
-1547 -1548 0
1549 1550 1551 1552 0
-1549 -1550 0
-1549 -1551 0
-1549 -1552 0
-1550 -1551 0
-1550 -1552 0
-1551 -1552 0
1602 1603 1604 1605 1606 1607 0
-1602 -1603 0
-1602 -1604 0
-1602 -1605 0
-1602 -1606 0
-1602 -1607 0
-1603 -1604 0
-1603 -1605 0
-1603 -1606 0
-1603 -1607 0
-1604 -1605 0
-1604 -1606 0
-1604 -1607 0
-1605 -1606 0
-1605 -1607 0
-1606 -1607 0
1608 1609 1610 1611 0
-1608 -1609 0
-1608 -1610 0
-1608 -1611 0
-1609 -1610 0
-1609 -1611 0
-1610 -1611 0
1661 1662 1663 1664 1665 0
-1661 -1662 0
-1661 -1663 0
-1661 -1664 0
-1661 -1665 0
-1662 -1663 0
-1662 -1664 0
-1662 -1665 0
-1663 -1664 0
-1663 -1665 0
-1664 -1665 0
1666 1667 1668 1669 0
-1666 -1667 0
-1666 -1668 0
-1666 -1669 0
-1667 -1668 0
-1667 -1669 0
-1668 -1669 0
1719 1720 1721 1722 0
-1719 -1720 0
-1719 -1721 0
-1719 -1722 0
-1720 -1721 0
-1720 -1722 0
-1721 -1722 0
1723 1724 1725 1726 0
-1723 -1724 0
-1723 -1725 0
-1723 -1726 0
-1724 -1725 0
-1724 -1726 0
-1725 -1726 0
-1543 -1549 1554 0
-1554 1549 0
-1554 1543 0
-1543 -1550 1556 0
-1556 1550 0
-1556 1543 0
-1543 -1551 1558 0
-1558 1551 0
-1558 1543 0
-1543 -1552 1560 0
-1560 1552 0
-1560 1543 0
-1544 -1549 1562 0
-1562 1549 0
-1562 1544 0
-1544 -1550 1564 0
-1564 1550 0
-1564 1544 0
-1544 -1551 1566 0
-1566 1551 0
-1566 1544 0
-1544 -1552 1568 0
-1568 1552 0
-1568 1544 0
-1545 -1549 1570 0
-1570 1549 0
-1570 1545 0
-1545 -1550 1572 0
-1572 1550 0
-1572 1545 0
-1545 -1551 1574 0
-1574 1551 0
-1574 1545 0
-1545 -1552 1576 0
-1576 1552 0
-1576 1545 0
-1546 -1549 1578 0
-1578 1549 0
-1578 1546 0
-1546 -1550 1580 0
-1580 1550 0
-1580 1546 0
-1546 -1551 1582 0
-1582 1551 0
-1582 1546 0
-1546 -1552 1584 0
-1584 1552 0
-1584 1546 0
-1547 -1549 1586 0
-1586 1549 0
-1586 1547 0
-1547 -1550 1588 0
-1588 1550 0
-1588 1547 0
-1547 -1551 1590 0
-1590 1551 0
-1590 1547 0
-1547 -1552 1592 0
-1592 1552 0
-1592 1547 0
-1548 -1549 1594 0
-1594 1549 0
-1594 1548 0
-1548 -1550 1596 0
-1596 1550 0
-1596 1548 0
-1548 -1551 1598 0
-1598 1551 0
-1598 1548 0
-1548 -1552 1600 0
-1600 1552 0
-1600 1548 0
-1602 -1608 1613 0
-1613 1608 0
-1613 1602 0
-1602 -1609 1615 0
-1615 1609 0
-1615 1602 0
-1602 -1610 1617 0
-1617 1610 0
-1617 1602 0
-1602 -1611 1619 0
-1619 1611 0
-1619 1602 0
-1603 -1608 1621 0
-1621 1608 0
-1621 1603 0
-1603 -1609 1623 0
-1623 1609 0
-1623 1603 0
-1603 -1610 1625 0
-1625 1610 0
-1625 1603 0
-1603 -1611 1627 0
-1627 1611 0
-1627 1603 0
-1604 -1608 1629 0
-1629 1608 0
-1629 1604 0
-1604 -1609 1631 0
-1631 1609 0
-1631 1604 0
-1604 -1610 1633 0
-1633 1610 0
-1633 1604 0
-1604 -1611 1635 0
-1635 1611 0
-1635 1604 0
-1605 -1608 1637 0
-1637 1608 0
-1637 1605 0
-1605 -1609 1639 0
-1639 1609 0
-1639 1605 0
-1605 -1610 1641 0
-1641 1610 0
-1641 1605 0
-1605 -1611 1643 0
-1643 1611 0
-1643 1605 0
-1606 -1608 1645 0
-1645 1608 0
-1645 1606 0
-1606 -1609 1647 0
-1647 1609 0
-1647 1606 0
-1606 -1610 1649 0
-1649 1610 0
-1649 1606 0
-1606 -1611 1651 0
-1651 1611 0
-1651 1606 0
-1607 -1608 1653 0
-1653 1608 0
-1653 1607 0
-1607 -1609 1655 0
-1655 1609 0
-1655 1607 0
-1607 -1610 1657 0
-1657 1610 0
-1657 1607 0
-1607 -1611 1659 0
-1659 1611 0
-1659 1607 0
-1661 -1666 1671 0
-1671 1666 0
-1671 1661 0
-1661 -1667 1673 0
-1673 1667 0
-1673 1661 0
-1661 -1668 1675 0
-1675 1668 0
-1675 1661 0
-1661 -1669 1677 0
-1677 1669 0
-1677 1661 0
-1661 -1666 1679 0
-1662 -1666 1679 0
-1679 1666 0
-1679 1661 1662 0
-1661 -1667 1681 0
-1662 -1667 1681 0
-1681 1667 0
-1681 1661 1662 0
-1661 -1668 1683 0
-1662 -1668 1683 0
-1683 1668 0
-1683 1661 1662 0
-1661 -1669 1685 0
-1662 -1669 1685 0
-1685 1669 0
-1685 1661 1662 0
-1662 -1666 1687 0
-1663 -1666 1687 0
-1687 1666 0
-1687 1662 1663 0
-1662 -1667 1689 0
-1663 -1667 1689 0
-1689 1667 0
-1689 1662 1663 0
-1662 -1668 1691 0
-1663 -1668 1691 0
-1691 1668 0
-1691 1662 1663 0
-1662 -1669 1693 0
-1663 -1669 1693 0
-1693 1669 0
-1693 1662 1663 0
-1663 -1666 1695 0
-1664 -1666 1695 0
-1695 1666 0
-1695 1663 1664 0
-1663 -1667 1697 0
-1664 -1667 1697 0
-1697 1667 0
-1697 1663 1664 0
-1663 -1668 1699 0
-1664 -1668 1699 0
-1699 1668 0
-1699 1663 1664 0
-1663 -1669 1701 0
-1664 -1669 1701 0
-1701 1669 0
-1701 1663 1664 0
-1664 -1666 1703 0
-1665 -1666 1703 0
-1703 1666 0
-1703 1664 1665 0
-1664 -1667 1705 0
-1665 -1667 1705 0
-1705 1667 0
-1705 1664 1665 0
-1664 -1668 1707 0
-1665 -1668 1707 0
-1707 1668 0
-1707 1664 1665 0
-1664 -1669 1709 0
-1665 -1669 1709 0
-1709 1669 0
-1709 1664 1665 0
-1665 -1666 1711 0
-1711 1666 0
-1711 1665 0
-1665 -1667 1713 0
-1713 1667 0
-1713 1665 0
-1665 -1668 1715 0
-1715 1668 0
-1715 1665 0
-1665 -1669 1717 0
-1717 1669 0
-1717 1665 0
-1719 -1723 1728 0
-1728 1723 0
-1728 1719 0
-1719 -1724 1730 0
-1730 1724 0
-1730 1719 0
-1719 -1725 1732 0
-1732 1725 0
-1732 1719 0
-1719 -1726 1734 0
-1734 1726 0
-1734 1719 0
-1719 -1723 1736 0
-1720 -1723 1736 0
-1736 1723 0
-1736 1719 1720 0
-1719 -1724 1738 0
-1720 -1724 1738 0
-1738 1724 0
-1738 1719 1720 0
-1719 -1725 1740 0
-1720 -1725 1740 0
-1740 1725 0
-1740 1719 1720 0
-1719 -1726 1742 0
-1720 -1726 1742 0
-1742 1726 0
-1742 1719 1720 0
-1719 -1723 1744 0
-1720 -1723 1744 0
-1721 -1723 1744 0
-1744 1723 0
-1744 1719 1720 1721 0
-1719 -1724 1746 0
-1720 -1724 1746 0
-1721 -1724 1746 0
-1746 1724 0
-1746 1719 1720 1721 0
-1719 -1725 1748 0
-1720 -1725 1748 0
-1721 -1725 1748 0
-1748 1725 0
-1748 1719 1720 1721 0
-1719 -1726 1750 0
-1720 -1726 1750 0
-1721 -1726 1750 0
-1750 1726 0
-1750 1719 1720 1721 0
-1720 -1723 1752 0
-1721 -1723 1752 0
-1722 -1723 1752 0
-1752 1723 0
-1752 1720 1721 1722 0
-1720 -1724 1754 0
-1721 -1724 1754 0
-1722 -1724 1754 0
-1754 1724 0
-1754 1720 1721 1722 0
-1720 -1725 1756 0
-1721 -1725 1756 0
-1722 -1725 1756 0
-1756 1725 0
-1756 1720 1721 1722 0
-1720 -1726 1758 0
-1721 -1726 1758 0
-1722 -1726 1758 0
-1758 1726 0
-1758 1720 1721 1722 0
-1721 -1723 1760 0
-1722 -1723 1760 0
-1760 1723 0
-1760 1721 1722 0
-1721 -1724 1762 0
-1722 -1724 1762 0
-1762 1724 0
-1762 1721 1722 0
-1721 -1725 1764 0
-1722 -1725 1764 0
-1764 1725 0
-1764 1721 1722 0
-1721 -1726 1766 0
-1722 -1726 1766 0
-1766 1726 0
-1766 1721 1722 0
-1722 -1723 1768 0
-1768 1723 0
-1768 1722 0
-1722 -1724 1770 0
-1770 1724 0
-1770 1722 0
-1722 -1725 1772 0
-1772 1725 0
-1772 1722 0
-1722 -1726 1774 0
-1774 1726 0
-1774 1722 0
-1554 1776 0
-1613 1776 0
-1671 1776 0
-1728 1776 0
-1776 1554 1613 1671 1728 0
-1556 1777 0
-1615 1777 0
-1673 1777 0
-1730 1777 0
-1777 1556 1615 1673 1730 0
-1558 1778 0
-1617 1778 0
-1675 1778 0
-1732 1778 0
-1778 1558 1617 1675 1732 0
-1560 1779 0
-1619 1779 0
-1677 1779 0
-1734 1779 0
-1779 1560 1619 1677 1734 0
-1562 1780 0
-1621 1780 0
-1679 1780 0
-1736 1780 0
-1780 1562 1621 1679 1736 0
-1564 1781 0
-1623 1781 0
-1681 1781 0
-1738 1781 0
-1781 1564 1623 1681 1738 0
-1566 1782 0
-1625 1782 0
-1683 1782 0
-1740 1782 0
-1782 1566 1625 1683 1740 0
-1568 1783 0
-1627 1783 0
-1685 1783 0
-1742 1783 0
-1783 1568 1627 1685 1742 0
-1570 1784 0
-1629 1784 0
-1687 1784 0
-1744 1784 0
-1784 1570 1629 1687 1744 0
-1572 1785 0
-1631 1785 0
-1689 1785 0
-1746 1785 0
-1785 1572 1631 1689 1746 0
-1574 1786 0
-1633 1786 0
-1691 1786 0
-1748 1786 0
-1786 1574 1633 1691 1748 0
-1576 1787 0
-1635 1787 0
-1693 1787 0
-1750 1787 0
-1787 1576 1635 1693 1750 0
-1578 1788 0
-1637 1788 0
-1695 1788 0
-1752 1788 0
-1788 1578 1637 1695 1752 0
-1580 1789 0
-1639 1789 0
-1697 1789 0
-1754 1789 0
-1789 1580 1639 1697 1754 0
-1582 1790 0
-1641 1790 0
-1699 1790 0
-1756 1790 0
-1790 1582 1641 1699 1756 0
-1584 1791 0
-1643 1791 0
-1701 1791 0
-1758 1791 0
-1791 1584 1643 1701 1758 0
-1586 1792 0
-1645 1792 0
-1703 1792 0
-1760 1792 0
-1792 1586 1645 1703 1760 0
-1588 1793 0
-1647 1793 0
-1705 1793 0
-1762 1793 0
-1793 1588 1647 1705 1762 0
-1590 1794 0
-1649 1794 0
-1707 1794 0
-1764 1794 0
-1794 1590 1649 1707 1764 0
-1592 1795 0
-1651 1795 0
-1709 1795 0
-1766 1795 0
-1795 1592 1651 1709 1766 0
-1594 1796 0
-1653 1796 0
-1711 1796 0
-1768 1796 0
-1796 1594 1653 1711 1768 0
-1596 1797 0
-1655 1797 0
-1713 1797 0
-1770 1797 0
-1797 1596 1655 1713 1770 0
-1598 1798 0
-1657 1798 0
-1715 1798 0
-1772 1798 0
-1798 1598 1657 1715 1772 0
-1600 1799 0
-1659 1799 0
-1717 1799 0
-1774 1799 0
-1799 1600 1659 1717 1774 0
-1554 -1613 0
-1556 -1615 0
-1558 -1617 0
-1560 -1619 0
-1562 -1621 0
-1564 -1623 0
-1566 -1625 0
-1568 -1627 0
-1570 -1629 0
-1572 -1631 0
-1574 -1633 0
-1576 -1635 0
-1578 -1637 0
-1580 -1639 0
-1582 -1641 0
-1584 -1643 0
-1586 -1645 0
-1588 -1647 0
-1590 -1649 0
-1592 -1651 0
-1594 -1653 0
-1596 -1655 0
-1598 -1657 0
-1600 -1659 0
-1554 -1671 0
-1556 -1673 0
-1558 -1675 0
-1560 -1677 0
-1562 -1679 0
-1564 -1681 0
-1566 -1683 0
-1568 -1685 0
-1570 -1687 0
-1572 -1689 0
-1574 -1691 0
-1576 -1693 0
-1578 -1695 0
-1580 -1697 0
-1582 -1699 0
-1584 -1701 0
-1586 -1703 0
-1588 -1705 0
-1590 -1707 0
-1592 -1709 0
-1594 -1711 0
-1596 -1713 0
-1598 -1715 0
-1600 -1717 0
-1554 -1728 0
-1556 -1730 0
-1558 -1732 0
-1560 -1734 0
-1562 -1736 0
-1564 -1738 0
-1566 -1740 0
-1568 -1742 0
-1570 -1744 0
-1572 -1746 0
-1574 -1748 0
-1576 -1750 0
-1578 -1752 0
-1580 -1754 0
-1582 -1756 0
-1584 -1758 0
-1586 -1760 0
-1588 -1762 0
-1590 -1764 0
-1592 -1766 0
-1594 -1768 0
-1596 -1770 0
-1598 -1772 0
-1600 -1774 0
-1613 -1671 0
-1615 -1673 0
-1617 -1675 0
-1619 -1677 0
-1621 -1679 0
-1623 -1681 0
-1625 -1683 0
-1627 -1685 0
-1629 -1687 0
-1631 -1689 0
-1633 -1691 0
-1635 -1693 0
-1637 -1695 0
-1639 -1697 0
-1641 -1699 0
-1643 -1701 0
-1645 -1703 0
-1647 -1705 0
-1649 -1707 0
-1651 -1709 0
-1653 -1711 0
-1655 -1713 0
-1657 -1715 0
-1659 -1717 0
-1613 -1728 0
-1615 -1730 0
-1617 -1732 0
-1619 -1734 0
-1621 -1736 0
-1623 -1738 0
-1625 -1740 0
-1627 -1742 0
-1629 -1744 0
-1631 -1746 0
-1633 -1748 0
-1635 -1750 0
-1637 -1752 0
-1639 -1754 0
-1641 -1756 0
-1643 -1758 0
-1645 -1760 0
-1647 -1762 0
-1649 -1764 0
-1651 -1766 0
-1653 -1768 0
-1655 -1770 0
-1657 -1772 0
-1659 -1774 0
-1671 -1728 0
-1673 -1730 0
-1675 -1732 0
-1677 -1734 0
-1679 -1736 0
-1681 -1738 0
-1683 -1740 0
-1685 -1742 0
-1687 -1744 0
-1689 -1746 0
-1691 -1748 0
-1693 -1750 0
-1695 -1752 0
-1697 -1754 0
-1699 -1756 0
-1701 -1758 0
-1703 -1760 0
-1705 -1762 0
-1707 -1764 0
-1709 -1766 0
-1711 -1768 0
-1713 -1770 0
-1715 -1772 0
-1717 -1774 0
-1543 -1550 1776 0
-1543 -1551 1777 0
-1543 -1552 1778 0
-1544 -1550 1780 0
-1544 -1551 1781 0
-1544 -1552 1782 0
-1545 -1550 1784 0
-1545 -1551 1785 0
-1545 -1552 1786 0
-1546 -1550 1788 0
-1546 -1551 1789 0
-1546 -1552 1790 0
-1547 -1550 1792 0
-1547 -1551 1793 0
-1547 -1552 1794 0
-1548 -1550 1796 0
-1548 -1551 1797 0
-1548 -1552 1798 0
-1602 -1609 1776 0
-1602 -1610 1777 0
-1602 -1611 1778 0
-1603 -1609 1780 0
-1603 -1610 1781 0
-1603 -1611 1782 0
-1604 -1609 1784 0
-1604 -1610 1785 0
-1604 -1611 1786 0
-1605 -1609 1788 0
-1605 -1610 1789 0
-1605 -1611 1790 0
-1606 -1609 1792 0
-1606 -1610 1793 0
-1606 -1611 1794 0
-1607 -1609 1796 0
-1607 -1610 1797 0
-1607 -1611 1798 0
-1661 -1667 1776 1780 0
-1661 -1668 1777 1781 0
-1661 -1669 1778 1782 0
-1662 -1667 1780 1784 0
-1662 -1668 1781 1785 0
-1662 -1669 1782 1786 0
-1663 -1667 1784 1788 0
-1663 -1668 1785 1789 0
-1663 -1669 1786 1790 0
-1664 -1667 1788 1792 0
-1664 -1668 1789 1793 0
-1664 -1669 1790 1794 0
-1665 -1667 1792 1796 0
-1665 -1668 1793 1797 0
-1665 -1669 1794 1798 0
-1719 -1724 1776 1780 0
-1719 -1724 1776 1784 0
-1719 -1724 1780 1784 0
-1719 -1725 1777 1781 0
-1719 -1725 1777 1785 0
-1719 -1725 1781 1785 0
-1719 -1726 1778 1782 0
-1719 -1726 1778 1786 0
-1719 -1726 1782 1786 0
-1720 -1724 1780 1784 0
-1720 -1724 1780 1788 0
-1720 -1724 1784 1788 0
-1720 -1725 1781 1785 0
-1720 -1725 1781 1789 0
-1720 -1725 1785 1789 0
-1720 -1726 1782 1786 0
-1720 -1726 1782 1790 0
-1720 -1726 1786 1790 0
-1721 -1724 1784 1788 0
-1721 -1724 1784 1792 0
-1721 -1724 1788 1792 0
-1721 -1725 1785 1789 0
-1721 -1725 1785 1793 0
-1721 -1725 1789 1793 0
-1721 -1726 1786 1790 0
-1721 -1726 1786 1794 0
-1721 -1726 1790 1794 0
-1722 -1724 1788 1792 0
-1722 -1724 1788 1796 0
-1722 -1724 1792 1796 0
-1722 -1725 1789 1793 0
-1722 -1725 1789 1797 0
-1722 -1725 1793 1797 0
-1722 -1726 1790 1794 0
-1722 -1726 1790 1798 0
-1722 -1726 1794 1798 0
-1554 -1777 1555 0
-1555 1554 0
-1555 1777 0
-1556 -1778 1557 0
-1557 1556 0
-1557 1778 0
-1558 -1779 1559 0
-1559 1558 0
-1559 1779 0
-1561 0
-1562 -1781 1563 0
-1563 1562 0
-1563 1781 0
-1564 -1782 1565 0
-1565 1564 0
-1565 1782 0
-1566 -1783 1567 0
-1567 1566 0
-1567 1783 0
-1569 0
-1570 -1785 1571 0
-1571 1570 0
-1571 1785 0
-1572 -1786 1573 0
-1573 1572 0
-1573 1786 0
-1574 -1787 1575 0
-1575 1574 0
-1575 1787 0
-1577 0
-1578 -1789 1579 0
-1579 1578 0
-1579 1789 0
-1580 -1790 1581 0
-1581 1580 0
-1581 1790 0
-1582 -1791 1583 0
-1583 1582 0
-1583 1791 0
-1585 0
-1586 -1793 1587 0
-1587 1586 0
-1587 1793 0
-1588 -1794 1589 0
-1589 1588 0
-1589 1794 0
-1590 -1795 1591 0
-1591 1590 0
-1591 1795 0
-1593 0
-1594 -1797 1595 0
-1595 1594 0
-1595 1797 0
-1596 -1798 1597 0
-1597 1596 0
-1597 1798 0
-1598 -1799 1599 0
-1599 1598 0
-1599 1799 0
-1601 0
-1553 -1555 0
-1553 -1557 0
-1553 -1559 0
-1553 -1561 0
-1553 -1563 0
-1553 -1565 0
-1553 -1567 0
-1553 -1569 0
-1553 -1571 0
-1553 -1573 0
-1553 -1575 0
-1553 -1577 0
-1553 -1579 0
-1553 -1581 0
-1553 -1583 0
-1553 -1585 0
-1553 -1587 0
-1553 -1589 0
-1553 -1591 0
-1553 -1593 0
-1553 -1595 0
-1553 -1597 0
-1553 -1599 0
-1553 -1601 0
1553 1555 1557 1559 1561 1563 1565 1567 1569 1571 1573 1575 1577 1579 1581 1583 1585 1587 1589 1591 1593 1595 1597 1599 1601 0
-1613 -1777 1614 0
-1614 1613 0
-1614 1777 0
-1615 -1778 1616 0
-1616 1615 0
-1616 1778 0
-1617 -1779 1618 0
-1618 1617 0
-1618 1779 0
-1620 0
-1621 -1781 1622 0
-1622 1621 0
-1622 1781 0
-1623 -1782 1624 0
-1624 1623 0
-1624 1782 0
-1625 -1783 1626 0
-1626 1625 0
-1626 1783 0
-1628 0
-1629 -1785 1630 0
-1630 1629 0
-1630 1785 0
-1631 -1786 1632 0
-1632 1631 0
-1632 1786 0
-1633 -1787 1634 0
-1634 1633 0
-1634 1787 0
-1636 0
-1637 -1789 1638 0
-1638 1637 0
-1638 1789 0
-1639 -1790 1640 0
-1640 1639 0
-1640 1790 0
-1641 -1791 1642 0
-1642 1641 0
-1642 1791 0
-1644 0
-1645 -1793 1646 0
-1646 1645 0
-1646 1793 0
-1647 -1794 1648 0
-1648 1647 0
-1648 1794 0
-1649 -1795 1650 0
-1650 1649 0
-1650 1795 0
-1652 0
-1653 -1797 1654 0
-1654 1653 0
-1654 1797 0
-1655 -1798 1656 0
-1656 1655 0
-1656 1798 0
-1657 -1799 1658 0
-1658 1657 0
-1658 1799 0
-1660 0
-1612 -1614 0
-1612 -1616 0
-1612 -1618 0
-1612 -1620 0
-1612 -1622 0
-1612 -1624 0
-1612 -1626 0
-1612 -1628 0
-1612 -1630 0
-1612 -1632 0
-1612 -1634 0
-1612 -1636 0
-1612 -1638 0
-1612 -1640 0
-1612 -1642 0
-1612 -1644 0
-1612 -1646 0
-1612 -1648 0
-1612 -1650 0
-1612 -1652 0
-1612 -1654 0
-1612 -1656 0
-1612 -1658 0
-1612 -1660 0
1612 1614 1616 1618 1620 1622 1624 1626 1628 1630 1632 1634 1636 1638 1640 1642 1644 1646 1648 1650 1652 1654 1656 1658 1660 0
-1671 -1777 1672 0
-1672 1671 0
-1672 1777 0
-1673 -1778 1674 0
-1674 1673 0
-1674 1778 0
-1675 -1779 1676 0
-1676 1675 0
-1676 1779 0
-1678 0
-1679 -1781 1680 0
-1680 1679 0
-1680 1781 0
-1681 -1782 1682 0
-1682 1681 0
-1682 1782 0
-1683 -1783 1684 0
-1684 1683 0
-1684 1783 0
-1686 0
-1687 -1785 1688 0
-1688 1687 0
-1688 1785 0
-1689 -1786 1690 0
-1690 1689 0
-1690 1786 0
-1691 -1787 1692 0
-1692 1691 0
-1692 1787 0
-1694 0
-1695 -1789 1696 0
-1696 1695 0
-1696 1789 0
-1697 -1790 1698 0
-1698 1697 0
-1698 1790 0
-1699 -1791 1700 0
-1700 1699 0
-1700 1791 0
-1702 0
-1703 -1793 1704 0
-1704 1703 0
-1704 1793 0
-1705 -1794 1706 0
-1706 1705 0
-1706 1794 0
-1707 -1795 1708 0
-1708 1707 0
-1708 1795 0
-1710 0
-1711 -1797 1712 0
-1712 1711 0
-1712 1797 0
-1713 -1798 1714 0
-1714 1713 0
-1714 1798 0
-1715 -1799 1716 0
-1716 1715 0
-1716 1799 0
-1718 0
-1670 -1672 0
-1670 -1674 0
-1670 -1676 0
-1670 -1678 0
-1670 -1680 0
-1670 -1682 0
-1670 -1684 0
-1670 -1686 0
-1670 -1688 0
-1670 -1690 0
-1670 -1692 0
-1670 -1694 0
-1670 -1696 0
-1670 -1698 0
-1670 -1700 0
-1670 -1702 0
-1670 -1704 0
-1670 -1706 0
-1670 -1708 0
-1670 -1710 0
-1670 -1712 0
-1670 -1714 0
-1670 -1716 0
-1670 -1718 0
1670 1672 1674 1676 1678 1680 1682 1684 1686 1688 1690 1692 1694 1696 1698 1700 1702 1704 1706 1708 1710 1712 1714 1716 1718 0
-1728 -1777 1729 0
-1729 1728 0
-1729 1777 0
-1730 -1778 1731 0
-1731 1730 0
-1731 1778 0
-1732 -1779 1733 0
-1733 1732 0
-1733 1779 0
-1735 0
-1736 -1781 1737 0
-1737 1736 0
-1737 1781 0
-1738 -1782 1739 0
-1739 1738 0
-1739 1782 0
-1740 -1783 1741 0
-1741 1740 0
-1741 1783 0
-1743 0
-1744 -1785 1745 0
-1745 1744 0
-1745 1785 0
-1746 -1786 1747 0
-1747 1746 0
-1747 1786 0
-1748 -1787 1749 0
-1749 1748 0
-1749 1787 0
-1751 0
-1752 -1789 1753 0
-1753 1752 0
-1753 1789 0
-1754 -1790 1755 0
-1755 1754 0
-1755 1790 0
-1756 -1791 1757 0
-1757 1756 0
-1757 1791 0
-1759 0
-1760 -1793 1761 0
-1761 1760 0
-1761 1793 0
-1762 -1794 1763 0
-1763 1762 0
-1763 1794 0
-1764 -1795 1765 0
-1765 1764 0
-1765 1795 0
-1767 0
-1768 -1797 1769 0
-1769 1768 0
-1769 1797 0
-1770 -1798 1771 0
-1771 1770 0
-1771 1798 0
-1772 -1799 1773 0
-1773 1772 0
-1773 1799 0
-1775 0
-1727 -1729 0
-1727 -1731 0
-1727 -1733 0
-1727 -1735 0
-1727 -1737 0
-1727 -1739 0
-1727 -1741 0
-1727 -1743 0
-1727 -1745 0
-1727 -1747 0
-1727 -1749 0
-1727 -1751 0
-1727 -1753 0
-1727 -1755 0
-1727 -1757 0
-1727 -1759 0
-1727 -1761 0
-1727 -1763 0
-1727 -1765 0
-1727 -1767 0
-1727 -1769 0
-1727 -1771 0
-1727 -1773 0
-1727 -1775 0
1727 1729 1731 1733 1735 1737 1739 1741 1743 1745 1747 1749 1751 1753 1755 1757 1759 1761 1763 1765 1767 1769 1771 1773 1775 0
1800 1801 1802 1803 1804 1805 0
-1800 -1801 0
-1800 -1802 0
-1800 -1803 0
-1800 -1804 0
-1800 -1805 0
-1801 -1802 0
-1801 -1803 0
-1801 -1804 0
-1801 -1805 0
-1802 -1803 0
-1802 -1804 0
-1802 -1805 0
-1803 -1804 0
-1803 -1805 0
-1804 -1805 0
1806 1807 1808 1809 0
-1806 -1807 0
-1806 -1808 0
-1806 -1809 0
-1807 -1808 0
-1807 -1809 0
-1808 -1809 0
1859 1860 1861 1862 1863 1864 0
-1859 -1860 0
-1859 -1861 0
-1859 -1862 0
-1859 -1863 0
-1859 -1864 0
-1860 -1861 0
-1860 -1862 0
-1860 -1863 0
-1860 -1864 0
-1861 -1862 0
-1861 -1863 0
-1861 -1864 0
-1862 -1863 0
-1862 -1864 0
-1863 -1864 0
1865 1866 1867 1868 0
-1865 -1866 0
-1865 -1867 0
-1865 -1868 0
-1866 -1867 0
-1866 -1868 0
-1867 -1868 0
1918 1919 1920 1921 1922 0
-1918 -1919 0
-1918 -1920 0
-1918 -1921 0
-1918 -1922 0
-1919 -1920 0
-1919 -1921 0
-1919 -1922 0
-1920 -1921 0
-1920 -1922 0
-1921 -1922 0
1923 1924 1925 1926 0
-1923 -1924 0
-1923 -1925 0
-1923 -1926 0
-1924 -1925 0
-1924 -1926 0
-1925 -1926 0
1976 1977 1978 1979 0
-1976 -1977 0
-1976 -1978 0
-1976 -1979 0
-1977 -1978 0
-1977 -1979 0
-1978 -1979 0
1980 1981 1982 1983 0
-1980 -1981 0
-1980 -1982 0
-1980 -1983 0
-1981 -1982 0
-1981 -1983 0
-1982 -1983 0
-1800 -1806 1811 0
-1811 1806 0
-1811 1800 0
-1800 -1807 1813 0
-1813 1807 0
-1813 1800 0
-1800 -1808 1815 0
-1815 1808 0
-1815 1800 0
-1800 -1809 1817 0
-1817 1809 0
-1817 1800 0
-1801 -1806 1819 0
-1819 1806 0
-1819 1801 0
-1801 -1807 1821 0
-1821 1807 0
-1821 1801 0
-1801 -1808 1823 0
-1823 1808 0
-1823 1801 0
-1801 -1809 1825 0
-1825 1809 0
-1825 1801 0
-1802 -1806 1827 0
-1827 1806 0
-1827 1802 0
-1802 -1807 1829 0
-1829 1807 0
-1829 1802 0
-1802 -1808 1831 0
-1831 1808 0
-1831 1802 0
-1802 -1809 1833 0
-1833 1809 0
-1833 1802 0
-1803 -1806 1835 0
-1835 1806 0
-1835 1803 0
-1803 -1807 1837 0
-1837 1807 0
-1837 1803 0
-1803 -1808 1839 0
-1839 1808 0
-1839 1803 0
-1803 -1809 1841 0
-1841 1809 0
-1841 1803 0
-1804 -1806 1843 0
-1843 1806 0
-1843 1804 0
-1804 -1807 1845 0
-1845 1807 0
-1845 1804 0
-1804 -1808 1847 0
-1847 1808 0
-1847 1804 0
-1804 -1809 1849 0
-1849 1809 0
-1849 1804 0
-1805 -1806 1851 0
-1851 1806 0
-1851 1805 0
-1805 -1807 1853 0
-1853 1807 0
-1853 1805 0
-1805 -1808 1855 0
-1855 1808 0
-1855 1805 0
-1805 -1809 1857 0
-1857 1809 0
-1857 1805 0
-1859 -1865 1870 0
-1870 1865 0
-1870 1859 0
-1859 -1866 1872 0
-1872 1866 0
-1872 1859 0
-1859 -1867 1874 0
-1874 1867 0
-1874 1859 0
-1859 -1868 1876 0
-1876 1868 0
-1876 1859 0
-1860 -1865 1878 0
-1878 1865 0
-1878 1860 0
-1860 -1866 1880 0
-1880 1866 0
-1880 1860 0
-1860 -1867 1882 0
-1882 1867 0
-1882 1860 0
-1860 -1868 1884 0
-1884 1868 0
-1884 1860 0
-1861 -1865 1886 0
-1886 1865 0
-1886 1861 0
-1861 -1866 1888 0
-1888 1866 0
-1888 1861 0
-1861 -1867 1890 0
-1890 1867 0
-1890 1861 0
-1861 -1868 1892 0
-1892 1868 0
-1892 1861 0
-1862 -1865 1894 0
-1894 1865 0
-1894 1862 0
-1862 -1866 1896 0
-1896 1866 0
-1896 1862 0
-1862 -1867 1898 0
-1898 1867 0
-1898 1862 0
-1862 -1868 1900 0
-1900 1868 0
-1900 1862 0
-1863 -1865 1902 0
-1902 1865 0
-1902 1863 0
-1863 -1866 1904 0
-1904 1866 0
-1904 1863 0
-1863 -1867 1906 0
-1906 1867 0
-1906 1863 0
-1863 -1868 1908 0
-1908 1868 0
-1908 1863 0
-1864 -1865 1910 0
-1910 1865 0
-1910 1864 0
-1864 -1866 1912 0
-1912 1866 0
-1912 1864 0
-1864 -1867 1914 0
-1914 1867 0
-1914 1864 0
-1864 -1868 1916 0
-1916 1868 0
-1916 1864 0
-1918 -1923 1928 0
-1928 1923 0
-1928 1918 0
-1918 -1924 1930 0
-1930 1924 0
-1930 1918 0
-1918 -1925 1932 0
-1932 1925 0
-1932 1918 0
-1918 -1926 1934 0
-1934 1926 0
-1934 1918 0
-1918 -1923 1936 0
-1919 -1923 1936 0
-1936 1923 0
-1936 1918 1919 0
-1918 -1924 1938 0
-1919 -1924 1938 0
-1938 1924 0
-1938 1918 1919 0
-1918 -1925 1940 0
-1919 -1925 1940 0
-1940 1925 0
-1940 1918 1919 0
-1918 -1926 1942 0
-1919 -1926 1942 0
-1942 1926 0
-1942 1918 1919 0
-1919 -1923 1944 0
-1920 -1923 1944 0
-1944 1923 0
-1944 1919 1920 0
-1919 -1924 1946 0
-1920 -1924 1946 0
-1946 1924 0
-1946 1919 1920 0
-1919 -1925 1948 0
-1920 -1925 1948 0
-1948 1925 0
-1948 1919 1920 0
-1919 -1926 1950 0
-1920 -1926 1950 0
-1950 1926 0
-1950 1919 1920 0
-1920 -1923 1952 0
-1921 -1923 1952 0
-1952 1923 0
-1952 1920 1921 0
-1920 -1924 1954 0
-1921 -1924 1954 0
-1954 1924 0
-1954 1920 1921 0
-1920 -1925 1956 0
-1921 -1925 1956 0
-1956 1925 0
-1956 1920 1921 0
-1920 -1926 1958 0
-1921 -1926 1958 0
-1958 1926 0
-1958 1920 1921 0
-1921 -1923 1960 0
-1922 -1923 1960 0
-1960 1923 0
-1960 1921 1922 0
-1921 -1924 1962 0
-1922 -1924 1962 0
-1962 1924 0
-1962 1921 1922 0
-1921 -1925 1964 0
-1922 -1925 1964 0
-1964 1925 0
-1964 1921 1922 0
-1921 -1926 1966 0
-1922 -1926 1966 0
-1966 1926 0
-1966 1921 1922 0
-1922 -1923 1968 0
-1968 1923 0
-1968 1922 0
-1922 -1924 1970 0
-1970 1924 0
-1970 1922 0
-1922 -1925 1972 0
-1972 1925 0
-1972 1922 0
-1922 -1926 1974 0
-1974 1926 0
-1974 1922 0
-1976 -1980 1985 0
-1985 1980 0
-1985 1976 0
-1976 -1981 1987 0
-1987 1981 0
-1987 1976 0
-1976 -1982 1989 0
-1989 1982 0
-1989 1976 0
-1976 -1983 1991 0
-1991 1983 0
-1991 1976 0
-1976 -1980 1993 0
-1977 -1980 1993 0
-1993 1980 0
-1993 1976 1977 0
-1976 -1981 1995 0
-1977 -1981 1995 0
-1995 1981 0
-1995 1976 1977 0
-1976 -1982 1997 0
-1977 -1982 1997 0
-1997 1982 0
-1997 1976 1977 0
-1976 -1983 1999 0
-1977 -1983 1999 0
-1999 1983 0
-1999 1976 1977 0
-1976 -1980 2001 0
-1977 -1980 2001 0
-1978 -1980 2001 0
-2001 1980 0
-2001 1976 1977 1978 0
-1976 -1981 2003 0
-1977 -1981 2003 0
-1978 -1981 2003 0
-2003 1981 0
-2003 1976 1977 1978 0
-1976 -1982 2005 0
-1977 -1982 2005 0
-1978 -1982 2005 0
-2005 1982 0
-2005 1976 1977 1978 0
-1976 -1983 2007 0
-1977 -1983 2007 0
-1978 -1983 2007 0
-2007 1983 0
-2007 1976 1977 1978 0
-1977 -1980 2009 0
-1978 -1980 2009 0
-1979 -1980 2009 0
-2009 1980 0
-2009 1977 1978 1979 0
-1977 -1981 2011 0
-1978 -1981 2011 0
-1979 -1981 2011 0
-2011 1981 0
-2011 1977 1978 1979 0
-1977 -1982 2013 0
-1978 -1982 2013 0
-1979 -1982 2013 0
-2013 1982 0
-2013 1977 1978 1979 0
-1977 -1983 2015 0
-1978 -1983 2015 0
-1979 -1983 2015 0
-2015 1983 0
-2015 1977 1978 1979 0
-1978 -1980 2017 0
-1979 -1980 2017 0
-2017 1980 0
-2017 1978 1979 0
-1978 -1981 2019 0
-1979 -1981 2019 0
-2019 1981 0
-2019 1978 1979 0
-1978 -1982 2021 0
-1979 -1982 2021 0
-2021 1982 0
-2021 1978 1979 0
-1978 -1983 2023 0
-1979 -1983 2023 0
-2023 1983 0
-2023 1978 1979 0
-1979 -1980 2025 0
-2025 1980 0
-2025 1979 0
-1979 -1981 2027 0
-2027 1981 0
-2027 1979 0
-1979 -1982 2029 0
-2029 1982 0
-2029 1979 0
-1979 -1983 2031 0
-2031 1983 0
-2031 1979 0
-1811 2033 0
-1870 2033 0
-1928 2033 0
-1985 2033 0
-2033 1811 1870 1928 1985 0
-1813 2034 0
-1872 2034 0
-1930 2034 0
-1987 2034 0
-2034 1813 1872 1930 1987 0
-1815 2035 0
-1874 2035 0
-1932 2035 0
-1989 2035 0
-2035 1815 1874 1932 1989 0
-1817 2036 0
-1876 2036 0
-1934 2036 0
-1991 2036 0
-2036 1817 1876 1934 1991 0
-1819 2037 0
-1878 2037 0
-1936 2037 0
-1993 2037 0
-2037 1819 1878 1936 1993 0
-1821 2038 0
-1880 2038 0
-1938 2038 0
-1995 2038 0
-2038 1821 1880 1938 1995 0
-1823 2039 0
-1882 2039 0
-1940 2039 0
-1997 2039 0
-2039 1823 1882 1940 1997 0
-1825 2040 0
-1884 2040 0
-1942 2040 0
-1999 2040 0
-2040 1825 1884 1942 1999 0
-1827 2041 0
-1886 2041 0
-1944 2041 0
-2001 2041 0
-2041 1827 1886 1944 2001 0
-1829 2042 0
-1888 2042 0
-1946 2042 0
-2003 2042 0
-2042 1829 1888 1946 2003 0
-1831 2043 0
-1890 2043 0
-1948 2043 0
-2005 2043 0
-2043 1831 1890 1948 2005 0
-1833 2044 0
-1892 2044 0
-1950 2044 0
-2007 2044 0
-2044 1833 1892 1950 2007 0
-1835 2045 0
-1894 2045 0
-1952 2045 0
-2009 2045 0
-2045 1835 1894 1952 2009 0
-1837 2046 0
-1896 2046 0
-1954 2046 0
-2011 2046 0
-2046 1837 1896 1954 2011 0
-1839 2047 0
-1898 2047 0
-1956 2047 0
-2013 2047 0
-2047 1839 1898 1956 2013 0
-1841 2048 0
-1900 2048 0
-1958 2048 0
-2015 2048 0
-2048 1841 1900 1958 2015 0
-1843 2049 0
-1902 2049 0
-1960 2049 0
-2017 2049 0
-2049 1843 1902 1960 2017 0
-1845 2050 0
-1904 2050 0
-1962 2050 0
-2019 2050 0
-2050 1845 1904 1962 2019 0
-1847 2051 0
-1906 2051 0
-1964 2051 0
-2021 2051 0
-2051 1847 1906 1964 2021 0
-1849 2052 0
-1908 2052 0
-1966 2052 0
-2023 2052 0
-2052 1849 1908 1966 2023 0
-1851 2053 0
-1910 2053 0
-1968 2053 0
-2025 2053 0
-2053 1851 1910 1968 2025 0
-1853 2054 0
-1912 2054 0
-1970 2054 0
-2027 2054 0
-2054 1853 1912 1970 2027 0
-1855 2055 0
-1914 2055 0
-1972 2055 0
-2029 2055 0
-2055 1855 1914 1972 2029 0
-1857 2056 0
-1916 2056 0
-1974 2056 0
-2031 2056 0
-2056 1857 1916 1974 2031 0
-1811 -1870 0
-1813 -1872 0
-1815 -1874 0
-1817 -1876 0
-1819 -1878 0
-1821 -1880 0
-1823 -1882 0
-1825 -1884 0
-1827 -1886 0
-1829 -1888 0
-1831 -1890 0
-1833 -1892 0
-1835 -1894 0
-1837 -1896 0
-1839 -1898 0
-1841 -1900 0
-1843 -1902 0
-1845 -1904 0
-1847 -1906 0
-1849 -1908 0
-1851 -1910 0
-1853 -1912 0
-1855 -1914 0
-1857 -1916 0
-1811 -1928 0
-1813 -1930 0
-1815 -1932 0
-1817 -1934 0
-1819 -1936 0
-1821 -1938 0
-1823 -1940 0
-1825 -1942 0
-1827 -1944 0
-1829 -1946 0
-1831 -1948 0
-1833 -1950 0
-1835 -1952 0
-1837 -1954 0
-1839 -1956 0
-1841 -1958 0
-1843 -1960 0
-1845 -1962 0
-1847 -1964 0
-1849 -1966 0
-1851 -1968 0
-1853 -1970 0
-1855 -1972 0
-1857 -1974 0
-1811 -1985 0
-1813 -1987 0
-1815 -1989 0
-1817 -1991 0
-1819 -1993 0
-1821 -1995 0
-1823 -1997 0
-1825 -1999 0
-1827 -2001 0
-1829 -2003 0
-1831 -2005 0
-1833 -2007 0
-1835 -2009 0
-1837 -2011 0
-1839 -2013 0
-1841 -2015 0
-1843 -2017 0
-1845 -2019 0
-1847 -2021 0
-1849 -2023 0
-1851 -2025 0
-1853 -2027 0
-1855 -2029 0
-1857 -2031 0
-1870 -1928 0
-1872 -1930 0
-1874 -1932 0
-1876 -1934 0
-1878 -1936 0
-1880 -1938 0
-1882 -1940 0
-1884 -1942 0
-1886 -1944 0
-1888 -1946 0
-1890 -1948 0
-1892 -1950 0
-1894 -1952 0
-1896 -1954 0
-1898 -1956 0
-1900 -1958 0
-1902 -1960 0
-1904 -1962 0
-1906 -1964 0
-1908 -1966 0
-1910 -1968 0
-1912 -1970 0
-1914 -1972 0
-1916 -1974 0
-1870 -1985 0
-1872 -1987 0
-1874 -1989 0
-1876 -1991 0
-1878 -1993 0
-1880 -1995 0
-1882 -1997 0
-1884 -1999 0
-1886 -2001 0
-1888 -2003 0
-1890 -2005 0
-1892 -2007 0
-1894 -2009 0
-1896 -2011 0
-1898 -2013 0
-1900 -2015 0
-1902 -2017 0
-1904 -2019 0
-1906 -2021 0
-1908 -2023 0
-1910 -2025 0
-1912 -2027 0
-1914 -2029 0
-1916 -2031 0
-1928 -1985 0
-1930 -1987 0
-1932 -1989 0
-1934 -1991 0
-1936 -1993 0
-1938 -1995 0
-1940 -1997 0
-1942 -1999 0
-1944 -2001 0
-1946 -2003 0
-1948 -2005 0
-1950 -2007 0
-1952 -2009 0
-1954 -2011 0
-1956 -2013 0
-1958 -2015 0
-1960 -2017 0
-1962 -2019 0
-1964 -2021 0
-1966 -2023 0
-1968 -2025 0
-1970 -2027 0
-1972 -2029 0
-1974 -2031 0
-1800 -1807 2033 0
-1800 -1808 2034 0
-1800 -1809 2035 0
-1801 -1807 2037 0
-1801 -1808 2038 0
-1801 -1809 2039 0
-1802 -1807 2041 0
-1802 -1808 2042 0
-1802 -1809 2043 0
-1803 -1807 2045 0
-1803 -1808 2046 0
-1803 -1809 2047 0
-1804 -1807 2049 0
-1804 -1808 2050 0
-1804 -1809 2051 0
-1805 -1807 2053 0
-1805 -1808 2054 0
-1805 -1809 2055 0
-1859 -1866 2033 0
-1859 -1867 2034 0
-1859 -1868 2035 0
-1860 -1866 2037 0
-1860 -1867 2038 0
-1860 -1868 2039 0
-1861 -1866 2041 0
-1861 -1867 2042 0
-1861 -1868 2043 0
-1862 -1866 2045 0
-1862 -1867 2046 0
-1862 -1868 2047 0
-1863 -1866 2049 0
-1863 -1867 2050 0
-1863 -1868 2051 0
-1864 -1866 2053 0
-1864 -1867 2054 0
-1864 -1868 2055 0
-1918 -1924 2033 2037 0
-1918 -1925 2034 2038 0
-1918 -1926 2035 2039 0
-1919 -1924 2037 2041 0
-1919 -1925 2038 2042 0
-1919 -1926 2039 2043 0
-1920 -1924 2041 2045 0
-1920 -1925 2042 2046 0
-1920 -1926 2043 2047 0
-1921 -1924 2045 2049 0
-1921 -1925 2046 2050 0
-1921 -1926 2047 2051 0
-1922 -1924 2049 2053 0
-1922 -1925 2050 2054 0
-1922 -1926 2051 2055 0
-1976 -1981 2033 2037 0
-1976 -1981 2033 2041 0
-1976 -1981 2037 2041 0
-1976 -1982 2034 2038 0
-1976 -1982 2034 2042 0
-1976 -1982 2038 2042 0
-1976 -1983 2035 2039 0
-1976 -1983 2035 2043 0
-1976 -1983 2039 2043 0
-1977 -1981 2037 2041 0
-1977 -1981 2037 2045 0
-1977 -1981 2041 2045 0
-1977 -1982 2038 2042 0
-1977 -1982 2038 2046 0
-1977 -1982 2042 2046 0
-1977 -1983 2039 2043 0
-1977 -1983 2039 2047 0
-1977 -1983 2043 2047 0
-1978 -1981 2041 2045 0
-1978 -1981 2041 2049 0
-1978 -1981 2045 2049 0
-1978 -1982 2042 2046 0
-1978 -1982 2042 2050 0
-1978 -1982 2046 2050 0
-1978 -1983 2043 2047 0
-1978 -1983 2043 2051 0
-1978 -1983 2047 2051 0
-1979 -1981 2045 2049 0
-1979 -1981 2045 2053 0
-1979 -1981 2049 2053 0
-1979 -1982 2046 2050 0
-1979 -1982 2046 2054 0
-1979 -1982 2050 2054 0
-1979 -1983 2047 2051 0
-1979 -1983 2047 2055 0
-1979 -1983 2051 2055 0
-1811 -2034 1812 0
-1812 1811 0
-1812 2034 0
-1813 -2035 1814 0
-1814 1813 0
-1814 2035 0
-1815 -2036 1816 0
-1816 1815 0
-1816 2036 0
-1818 0
-1819 -2038 1820 0
-1820 1819 0
-1820 2038 0
-1821 -2039 1822 0
-1822 1821 0
-1822 2039 0
-1823 -2040 1824 0
-1824 1823 0
-1824 2040 0
-1826 0
-1827 -2042 1828 0
-1828 1827 0
-1828 2042 0
-1829 -2043 1830 0
-1830 1829 0
-1830 2043 0
-1831 -2044 1832 0
-1832 1831 0
-1832 2044 0
-1834 0
-1835 -2046 1836 0
-1836 1835 0
-1836 2046 0
-1837 -2047 1838 0
-1838 1837 0
-1838 2047 0
-1839 -2048 1840 0
-1840 1839 0
-1840 2048 0
-1842 0
-1843 -2050 1844 0
-1844 1843 0
-1844 2050 0
-1845 -2051 1846 0
-1846 1845 0
-1846 2051 0
-1847 -2052 1848 0
-1848 1847 0
-1848 2052 0
-1850 0
-1851 -2054 1852 0
-1852 1851 0
-1852 2054 0
-1853 -2055 1854 0
-1854 1853 0
-1854 2055 0
-1855 -2056 1856 0
-1856 1855 0
-1856 2056 0
-1858 0
-1810 -1812 0
-1810 -1814 0
-1810 -1816 0
-1810 -1818 0
-1810 -1820 0
-1810 -1822 0
-1810 -1824 0
-1810 -1826 0
-1810 -1828 0
-1810 -1830 0
-1810 -1832 0
-1810 -1834 0
-1810 -1836 0
-1810 -1838 0
-1810 -1840 0
-1810 -1842 0
-1810 -1844 0
-1810 -1846 0
-1810 -1848 0
-1810 -1850 0
-1810 -1852 0
-1810 -1854 0
-1810 -1856 0
-1810 -1858 0
1810 1812 1814 1816 1818 1820 1822 1824 1826 1828 1830 1832 1834 1836 1838 1840 1842 1844 1846 1848 1850 1852 1854 1856 1858 0
-1870 -2034 1871 0
-1871 1870 0
-1871 2034 0
-1872 -2035 1873 0
-1873 1872 0
-1873 2035 0
-1874 -2036 1875 0
-1875 1874 0
-1875 2036 0
-1877 0
-1878 -2038 1879 0
-1879 1878 0
-1879 2038 0
-1880 -2039 1881 0
-1881 1880 0
-1881 2039 0
-1882 -2040 1883 0
-1883 1882 0
-1883 2040 0
-1885 0
-1886 -2042 1887 0
-1887 1886 0
-1887 2042 0
-1888 -2043 1889 0
-1889 1888 0
-1889 2043 0
-1890 -2044 1891 0
-1891 1890 0
-1891 2044 0
-1893 0
-1894 -2046 1895 0
-1895 1894 0
-1895 2046 0
-1896 -2047 1897 0
-1897 1896 0
-1897 2047 0
-1898 -2048 1899 0
-1899 1898 0
-1899 2048 0
-1901 0
-1902 -2050 1903 0
-1903 1902 0
-1903 2050 0
-1904 -2051 1905 0
-1905 1904 0
-1905 2051 0
-1906 -2052 1907 0
-1907 1906 0
-1907 2052 0
-1909 0
-1910 -2054 1911 0
-1911 1910 0
-1911 2054 0
-1912 -2055 1913 0
-1913 1912 0
-1913 2055 0
-1914 -2056 1915 0
-1915 1914 0
-1915 2056 0
-1917 0
-1869 -1871 0
-1869 -1873 0
-1869 -1875 0
-1869 -1877 0
-1869 -1879 0
-1869 -1881 0
-1869 -1883 0
-1869 -1885 0
-1869 -1887 0
-1869 -1889 0
-1869 -1891 0
-1869 -1893 0
-1869 -1895 0
-1869 -1897 0
-1869 -1899 0
-1869 -1901 0
-1869 -1903 0
-1869 -1905 0
-1869 -1907 0
-1869 -1909 0
-1869 -1911 0
-1869 -1913 0
-1869 -1915 0
-1869 -1917 0
1869 1871 1873 1875 1877 1879 1881 1883 1885 1887 1889 1891 1893 1895 1897 1899 1901 1903 1905 1907 1909 1911 1913 1915 1917 0
-1928 -2034 1929 0
-1929 1928 0
-1929 2034 0
-1930 -2035 1931 0
-1931 1930 0
-1931 2035 0
-1932 -2036 1933 0
-1933 1932 0
-1933 2036 0
-1935 0
-1936 -2038 1937 0
-1937 1936 0
-1937 2038 0
-1938 -2039 1939 0
-1939 1938 0
-1939 2039 0
-1940 -2040 1941 0
-1941 1940 0
-1941 2040 0
-1943 0
-1944 -2042 1945 0
-1945 1944 0
-1945 2042 0
-1946 -2043 1947 0
-1947 1946 0
-1947 2043 0
-1948 -2044 1949 0
-1949 1948 0
-1949 2044 0
-1951 0
-1952 -2046 1953 0
-1953 1952 0
-1953 2046 0
-1954 -2047 1955 0
-1955 1954 0
-1955 2047 0
-1956 -2048 1957 0
-1957 1956 0
-1957 2048 0
-1959 0
-1960 -2050 1961 0
-1961 1960 0
-1961 2050 0
-1962 -2051 1963 0
-1963 1962 0
-1963 2051 0
-1964 -2052 1965 0
-1965 1964 0
-1965 2052 0
-1967 0
-1968 -2054 1969 0
-1969 1968 0
-1969 2054 0
-1970 -2055 1971 0
-1971 1970 0
-1971 2055 0
-1972 -2056 1973 0
-1973 1972 0
-1973 2056 0
-1975 0
-1927 -1929 0
-1927 -1931 0
-1927 -1933 0
-1927 -1935 0
-1927 -1937 0
-1927 -1939 0
-1927 -1941 0
-1927 -1943 0
-1927 -1945 0
-1927 -1947 0
-1927 -1949 0
-1927 -1951 0
-1927 -1953 0
-1927 -1955 0
-1927 -1957 0
-1927 -1959 0
-1927 -1961 0
-1927 -1963 0
-1927 -1965 0
-1927 -1967 0
-1927 -1969 0
-1927 -1971 0
-1927 -1973 0
-1927 -1975 0
1927 1929 1931 1933 1935 1937 1939 1941 1943 1945 1947 1949 1951 1953 1955 1957 1959 1961 1963 1965 1967 1969 1971 1973 1975 0
-1985 -2034 1986 0
-1986 1985 0
-1986 2034 0
-1987 -2035 1988 0
-1988 1987 0
-1988 2035 0
-1989 -2036 1990 0
-1990 1989 0
-1990 2036 0
-1992 0
-1993 -2038 1994 0
-1994 1993 0
-1994 2038 0
-1995 -2039 1996 0
-1996 1995 0
-1996 2039 0
-1997 -2040 1998 0
-1998 1997 0
-1998 2040 0
-2000 0
-2001 -2042 2002 0
-2002 2001 0
-2002 2042 0
-2003 -2043 2004 0
-2004 2003 0
-2004 2043 0
-2005 -2044 2006 0
-2006 2005 0
-2006 2044 0
-2008 0
-2009 -2046 2010 0
-2010 2009 0
-2010 2046 0
-2011 -2047 2012 0
-2012 2011 0
-2012 2047 0
-2013 -2048 2014 0
-2014 2013 0
-2014 2048 0
-2016 0
-2017 -2050 2018 0
-2018 2017 0
-2018 2050 0
-2019 -2051 2020 0
-2020 2019 0
-2020 2051 0
-2021 -2052 2022 0
-2022 2021 0
-2022 2052 0
-2024 0
-2025 -2054 2026 0
-2026 2025 0
-2026 2054 0
-2027 -2055 2028 0
-2028 2027 0
-2028 2055 0
-2029 -2056 2030 0
-2030 2029 0
-2030 2056 0
-2032 0
-1984 -1986 0
-1984 -1988 0
-1984 -1990 0
-1984 -1992 0
-1984 -1994 0
-1984 -1996 0
-1984 -1998 0
-1984 -2000 0
-1984 -2002 0
-1984 -2004 0
-1984 -2006 0
-1984 -2008 0
-1984 -2010 0
-1984 -2012 0
-1984 -2014 0
-1984 -2016 0
-1984 -2018 0
-1984 -2020 0
-1984 -2022 0
-1984 -2024 0
-1984 -2026 0
-1984 -2028 0
-1984 -2030 0
-1984 -2032 0
1984 1986 1988 1990 1992 1994 1996 1998 2000 2002 2004 2006 2008 2010 2012 2014 2016 2018 2020 2022 2024 2026 2028 2030 2032 0
-2057 -2058 0
-2057 -2059 0
-2057 -2060 0
-2057 -2061 0
-2057 -2062 0
-2057 -2063 0
-2057 -2064 0
-2057 -2065 0
-2057 -2066 0
-2057 -2067 0
-2057 -2068 0
-2057 -2069 0
-2057 -2070 0
-2057 -2071 0
-2057 -2072 0
-2057 -2073 0
-2057 -2074 0
-2057 -2075 0
-2057 -2076 0
-2057 -2077 0
-2057 -2078 0
-2057 -2079 0
-2057 -2080 0
-2057 -2081 0
-2057 -2082 0
-2057 -2083 0
-2057 -2084 0
-2057 -2085 0
-2057 -2086 0
-2057 -2087 0
-2057 -2088 0
-2057 -2089 0
-2057 -2090 0
-2057 -2091 0
-2057 -2092 0
-2057 -2093 0
-2057 -2094 0
-2057 -2095 0
-2057 -2096 0
-2057 -2097 0
-2057 -2098 0
-2057 -2099 0
-2057 -2100 0
-2057 -2101 0
-2057 -2102 0
-2057 -2103 0
-2057 -2104 0
-2057 -2105 0
-2057 -2106 0
-2057 -2107 0
-2057 -2108 0
-2057 -2109 0
-2057 -2110 0
-2057 -2111 0
-2057 -2112 0
-2057 -2113 0
-2057 -2114 0
-2057 -2115 0
-2057 -2116 0
-2057 -2117 0
-2057 -2118 0
-2057 -2119 0
-2057 -2120 0
-2057 -2121 0
-2057 -2122 0
-2057 -2123 0
-2057 -2124 0
-2057 -2125 0
-2057 -2126 0
-2057 -2127 0
-2057 -2128 0
-2057 -2129 0
-2057 -2130 0
-2057 -2131 0
-2057 -2132 0
-2057 -2133 0
-2057 -2134 0
-2057 -2135 0
-2057 -2136 0
-2057 -2137 0
-2057 -2138 0
-2057 -2139 0
-2057 -2140 0
-2058 -2059 0
-2058 -2060 0
-2058 -2061 0
-2058 -2062 0
-2058 -2063 0
-2058 -2064 0
-2058 -2065 0
-2058 -2066 0
-2058 -2067 0
-2058 -2068 0
-2058 -2069 0
-2058 -2070 0
-2058 -2071 0
-2058 -2072 0
-2058 -2073 0
-2058 -2074 0
-2058 -2075 0
-2058 -2076 0
-2058 -2077 0
-2058 -2078 0
-2058 -2079 0
-2058 -2080 0
-2058 -2081 0
-2058 -2082 0
-2058 -2083 0
-2058 -2084 0
-2058 -2085 0
-2058 -2086 0
-2058 -2087 0
-2058 -2088 0
-2058 -2089 0
-2058 -2090 0
-2058 -2091 0
-2058 -2092 0
-2058 -2093 0
-2058 -2094 0
-2058 -2095 0
-2058 -2096 0
-2058 -2097 0
-2058 -2098 0
-2058 -2099 0
-2058 -2100 0
-2058 -2101 0
-2058 -2102 0
-2058 -2103 0
-2058 -2104 0
-2058 -2105 0
-2058 -2106 0
-2058 -2107 0
-2058 -2108 0
-2058 -2109 0
-2058 -2110 0
-2058 -2111 0
-2058 -2112 0
-2058 -2113 0
-2058 -2114 0
-2058 -2115 0
-2058 -2116 0
-2058 -2117 0
-2058 -2118 0
-2058 -2119 0
-2058 -2120 0
-2058 -2121 0
-2058 -2122 0
-2058 -2123 0
-2058 -2124 0
-2058 -2125 0
-2058 -2126 0
-2058 -2127 0
-2058 -2128 0
-2058 -2129 0
-2058 -2130 0
-2058 -2131 0
-2058 -2132 0
-2058 -2133 0
-2058 -2134 0
-2058 -2135 0
-2058 -2136 0
-2058 -2137 0
-2058 -2138 0
-2058 -2139 0
-2058 -2140 0
-2059 -2060 0
-2059 -2061 0
-2059 -2062 0
-2059 -2063 0
-2059 -2064 0
-2059 -2065 0
-2059 -2066 0
-2059 -2067 0
-2059 -2068 0
-2059 -2069 0
-2059 -2070 0
-2059 -2071 0
-2059 -2072 0
-2059 -2073 0
-2059 -2074 0
-2059 -2075 0
-2059 -2076 0
-2059 -2077 0
-2059 -2078 0
-2059 -2079 0
-2059 -2080 0
-2059 -2081 0
-2059 -2082 0
-2059 -2083 0
-2059 -2084 0
-2059 -2085 0
-2059 -2086 0
-2059 -2087 0
-2059 -2088 0
-2059 -2089 0
-2059 -2090 0
-2059 -2091 0
-2059 -2092 0
-2059 -2093 0
-2059 -2094 0
-2059 -2095 0
-2059 -2096 0
-2059 -2097 0
-2059 -2098 0
-2059 -2099 0
-2059 -2100 0
-2059 -2101 0
-2059 -2102 0
-2059 -2103 0
-2059 -2104 0
-2059 -2105 0
-2059 -2106 0
-2059 -2107 0
-2059 -2108 0
-2059 -2109 0
-2059 -2110 0
-2059 -2111 0
-2059 -2112 0
-2059 -2113 0
-2059 -2114 0
-2059 -2115 0
-2059 -2116 0
-2059 -2117 0
-2059 -2118 0
-2059 -2119 0
-2059 -2120 0
-2059 -2121 0
-2059 -2122 0
-2059 -2123 0
-2059 -2124 0
-2059 -2125 0
-2059 -2126 0
-2059 -2127 0
-2059 -2128 0
-2059 -2129 0
-2059 -2130 0
-2059 -2131 0
-2059 -2132 0
-2059 -2133 0
-2059 -2134 0
-2059 -2135 0
-2059 -2136 0
-2059 -2137 0
-2059 -2138 0
-2059 -2139 0
-2059 -2140 0
-2060 -2061 0
-2060 -2062 0
-2060 -2063 0
-2060 -2064 0
-2060 -2065 0
-2060 -2066 0
-2060 -2067 0
-2060 -2068 0
-2060 -2069 0
-2060 -2070 0
-2060 -2071 0
-2060 -2072 0
-2060 -2073 0
-2060 -2074 0
-2060 -2075 0
-2060 -2076 0
-2060 -2077 0
-2060 -2078 0
-2060 -2079 0
-2060 -2080 0
-2060 -2081 0
-2060 -2082 0
-2060 -2083 0
-2060 -2084 0
-2060 -2085 0
-2060 -2086 0
-2060 -2087 0
-2060 -2088 0
-2060 -2089 0
-2060 -2090 0
-2060 -2091 0
-2060 -2092 0
-2060 -2093 0
-2060 -2094 0
-2060 -2095 0
-2060 -2096 0
-2060 -2097 0
-2060 -2098 0
-2060 -2099 0
-2060 -2100 0
-2060 -2101 0
-2060 -2102 0
-2060 -2103 0
-2060 -2104 0
-2060 -2105 0
-2060 -2106 0
-2060 -2107 0
-2060 -2108 0
-2060 -2109 0
-2060 -2110 0
-2060 -2111 0
-2060 -2112 0
-2060 -2113 0
-2060 -2114 0
-2060 -2115 0
-2060 -2116 0
-2060 -2117 0
-2060 -2118 0
-2060 -2119 0
-2060 -2120 0
-2060 -2121 0
-2060 -2122 0
-2060 -2123 0
-2060 -2124 0
-2060 -2125 0
-2060 -2126 0
-2060 -2127 0
-2060 -2128 0
-2060 -2129 0
-2060 -2130 0
-2060 -2131 0
-2060 -2132 0
-2060 -2133 0
-2060 -2134 0
-2060 -2135 0
-2060 -2136 0
-2060 -2137 0
-2060 -2138 0
-2060 -2139 0
-2060 -2140 0
-2061 -2062 0
-2061 -2063 0
-2061 -2064 0
-2061 -2065 0
-2061 -2066 0
-2061 -2067 0
-2061 -2068 0
-2061 -2069 0
-2061 -2070 0
-2061 -2071 0
-2061 -2072 0
-2061 -2073 0
-2061 -2074 0
-2061 -2075 0
-2061 -2076 0
-2061 -2077 0
-2061 -2078 0
-2061 -2079 0
-2061 -2080 0
-2061 -2081 0
-2061 -2082 0
-2061 -2083 0
-2061 -2084 0
-2061 -2085 0
-2061 -2086 0
-2061 -2087 0
-2061 -2088 0
-2061 -2089 0
-2061 -2090 0
-2061 -2091 0
-2061 -2092 0
-2061 -2093 0
-2061 -2094 0
-2061 -2095 0
-2061 -2096 0
-2061 -2097 0
-2061 -2098 0
-2061 -2099 0
-2061 -2100 0
-2061 -2101 0
-2061 -2102 0
-2061 -2103 0
-2061 -2104 0
-2061 -2105 0
-2061 -2106 0
-2061 -2107 0
-2061 -2108 0
-2061 -2109 0
-2061 -2110 0
-2061 -2111 0
-2061 -2112 0
-2061 -2113 0
-2061 -2114 0
-2061 -2115 0
-2061 -2116 0
-2061 -2117 0
-2061 -2118 0
-2061 -2119 0
-2061 -2120 0
-2061 -2121 0
-2061 -2122 0
-2061 -2123 0
-2061 -2124 0
-2061 -2125 0
-2061 -2126 0
-2061 -2127 0
-2061 -2128 0
-2061 -2129 0
-2061 -2130 0
-2061 -2131 0
-2061 -2132 0
-2061 -2133 0
-2061 -2134 0
-2061 -2135 0
-2061 -2136 0
-2061 -2137 0
-2061 -2138 0
-2061 -2139 0
-2061 -2140 0
-2062 -2063 0
-2062 -2064 0
-2062 -2065 0
-2062 -2066 0
-2062 -2067 0
-2062 -2068 0
-2062 -2069 0
-2062 -2070 0
-2062 -2071 0
-2062 -2072 0
-2062 -2073 0
-2062 -2074 0
-2062 -2075 0
-2062 -2076 0
-2062 -2077 0
-2062 -2078 0
-2062 -2079 0
-2062 -2080 0
-2062 -2081 0
-2062 -2082 0
-2062 -2083 0
-2062 -2084 0
-2062 -2085 0
-2062 -2086 0
-2062 -2087 0
-2062 -2088 0
-2062 -2089 0
-2062 -2090 0
-2062 -2091 0
-2062 -2092 0
-2062 -2093 0
-2062 -2094 0
-2062 -2095 0
-2062 -2096 0
-2062 -2097 0
-2062 -2098 0
-2062 -2099 0
-2062 -2100 0
-2062 -2101 0
-2062 -2102 0
-2062 -2103 0
-2062 -2104 0
-2062 -2105 0
-2062 -2106 0
-2062 -2107 0
-2062 -2108 0
-2062 -2109 0
-2062 -2110 0
-2062 -2111 0
-2062 -2112 0
-2062 -2113 0
-2062 -2114 0
-2062 -2115 0
-2062 -2116 0
-2062 -2117 0
-2062 -2118 0
-2062 -2119 0
-2062 -2120 0
-2062 -2121 0
-2062 -2122 0
-2062 -2123 0
-2062 -2124 0
-2062 -2125 0
-2062 -2126 0
-2062 -2127 0
-2062 -2128 0
-2062 -2129 0
-2062 -2130 0
-2062 -2131 0
-2062 -2132 0
-2062 -2133 0
-2062 -2134 0
-2062 -2135 0
-2062 -2136 0
-2062 -2137 0
-2062 -2138 0
-2062 -2139 0
-2062 -2140 0
-2063 -2064 0
-2063 -2065 0
-2063 -2066 0
-2063 -2067 0
-2063 -2068 0
-2063 -2069 0
-2063 -2070 0
-2063 -2071 0
-2063 -2072 0
-2063 -2073 0
-2063 -2074 0
-2063 -2075 0
-2063 -2076 0
-2063 -2077 0
-2063 -2078 0
-2063 -2079 0
-2063 -2080 0
-2063 -2081 0
-2063 -2082 0
-2063 -2083 0
-2063 -2084 0
-2063 -2085 0
-2063 -2086 0
-2063 -2087 0
-2063 -2088 0
-2063 -2089 0
-2063 -2090 0
-2063 -2091 0
-2063 -2092 0
-2063 -2093 0
-2063 -2094 0
-2063 -2095 0
-2063 -2096 0
-2063 -2097 0
-2063 -2098 0
-2063 -2099 0
-2063 -2100 0
-2063 -2101 0
-2063 -2102 0
-2063 -2103 0
-2063 -2104 0
-2063 -2105 0
-2063 -2106 0
-2063 -2107 0
-2063 -2108 0
-2063 -2109 0
-2063 -2110 0
-2063 -2111 0
-2063 -2112 0
-2063 -2113 0
-2063 -2114 0
-2063 -2115 0
-2063 -2116 0
-2063 -2117 0
-2063 -2118 0
-2063 -2119 0
-2063 -2120 0
-2063 -2121 0
-2063 -2122 0
-2063 -2123 0
-2063 -2124 0
-2063 -2125 0
-2063 -2126 0
-2063 -2127 0
-2063 -2128 0
-2063 -2129 0
-2063 -2130 0
-2063 -2131 0
-2063 -2132 0
-2063 -2133 0
-2063 -2134 0
-2063 -2135 0
-2063 -2136 0
-2063 -2137 0
-2063 -2138 0
-2063 -2139 0
-2063 -2140 0
-2064 -2065 0
-2064 -2066 0
-2064 -2067 0
-2064 -2068 0
-2064 -2069 0
-2064 -2070 0
-2064 -2071 0
-2064 -2072 0
-2064 -2073 0
-2064 -2074 0
-2064 -2075 0
-2064 -2076 0
-2064 -2077 0
-2064 -2078 0
-2064 -2079 0
-2064 -2080 0
-2064 -2081 0
-2064 -2082 0
-2064 -2083 0
-2064 -2084 0
-2064 -2085 0
-2064 -2086 0
-2064 -2087 0
-2064 -2088 0
-2064 -2089 0
-2064 -2090 0
-2064 -2091 0
-2064 -2092 0
-2064 -2093 0
-2064 -2094 0
-2064 -2095 0
-2064 -2096 0
-2064 -2097 0
-2064 -2098 0
-2064 -2099 0
-2064 -2100 0
-2064 -2101 0
-2064 -2102 0
-2064 -2103 0
-2064 -2104 0
-2064 -2105 0
-2064 -2106 0
-2064 -2107 0
-2064 -2108 0
-2064 -2109 0
-2064 -2110 0
-2064 -2111 0
-2064 -2112 0
-2064 -2113 0
-2064 -2114 0
-2064 -2115 0
-2064 -2116 0
-2064 -2117 0
-2064 -2118 0
-2064 -2119 0
-2064 -2120 0
-2064 -2121 0
-2064 -2122 0
-2064 -2123 0
-2064 -2124 0
-2064 -2125 0
-2064 -2126 0
-2064 -2127 0
-2064 -2128 0
-2064 -2129 0
-2064 -2130 0
-2064 -2131 0
-2064 -2132 0
-2064 -2133 0
-2064 -2134 0
-2064 -2135 0
-2064 -2136 0
-2064 -2137 0
-2064 -2138 0
-2064 -2139 0
-2064 -2140 0
-2065 -2066 0
-2065 -2067 0
-2065 -2068 0
-2065 -2069 0
-2065 -2070 0
-2065 -2071 0
-2065 -2072 0
-2065 -2073 0
-2065 -2074 0
-2065 -2075 0
-2065 -2076 0
-2065 -2077 0
-2065 -2078 0
-2065 -2079 0
-2065 -2080 0
-2065 -2081 0
-2065 -2082 0
-2065 -2083 0
-2065 -2084 0
-2065 -2085 0
-2065 -2086 0
-2065 -2087 0
-2065 -2088 0
-2065 -2089 0
-2065 -2090 0
-2065 -2091 0
-2065 -2092 0
-2065 -2093 0
-2065 -2094 0
-2065 -2095 0
-2065 -2096 0
-2065 -2097 0
-2065 -2098 0
-2065 -2099 0
-2065 -2100 0
-2065 -2101 0
-2065 -2102 0
-2065 -2103 0
-2065 -2104 0
-2065 -2105 0
-2065 -2106 0
-2065 -2107 0
-2065 -2108 0
-2065 -2109 0
-2065 -2110 0
-2065 -2111 0
-2065 -2112 0
-2065 -2113 0
-2065 -2114 0
-2065 -2115 0
-2065 -2116 0
-2065 -2117 0
-2065 -2118 0
-2065 -2119 0
-2065 -2120 0
-2065 -2121 0
-2065 -2122 0
-2065 -2123 0
-2065 -2124 0
-2065 -2125 0
-2065 -2126 0
-2065 -2127 0
-2065 -2128 0
-2065 -2129 0
-2065 -2130 0
-2065 -2131 0
-2065 -2132 0
-2065 -2133 0
-2065 -2134 0
-2065 -2135 0
-2065 -2136 0
-2065 -2137 0
-2065 -2138 0
-2065 -2139 0
-2065 -2140 0
-2066 -2067 0
-2066 -2068 0
-2066 -2069 0
-2066 -2070 0
-2066 -2071 0
-2066 -2072 0
-2066 -2073 0
-2066 -2074 0
-2066 -2075 0
-2066 -2076 0
-2066 -2077 0
-2066 -2078 0
-2066 -2079 0
-2066 -2080 0
-2066 -2081 0
-2066 -2082 0
-2066 -2083 0
-2066 -2084 0
-2066 -2085 0
-2066 -2086 0
-2066 -2087 0
-2066 -2088 0
-2066 -2089 0
-2066 -2090 0
-2066 -2091 0
-2066 -2092 0
-2066 -2093 0
-2066 -2094 0
-2066 -2095 0
-2066 -2096 0
-2066 -2097 0
-2066 -2098 0
-2066 -2099 0
-2066 -2100 0
-2066 -2101 0
-2066 -2102 0
-2066 -2103 0
-2066 -2104 0
-2066 -2105 0
-2066 -2106 0
-2066 -2107 0
-2066 -2108 0
-2066 -2109 0
-2066 -2110 0
-2066 -2111 0
-2066 -2112 0
-2066 -2113 0
-2066 -2114 0
-2066 -2115 0
-2066 -2116 0
-2066 -2117 0
-2066 -2118 0
-2066 -2119 0
-2066 -2120 0
-2066 -2121 0
-2066 -2122 0
-2066 -2123 0
-2066 -2124 0
-2066 -2125 0
-2066 -2126 0
-2066 -2127 0
-2066 -2128 0
-2066 -2129 0
-2066 -2130 0
-2066 -2131 0
-2066 -2132 0
-2066 -2133 0
-2066 -2134 0
-2066 -2135 0
-2066 -2136 0
-2066 -2137 0
-2066 -2138 0
-2066 -2139 0
-2066 -2140 0
-2067 -2068 0
-2067 -2069 0
-2067 -2070 0
-2067 -2071 0
-2067 -2072 0
-2067 -2073 0
-2067 -2074 0
-2067 -2075 0
-2067 -2076 0
-2067 -2077 0
-2067 -2078 0
-2067 -2079 0
-2067 -2080 0
-2067 -2081 0
-2067 -2082 0
-2067 -2083 0
-2067 -2084 0
-2067 -2085 0
-2067 -2086 0
-2067 -2087 0
-2067 -2088 0
-2067 -2089 0
-2067 -2090 0
-2067 -2091 0
-2067 -2092 0
-2067 -2093 0
-2067 -2094 0
-2067 -2095 0
-2067 -2096 0
-2067 -2097 0
-2067 -2098 0
-2067 -2099 0
-2067 -2100 0
-2067 -2101 0
-2067 -2102 0
-2067 -2103 0
-2067 -2104 0
-2067 -2105 0
-2067 -2106 0
-2067 -2107 0
-2067 -2108 0
-2067 -2109 0
-2067 -2110 0
-2067 -2111 0
-2067 -2112 0
-2067 -2113 0
-2067 -2114 0
-2067 -2115 0
-2067 -2116 0
-2067 -2117 0
-2067 -2118 0
-2067 -2119 0
-2067 -2120 0
-2067 -2121 0
-2067 -2122 0
-2067 -2123 0
-2067 -2124 0
-2067 -2125 0
-2067 -2126 0
-2067 -2127 0
-2067 -2128 0
-2067 -2129 0
-2067 -2130 0
-2067 -2131 0
-2067 -2132 0
-2067 -2133 0
-2067 -2134 0
-2067 -2135 0
-2067 -2136 0
-2067 -2137 0
-2067 -2138 0
-2067 -2139 0
-2067 -2140 0
-2068 -2069 0
-2068 -2070 0
-2068 -2071 0
-2068 -2072 0
-2068 -2073 0
-2068 -2074 0
-2068 -2075 0
-2068 -2076 0
-2068 -2077 0
-2068 -2078 0
-2068 -2079 0
-2068 -2080 0
-2068 -2081 0
-2068 -2082 0
-2068 -2083 0
-2068 -2084 0
-2068 -2085 0
-2068 -2086 0
-2068 -2087 0
-2068 -2088 0
-2068 -2089 0
-2068 -2090 0
-2068 -2091 0
-2068 -2092 0
-2068 -2093 0
-2068 -2094 0
-2068 -2095 0
-2068 -2096 0
-2068 -2097 0
-2068 -2098 0
-2068 -2099 0
-2068 -2100 0
-2068 -2101 0
-2068 -2102 0
-2068 -2103 0
-2068 -2104 0
-2068 -2105 0
-2068 -2106 0
-2068 -2107 0
-2068 -2108 0
-2068 -2109 0
-2068 -2110 0
-2068 -2111 0
-2068 -2112 0
-2068 -2113 0
-2068 -2114 0
-2068 -2115 0
-2068 -2116 0
-2068 -2117 0
-2068 -2118 0
-2068 -2119 0
-2068 -2120 0
-2068 -2121 0
-2068 -2122 0
-2068 -2123 0
-2068 -2124 0
-2068 -2125 0
-2068 -2126 0
-2068 -2127 0
-2068 -2128 0
-2068 -2129 0
-2068 -2130 0
-2068 -2131 0
-2068 -2132 0
-2068 -2133 0
-2068 -2134 0
-2068 -2135 0
-2068 -2136 0
-2068 -2137 0
-2068 -2138 0
-2068 -2139 0
-2068 -2140 0
-2069 -2070 0
-2069 -2071 0
-2069 -2072 0
-2069 -2073 0
-2069 -2074 0
-2069 -2075 0
-2069 -2076 0
-2069 -2077 0
-2069 -2078 0
-2069 -2079 0
-2069 -2080 0
-2069 -2081 0
-2069 -2082 0
-2069 -2083 0
-2069 -2084 0
-2069 -2085 0
-2069 -2086 0
-2069 -2087 0
-2069 -2088 0
-2069 -2089 0
-2069 -2090 0
-2069 -2091 0
-2069 -2092 0
-2069 -2093 0
-2069 -2094 0
-2069 -2095 0
-2069 -2096 0
-2069 -2097 0
-2069 -2098 0
-2069 -2099 0
-2069 -2100 0
-2069 -2101 0
-2069 -2102 0
-2069 -2103 0
-2069 -2104 0
-2069 -2105 0
-2069 -2106 0
-2069 -2107 0
-2069 -2108 0
-2069 -2109 0
-2069 -2110 0
-2069 -2111 0
-2069 -2112 0
-2069 -2113 0
-2069 -2114 0
-2069 -2115 0
-2069 -2116 0
-2069 -2117 0
-2069 -2118 0
-2069 -2119 0
-2069 -2120 0
-2069 -2121 0
-2069 -2122 0
-2069 -2123 0
-2069 -2124 0
-2069 -2125 0
-2069 -2126 0
-2069 -2127 0
-2069 -2128 0
-2069 -2129 0
-2069 -2130 0
-2069 -2131 0
-2069 -2132 0
-2069 -2133 0
-2069 -2134 0
-2069 -2135 0
-2069 -2136 0
-2069 -2137 0
-2069 -2138 0
-2069 -2139 0
-2069 -2140 0
-2070 -2071 0
-2070 -2072 0
-2070 -2073 0
-2070 -2074 0
-2070 -2075 0
-2070 -2076 0
-2070 -2077 0
-2070 -2078 0
-2070 -2079 0
-2070 -2080 0
-2070 -2081 0
-2070 -2082 0
-2070 -2083 0
-2070 -2084 0
-2070 -2085 0
-2070 -2086 0
-2070 -2087 0
-2070 -2088 0
-2070 -2089 0
-2070 -2090 0
-2070 -2091 0
-2070 -2092 0
-2070 -2093 0
-2070 -2094 0
-2070 -2095 0
-2070 -2096 0
-2070 -2097 0
-2070 -2098 0
-2070 -2099 0
-2070 -2100 0
-2070 -2101 0
-2070 -2102 0
-2070 -2103 0
-2070 -2104 0
-2070 -2105 0
-2070 -2106 0
-2070 -2107 0
-2070 -2108 0
-2070 -2109 0
-2070 -2110 0
-2070 -2111 0
-2070 -2112 0
-2070 -2113 0
-2070 -2114 0
-2070 -2115 0
-2070 -2116 0
-2070 -2117 0
-2070 -2118 0
-2070 -2119 0
-2070 -2120 0
-2070 -2121 0
-2070 -2122 0
-2070 -2123 0
-2070 -2124 0
-2070 -2125 0
-2070 -2126 0
-2070 -2127 0
-2070 -2128 0
-2070 -2129 0
-2070 -2130 0
-2070 -2131 0
-2070 -2132 0
-2070 -2133 0
-2070 -2134 0
-2070 -2135 0
-2070 -2136 0
-2070 -2137 0
-2070 -2138 0
-2070 -2139 0
-2070 -2140 0
-2071 -2072 0
-2071 -2073 0
-2071 -2074 0
-2071 -2075 0
-2071 -2076 0
-2071 -2077 0
-2071 -2078 0
-2071 -2079 0
-2071 -2080 0
-2071 -2081 0
-2071 -2082 0
-2071 -2083 0
-2071 -2084 0
-2071 -2085 0
-2071 -2086 0
-2071 -2087 0
-2071 -2088 0
-2071 -2089 0
-2071 -2090 0
-2071 -2091 0
-2071 -2092 0
-2071 -2093 0
-2071 -2094 0
-2071 -2095 0
-2071 -2096 0
-2071 -2097 0
-2071 -2098 0
-2071 -2099 0
-2071 -2100 0
-2071 -2101 0
-2071 -2102 0
-2071 -2103 0
-2071 -2104 0
-2071 -2105 0
-2071 -2106 0
-2071 -2107 0
-2071 -2108 0
-2071 -2109 0
-2071 -2110 0
-2071 -2111 0
-2071 -2112 0
-2071 -2113 0
-2071 -2114 0
-2071 -2115 0
-2071 -2116 0
-2071 -2117 0
-2071 -2118 0
-2071 -2119 0
-2071 -2120 0
-2071 -2121 0
-2071 -2122 0
-2071 -2123 0
-2071 -2124 0
-2071 -2125 0
-2071 -2126 0
-2071 -2127 0
-2071 -2128 0
-2071 -2129 0
-2071 -2130 0
-2071 -2131 0
-2071 -2132 0
-2071 -2133 0
-2071 -2134 0
-2071 -2135 0
-2071 -2136 0
-2071 -2137 0
-2071 -2138 0
-2071 -2139 0
-2071 -2140 0
-2072 -2073 0
-2072 -2074 0
-2072 -2075 0
-2072 -2076 0
-2072 -2077 0
-2072 -2078 0
-2072 -2079 0
-2072 -2080 0
-2072 -2081 0
-2072 -2082 0
-2072 -2083 0
-2072 -2084 0
-2072 -2085 0
-2072 -2086 0
-2072 -2087 0
-2072 -2088 0
-2072 -2089 0
-2072 -2090 0
-2072 -2091 0
-2072 -2092 0
-2072 -2093 0
-2072 -2094 0
-2072 -2095 0
-2072 -2096 0
-2072 -2097 0
-2072 -2098 0
-2072 -2099 0
-2072 -2100 0
-2072 -2101 0
-2072 -2102 0
-2072 -2103 0
-2072 -2104 0
-2072 -2105 0
-2072 -2106 0
-2072 -2107 0
-2072 -2108 0
-2072 -2109 0
-2072 -2110 0
-2072 -2111 0
-2072 -2112 0
-2072 -2113 0
-2072 -2114 0
-2072 -2115 0
-2072 -2116 0
-2072 -2117 0
-2072 -2118 0
-2072 -2119 0
-2072 -2120 0
-2072 -2121 0
-2072 -2122 0
-2072 -2123 0
-2072 -2124 0
-2072 -2125 0
-2072 -2126 0
-2072 -2127 0
-2072 -2128 0
-2072 -2129 0
-2072 -2130 0
-2072 -2131 0
-2072 -2132 0
-2072 -2133 0
-2072 -2134 0
-2072 -2135 0
-2072 -2136 0
-2072 -2137 0
-2072 -2138 0
-2072 -2139 0
-2072 -2140 0
-2073 -2074 0
-2073 -2075 0
-2073 -2076 0
-2073 -2077 0
-2073 -2078 0
-2073 -2079 0
-2073 -2080 0
-2073 -2081 0
-2073 -2082 0
-2073 -2083 0
-2073 -2084 0
-2073 -2085 0
-2073 -2086 0
-2073 -2087 0
-2073 -2088 0
-2073 -2089 0
-2073 -2090 0
-2073 -2091 0
-2073 -2092 0
-2073 -2093 0
-2073 -2094 0
-2073 -2095 0
-2073 -2096 0
-2073 -2097 0
-2073 -2098 0
-2073 -2099 0
-2073 -2100 0
-2073 -2101 0
-2073 -2102 0
-2073 -2103 0
-2073 -2104 0
-2073 -2105 0
-2073 -2106 0
-2073 -2107 0
-2073 -2108 0
-2073 -2109 0
-2073 -2110 0
-2073 -2111 0
-2073 -2112 0
-2073 -2113 0
-2073 -2114 0
-2073 -2115 0
-2073 -2116 0
-2073 -2117 0
-2073 -2118 0
-2073 -2119 0
-2073 -2120 0
-2073 -2121 0
-2073 -2122 0
-2073 -2123 0
-2073 -2124 0
-2073 -2125 0
-2073 -2126 0
-2073 -2127 0
-2073 -2128 0
-2073 -2129 0
-2073 -2130 0
-2073 -2131 0
-2073 -2132 0
-2073 -2133 0
-2073 -2134 0
-2073 -2135 0
-2073 -2136 0
-2073 -2137 0
-2073 -2138 0
-2073 -2139 0
-2073 -2140 0
-2074 -2075 0
-2074 -2076 0
-2074 -2077 0
-2074 -2078 0
-2074 -2079 0
-2074 -2080 0
-2074 -2081 0
-2074 -2082 0
-2074 -2083 0
-2074 -2084 0
-2074 -2085 0
-2074 -2086 0
-2074 -2087 0
-2074 -2088 0
-2074 -2089 0
-2074 -2090 0
-2074 -2091 0
-2074 -2092 0
-2074 -2093 0
-2074 -2094 0
-2074 -2095 0
-2074 -2096 0
-2074 -2097 0
-2074 -2098 0
-2074 -2099 0
-2074 -2100 0
-2074 -2101 0
-2074 -2102 0
-2074 -2103 0
-2074 -2104 0
-2074 -2105 0
-2074 -2106 0
-2074 -2107 0
-2074 -2108 0
-2074 -2109 0
-2074 -2110 0
-2074 -2111 0
-2074 -2112 0
-2074 -2113 0
-2074 -2114 0
-2074 -2115 0
-2074 -2116 0
-2074 -2117 0
-2074 -2118 0
-2074 -2119 0
-2074 -2120 0
-2074 -2121 0
-2074 -2122 0
-2074 -2123 0
-2074 -2124 0
-2074 -2125 0
-2074 -2126 0
-2074 -2127 0
-2074 -2128 0
-2074 -2129 0
-2074 -2130 0
-2074 -2131 0
-2074 -2132 0
-2074 -2133 0
-2074 -2134 0
-2074 -2135 0
-2074 -2136 0
-2074 -2137 0
-2074 -2138 0
-2074 -2139 0
-2074 -2140 0
-2075 -2076 0
-2075 -2077 0
-2075 -2078 0
-2075 -2079 0
-2075 -2080 0
-2075 -2081 0
-2075 -2082 0
-2075 -2083 0
-2075 -2084 0
-2075 -2085 0
-2075 -2086 0
-2075 -2087 0
-2075 -2088 0
-2075 -2089 0
-2075 -2090 0
-2075 -2091 0
-2075 -2092 0
-2075 -2093 0
-2075 -2094 0
-2075 -2095 0
-2075 -2096 0
-2075 -2097 0
-2075 -2098 0
-2075 -2099 0
-2075 -2100 0
-2075 -2101 0
-2075 -2102 0
-2075 -2103 0
-2075 -2104 0
-2075 -2105 0
-2075 -2106 0
-2075 -2107 0
-2075 -2108 0
-2075 -2109 0
-2075 -2110 0
-2075 -2111 0
-2075 -2112 0
-2075 -2113 0
-2075 -2114 0
-2075 -2115 0
-2075 -2116 0
-2075 -2117 0
-2075 -2118 0
-2075 -2119 0
-2075 -2120 0
-2075 -2121 0
-2075 -2122 0
-2075 -2123 0
-2075 -2124 0
-2075 -2125 0
-2075 -2126 0
-2075 -2127 0
-2075 -2128 0
-2075 -2129 0
-2075 -2130 0
-2075 -2131 0
-2075 -2132 0
-2075 -2133 0
-2075 -2134 0
-2075 -2135 0
-2075 -2136 0
-2075 -2137 0
-2075 -2138 0
-2075 -2139 0
-2075 -2140 0
-2076 -2077 0
-2076 -2078 0
-2076 -2079 0
-2076 -2080 0
-2076 -2081 0
-2076 -2082 0
-2076 -2083 0
-2076 -2084 0
-2076 -2085 0
-2076 -2086 0
-2076 -2087 0
-2076 -2088 0
-2076 -2089 0
-2076 -2090 0
-2076 -2091 0
-2076 -2092 0
-2076 -2093 0
-2076 -2094 0
-2076 -2095 0
-2076 -2096 0
-2076 -2097 0
-2076 -2098 0
-2076 -2099 0
-2076 -2100 0
-2076 -2101 0
-2076 -2102 0
-2076 -2103 0
-2076 -2104 0
-2076 -2105 0
-2076 -2106 0
-2076 -2107 0
-2076 -2108 0
-2076 -2109 0
-2076 -2110 0
-2076 -2111 0
-2076 -2112 0
-2076 -2113 0
-2076 -2114 0
-2076 -2115 0
-2076 -2116 0
-2076 -2117 0
-2076 -2118 0
-2076 -2119 0
-2076 -2120 0
-2076 -2121 0
-2076 -2122 0
-2076 -2123 0
-2076 -2124 0
-2076 -2125 0
-2076 -2126 0
-2076 -2127 0
-2076 -2128 0
-2076 -2129 0
-2076 -2130 0
-2076 -2131 0
-2076 -2132 0
-2076 -2133 0
-2076 -2134 0
-2076 -2135 0
-2076 -2136 0
-2076 -2137 0
-2076 -2138 0
-2076 -2139 0
-2076 -2140 0
-2077 -2078 0
-2077 -2079 0
-2077 -2080 0
-2077 -2081 0
-2077 -2082 0
-2077 -2083 0
-2077 -2084 0
-2077 -2085 0
-2077 -2086 0
-2077 -2087 0
-2077 -2088 0
-2077 -2089 0
-2077 -2090 0
-2077 -2091 0
-2077 -2092 0
-2077 -2093 0
-2077 -2094 0
-2077 -2095 0
-2077 -2096 0
-2077 -2097 0
-2077 -2098 0
-2077 -2099 0
-2077 -2100 0
-2077 -2101 0
-2077 -2102 0
-2077 -2103 0
-2077 -2104 0
-2077 -2105 0
-2077 -2106 0
-2077 -2107 0
-2077 -2108 0
-2077 -2109 0
-2077 -2110 0
-2077 -2111 0
-2077 -2112 0
-2077 -2113 0
-2077 -2114 0
-2077 -2115 0
-2077 -2116 0
-2077 -2117 0
-2077 -2118 0
-2077 -2119 0
-2077 -2120 0
-2077 -2121 0
-2077 -2122 0
-2077 -2123 0
-2077 -2124 0
-2077 -2125 0
-2077 -2126 0
-2077 -2127 0
-2077 -2128 0
-2077 -2129 0
-2077 -2130 0
-2077 -2131 0
-2077 -2132 0
-2077 -2133 0
-2077 -2134 0
-2077 -2135 0
-2077 -2136 0
-2077 -2137 0
-2077 -2138 0
-2077 -2139 0
-2077 -2140 0
-2078 -2079 0
-2078 -2080 0
-2078 -2081 0
-2078 -2082 0
-2078 -2083 0
-2078 -2084 0
-2078 -2085 0
-2078 -2086 0
-2078 -2087 0
-2078 -2088 0
-2078 -2089 0
-2078 -2090 0
-2078 -2091 0
-2078 -2092 0
-2078 -2093 0
-2078 -2094 0
-2078 -2095 0
-2078 -2096 0
-2078 -2097 0
-2078 -2098 0
-2078 -2099 0
-2078 -2100 0
-2078 -2101 0
-2078 -2102 0
-2078 -2103 0
-2078 -2104 0
-2078 -2105 0
-2078 -2106 0
-2078 -2107 0
-2078 -2108 0
-2078 -2109 0
-2078 -2110 0
-2078 -2111 0
-2078 -2112 0
-2078 -2113 0
-2078 -2114 0
-2078 -2115 0
-2078 -2116 0
-2078 -2117 0
-2078 -2118 0
-2078 -2119 0
-2078 -2120 0
-2078 -2121 0
-2078 -2122 0
-2078 -2123 0
-2078 -2124 0
-2078 -2125 0
-2078 -2126 0
-2078 -2127 0
-2078 -2128 0
-2078 -2129 0
-2078 -2130 0
-2078 -2131 0
-2078 -2132 0
-2078 -2133 0
-2078 -2134 0
-2078 -2135 0
-2078 -2136 0
-2078 -2137 0
-2078 -2138 0
-2078 -2139 0
-2078 -2140 0
-2079 -2080 0
-2079 -2081 0
-2079 -2082 0
-2079 -2083 0
-2079 -2084 0
-2079 -2085 0
-2079 -2086 0
-2079 -2087 0
-2079 -2088 0
-2079 -2089 0
-2079 -2090 0
-2079 -2091 0
-2079 -2092 0
-2079 -2093 0
-2079 -2094 0
-2079 -2095 0
-2079 -2096 0
-2079 -2097 0
-2079 -2098 0
-2079 -2099 0
-2079 -2100 0
-2079 -2101 0
-2079 -2102 0
-2079 -2103 0
-2079 -2104 0
-2079 -2105 0
-2079 -2106 0
-2079 -2107 0
-2079 -2108 0
-2079 -2109 0
-2079 -2110 0
-2079 -2111 0
-2079 -2112 0
-2079 -2113 0
-2079 -2114 0
-2079 -2115 0
-2079 -2116 0
-2079 -2117 0
-2079 -2118 0
-2079 -2119 0
-2079 -2120 0
-2079 -2121 0
-2079 -2122 0
-2079 -2123 0
-2079 -2124 0
-2079 -2125 0
-2079 -2126 0
-2079 -2127 0
-2079 -2128 0
-2079 -2129 0
-2079 -2130 0
-2079 -2131 0
-2079 -2132 0
-2079 -2133 0
-2079 -2134 0
-2079 -2135 0
-2079 -2136 0
-2079 -2137 0
-2079 -2138 0
-2079 -2139 0
-2079 -2140 0
-2080 -2081 0
-2080 -2082 0
-2080 -2083 0
-2080 -2084 0
-2080 -2085 0
-2080 -2086 0
-2080 -2087 0
-2080 -2088 0
-2080 -2089 0
-2080 -2090 0
-2080 -2091 0
-2080 -2092 0
-2080 -2093 0
-2080 -2094 0
-2080 -2095 0
-2080 -2096 0
-2080 -2097 0
-2080 -2098 0
-2080 -2099 0
-2080 -2100 0
-2080 -2101 0
-2080 -2102 0
-2080 -2103 0
-2080 -2104 0
-2080 -2105 0
-2080 -2106 0
-2080 -2107 0
-2080 -2108 0
-2080 -2109 0
-2080 -2110 0
-2080 -2111 0
-2080 -2112 0
-2080 -2113 0
-2080 -2114 0
-2080 -2115 0
-2080 -2116 0
-2080 -2117 0
-2080 -2118 0
-2080 -2119 0
-2080 -2120 0
-2080 -2121 0
-2080 -2122 0
-2080 -2123 0
-2080 -2124 0
-2080 -2125 0
-2080 -2126 0
-2080 -2127 0
-2080 -2128 0
-2080 -2129 0
-2080 -2130 0
-2080 -2131 0
-2080 -2132 0
-2080 -2133 0
-2080 -2134 0
-2080 -2135 0
-2080 -2136 0
-2080 -2137 0
-2080 -2138 0
-2080 -2139 0
-2080 -2140 0
-2081 -2082 0
-2081 -2083 0
-2081 -2084 0
-2081 -2085 0
-2081 -2086 0
-2081 -2087 0
-2081 -2088 0
-2081 -2089 0
-2081 -2090 0
-2081 -2091 0
-2081 -2092 0
-2081 -2093 0
-2081 -2094 0
-2081 -2095 0
-2081 -2096 0
-2081 -2097 0
-2081 -2098 0
-2081 -2099 0
-2081 -2100 0
-2081 -2101 0
-2081 -2102 0
-2081 -2103 0
-2081 -2104 0
-2081 -2105 0
-2081 -2106 0
-2081 -2107 0
-2081 -2108 0
-2081 -2109 0
-2081 -2110 0
-2081 -2111 0
-2081 -2112 0
-2081 -2113 0
-2081 -2114 0
-2081 -2115 0
-2081 -2116 0
-2081 -2117 0
-2081 -2118 0
-2081 -2119 0
-2081 -2120 0
-2081 -2121 0
-2081 -2122 0
-2081 -2123 0
-2081 -2124 0
-2081 -2125 0
-2081 -2126 0
-2081 -2127 0
-2081 -2128 0
-2081 -2129 0
-2081 -2130 0
-2081 -2131 0
-2081 -2132 0
-2081 -2133 0
-2081 -2134 0
-2081 -2135 0
-2081 -2136 0
-2081 -2137 0
-2081 -2138 0
-2081 -2139 0
-2081 -2140 0
-2082 -2083 0
-2082 -2084 0
-2082 -2085 0
-2082 -2086 0
-2082 -2087 0
-2082 -2088 0
-2082 -2089 0
-2082 -2090 0
-2082 -2091 0
-2082 -2092 0
-2082 -2093 0
-2082 -2094 0
-2082 -2095 0
-2082 -2096 0
-2082 -2097 0
-2082 -2098 0
-2082 -2099 0
-2082 -2100 0
-2082 -2101 0
-2082 -2102 0
-2082 -2103 0
-2082 -2104 0
-2082 -2105 0
-2082 -2106 0
-2082 -2107 0
-2082 -2108 0
-2082 -2109 0
-2082 -2110 0
-2082 -2111 0
-2082 -2112 0
-2082 -2113 0
-2082 -2114 0
-2082 -2115 0
-2082 -2116 0
-2082 -2117 0
-2082 -2118 0
-2082 -2119 0
-2082 -2120 0
-2082 -2121 0
-2082 -2122 0
-2082 -2123 0
-2082 -2124 0
-2082 -2125 0
-2082 -2126 0
-2082 -2127 0
-2082 -2128 0
-2082 -2129 0
-2082 -2130 0
-2082 -2131 0
-2082 -2132 0
-2082 -2133 0
-2082 -2134 0
-2082 -2135 0
-2082 -2136 0
-2082 -2137 0
-2082 -2138 0
-2082 -2139 0
-2082 -2140 0
-2083 -2084 0
-2083 -2085 0
-2083 -2086 0
-2083 -2087 0
-2083 -2088 0
-2083 -2089 0
-2083 -2090 0
-2083 -2091 0
-2083 -2092 0
-2083 -2093 0
-2083 -2094 0
-2083 -2095 0
-2083 -2096 0
-2083 -2097 0
-2083 -2098 0
-2083 -2099 0
-2083 -2100 0
-2083 -2101 0
-2083 -2102 0
-2083 -2103 0
-2083 -2104 0
-2083 -2105 0
-2083 -2106 0
-2083 -2107 0
-2083 -2108 0
-2083 -2109 0
-2083 -2110 0
-2083 -2111 0
-2083 -2112 0
-2083 -2113 0
-2083 -2114 0
-2083 -2115 0
-2083 -2116 0
-2083 -2117 0
-2083 -2118 0
-2083 -2119 0
-2083 -2120 0
-2083 -2121 0
-2083 -2122 0
-2083 -2123 0
-2083 -2124 0
-2083 -2125 0
-2083 -2126 0
-2083 -2127 0
-2083 -2128 0
-2083 -2129 0
-2083 -2130 0
-2083 -2131 0
-2083 -2132 0
-2083 -2133 0
-2083 -2134 0
-2083 -2135 0
-2083 -2136 0
-2083 -2137 0
-2083 -2138 0
-2083 -2139 0
-2083 -2140 0
-2084 -2085 0
-2084 -2086 0
-2084 -2087 0
-2084 -2088 0
-2084 -2089 0
-2084 -2090 0
-2084 -2091 0
-2084 -2092 0
-2084 -2093 0
-2084 -2094 0
-2084 -2095 0
-2084 -2096 0
-2084 -2097 0
-2084 -2098 0
-2084 -2099 0
-2084 -2100 0
-2084 -2101 0
-2084 -2102 0
-2084 -2103 0
-2084 -2104 0
-2084 -2105 0
-2084 -2106 0
-2084 -2107 0
-2084 -2108 0
-2084 -2109 0
-2084 -2110 0
-2084 -2111 0
-2084 -2112 0
-2084 -2113 0
-2084 -2114 0
-2084 -2115 0
-2084 -2116 0
-2084 -2117 0
-2084 -2118 0
-2084 -2119 0
-2084 -2120 0
-2084 -2121 0
-2084 -2122 0
-2084 -2123 0
-2084 -2124 0
-2084 -2125 0
-2084 -2126 0
-2084 -2127 0
-2084 -2128 0
-2084 -2129 0
-2084 -2130 0
-2084 -2131 0
-2084 -2132 0
-2084 -2133 0
-2084 -2134 0
-2084 -2135 0
-2084 -2136 0
-2084 -2137 0
-2084 -2138 0
-2084 -2139 0
-2084 -2140 0
-2085 -2086 0
-2085 -2087 0
-2085 -2088 0
-2085 -2089 0
-2085 -2090 0
-2085 -2091 0
-2085 -2092 0
-2085 -2093 0
-2085 -2094 0
-2085 -2095 0
-2085 -2096 0
-2085 -2097 0
-2085 -2098 0
-2085 -2099 0
-2085 -2100 0
-2085 -2101 0
-2085 -2102 0
-2085 -2103 0
-2085 -2104 0
-2085 -2105 0
-2085 -2106 0
-2085 -2107 0
-2085 -2108 0
-2085 -2109 0
-2085 -2110 0
-2085 -2111 0
-2085 -2112 0
-2085 -2113 0
-2085 -2114 0
-2085 -2115 0
-2085 -2116 0
-2085 -2117 0
-2085 -2118 0
-2085 -2119 0
-2085 -2120 0
-2085 -2121 0
-2085 -2122 0
-2085 -2123 0
-2085 -2124 0
-2085 -2125 0
-2085 -2126 0
-2085 -2127 0
-2085 -2128 0
-2085 -2129 0
-2085 -2130 0
-2085 -2131 0
-2085 -2132 0
-2085 -2133 0
-2085 -2134 0
-2085 -2135 0
-2085 -2136 0
-2085 -2137 0
-2085 -2138 0
-2085 -2139 0
-2085 -2140 0
-2086 -2087 0
-2086 -2088 0
-2086 -2089 0
-2086 -2090 0
-2086 -2091 0
-2086 -2092 0
-2086 -2093 0
-2086 -2094 0
-2086 -2095 0
-2086 -2096 0
-2086 -2097 0
-2086 -2098 0
-2086 -2099 0
-2086 -2100 0
-2086 -2101 0
-2086 -2102 0
-2086 -2103 0
-2086 -2104 0
-2086 -2105 0
-2086 -2106 0
-2086 -2107 0
-2086 -2108 0
-2086 -2109 0
-2086 -2110 0
-2086 -2111 0
-2086 -2112 0
-2086 -2113 0
-2086 -2114 0
-2086 -2115 0
-2086 -2116 0
-2086 -2117 0
-2086 -2118 0
-2086 -2119 0
-2086 -2120 0
-2086 -2121 0
-2086 -2122 0
-2086 -2123 0
-2086 -2124 0
-2086 -2125 0
-2086 -2126 0
-2086 -2127 0
-2086 -2128 0
-2086 -2129 0
-2086 -2130 0
-2086 -2131 0
-2086 -2132 0
-2086 -2133 0
-2086 -2134 0
-2086 -2135 0
-2086 -2136 0
-2086 -2137 0
-2086 -2138 0
-2086 -2139 0
-2086 -2140 0
-2087 -2088 0
-2087 -2089 0
-2087 -2090 0
-2087 -2091 0
-2087 -2092 0
-2087 -2093 0
-2087 -2094 0
-2087 -2095 0
-2087 -2096 0
-2087 -2097 0
-2087 -2098 0
-2087 -2099 0
-2087 -2100 0
-2087 -2101 0
-2087 -2102 0
-2087 -2103 0
-2087 -2104 0
-2087 -2105 0
-2087 -2106 0
-2087 -2107 0
-2087 -2108 0
-2087 -2109 0
-2087 -2110 0
-2087 -2111 0
-2087 -2112 0
-2087 -2113 0
-2087 -2114 0
-2087 -2115 0
-2087 -2116 0
-2087 -2117 0
-2087 -2118 0
-2087 -2119 0
-2087 -2120 0
-2087 -2121 0
-2087 -2122 0
-2087 -2123 0
-2087 -2124 0
-2087 -2125 0
-2087 -2126 0
-2087 -2127 0
-2087 -2128 0
-2087 -2129 0
-2087 -2130 0
-2087 -2131 0
-2087 -2132 0
-2087 -2133 0
-2087 -2134 0
-2087 -2135 0
-2087 -2136 0
-2087 -2137 0
-2087 -2138 0
-2087 -2139 0
-2087 -2140 0
-2088 -2089 0
-2088 -2090 0
-2088 -2091 0
-2088 -2092 0
-2088 -2093 0
-2088 -2094 0
-2088 -2095 0
-2088 -2096 0
-2088 -2097 0
-2088 -2098 0
-2088 -2099 0
-2088 -2100 0
-2088 -2101 0
-2088 -2102 0
-2088 -2103 0
-2088 -2104 0
-2088 -2105 0
-2088 -2106 0
-2088 -2107 0
-2088 -2108 0
-2088 -2109 0
-2088 -2110 0
-2088 -2111 0
-2088 -2112 0
-2088 -2113 0
-2088 -2114 0
-2088 -2115 0
-2088 -2116 0
-2088 -2117 0
-2088 -2118 0
-2088 -2119 0
-2088 -2120 0
-2088 -2121 0
-2088 -2122 0
-2088 -2123 0
-2088 -2124 0
-2088 -2125 0
-2088 -2126 0
-2088 -2127 0
-2088 -2128 0
-2088 -2129 0
-2088 -2130 0
-2088 -2131 0
-2088 -2132 0
-2088 -2133 0
-2088 -2134 0
-2088 -2135 0
-2088 -2136 0
-2088 -2137 0
-2088 -2138 0
-2088 -2139 0
-2088 -2140 0
-2089 -2090 0
-2089 -2091 0
-2089 -2092 0
-2089 -2093 0
-2089 -2094 0
-2089 -2095 0
-2089 -2096 0
-2089 -2097 0
-2089 -2098 0
-2089 -2099 0
-2089 -2100 0
-2089 -2101 0
-2089 -2102 0
-2089 -2103 0
-2089 -2104 0
-2089 -2105 0
-2089 -2106 0
-2089 -2107 0
-2089 -2108 0
-2089 -2109 0
-2089 -2110 0
-2089 -2111 0
-2089 -2112 0
-2089 -2113 0
-2089 -2114 0
-2089 -2115 0
-2089 -2116 0
-2089 -2117 0
-2089 -2118 0
-2089 -2119 0
-2089 -2120 0
-2089 -2121 0
-2089 -2122 0
-2089 -2123 0
-2089 -2124 0
-2089 -2125 0
-2089 -2126 0
-2089 -2127 0
-2089 -2128 0
-2089 -2129 0
-2089 -2130 0
-2089 -2131 0
-2089 -2132 0
-2089 -2133 0
-2089 -2134 0
-2089 -2135 0
-2089 -2136 0
-2089 -2137 0
-2089 -2138 0
-2089 -2139 0
-2089 -2140 0
-2090 -2091 0
-2090 -2092 0
-2090 -2093 0
-2090 -2094 0
-2090 -2095 0
-2090 -2096 0
-2090 -2097 0
-2090 -2098 0
-2090 -2099 0
-2090 -2100 0
-2090 -2101 0
-2090 -2102 0
-2090 -2103 0
-2090 -2104 0
-2090 -2105 0
-2090 -2106 0
-2090 -2107 0
-2090 -2108 0
-2090 -2109 0
-2090 -2110 0
-2090 -2111 0
-2090 -2112 0
-2090 -2113 0
-2090 -2114 0
-2090 -2115 0
-2090 -2116 0
-2090 -2117 0
-2090 -2118 0
-2090 -2119 0
-2090 -2120 0
-2090 -2121 0
-2090 -2122 0
-2090 -2123 0
-2090 -2124 0
-2090 -2125 0
-2090 -2126 0
-2090 -2127 0
-2090 -2128 0
-2090 -2129 0
-2090 -2130 0
-2090 -2131 0
-2090 -2132 0
-2090 -2133 0
-2090 -2134 0
-2090 -2135 0
-2090 -2136 0
-2090 -2137 0
-2090 -2138 0
-2090 -2139 0
-2090 -2140 0
-2091 -2092 0
-2091 -2093 0
-2091 -2094 0
-2091 -2095 0
-2091 -2096 0
-2091 -2097 0
-2091 -2098 0
-2091 -2099 0
-2091 -2100 0
-2091 -2101 0
-2091 -2102 0
-2091 -2103 0
-2091 -2104 0
-2091 -2105 0
-2091 -2106 0
-2091 -2107 0
-2091 -2108 0
-2091 -2109 0
-2091 -2110 0
-2091 -2111 0
-2091 -2112 0
-2091 -2113 0
-2091 -2114 0
-2091 -2115 0
-2091 -2116 0
-2091 -2117 0
-2091 -2118 0
-2091 -2119 0
-2091 -2120 0
-2091 -2121 0
-2091 -2122 0
-2091 -2123 0
-2091 -2124 0
-2091 -2125 0
-2091 -2126 0
-2091 -2127 0
-2091 -2128 0
-2091 -2129 0
-2091 -2130 0
-2091 -2131 0
-2091 -2132 0
-2091 -2133 0
-2091 -2134 0
-2091 -2135 0
-2091 -2136 0
-2091 -2137 0
-2091 -2138 0
-2091 -2139 0
-2091 -2140 0
-2092 -2093 0
-2092 -2094 0
-2092 -2095 0
-2092 -2096 0
-2092 -2097 0
-2092 -2098 0
-2092 -2099 0
-2092 -2100 0
-2092 -2101 0
-2092 -2102 0
-2092 -2103 0
-2092 -2104 0
-2092 -2105 0
-2092 -2106 0
-2092 -2107 0
-2092 -2108 0
-2092 -2109 0
-2092 -2110 0
-2092 -2111 0
-2092 -2112 0
-2092 -2113 0
-2092 -2114 0
-2092 -2115 0
-2092 -2116 0
-2092 -2117 0
-2092 -2118 0
-2092 -2119 0
-2092 -2120 0
-2092 -2121 0
-2092 -2122 0
-2092 -2123 0
-2092 -2124 0
-2092 -2125 0
-2092 -2126 0
-2092 -2127 0
-2092 -2128 0
-2092 -2129 0
-2092 -2130 0
-2092 -2131 0
-2092 -2132 0
-2092 -2133 0
-2092 -2134 0
-2092 -2135 0
-2092 -2136 0
-2092 -2137 0
-2092 -2138 0
-2092 -2139 0
-2092 -2140 0
-2093 -2094 0
-2093 -2095 0
-2093 -2096 0
-2093 -2097 0
-2093 -2098 0
-2093 -2099 0
-2093 -2100 0
-2093 -2101 0
-2093 -2102 0
-2093 -2103 0
-2093 -2104 0
-2093 -2105 0
-2093 -2106 0
-2093 -2107 0
-2093 -2108 0
-2093 -2109 0
-2093 -2110 0
-2093 -2111 0
-2093 -2112 0
-2093 -2113 0
-2093 -2114 0
-2093 -2115 0
-2093 -2116 0
-2093 -2117 0
-2093 -2118 0
-2093 -2119 0
-2093 -2120 0
-2093 -2121 0
-2093 -2122 0
-2093 -2123 0
-2093 -2124 0
-2093 -2125 0
-2093 -2126 0
-2093 -2127 0
-2093 -2128 0
-2093 -2129 0
-2093 -2130 0
-2093 -2131 0
-2093 -2132 0
-2093 -2133 0
-2093 -2134 0
-2093 -2135 0
-2093 -2136 0
-2093 -2137 0
-2093 -2138 0
-2093 -2139 0
-2093 -2140 0
-2094 -2095 0
-2094 -2096 0
-2094 -2097 0
-2094 -2098 0
-2094 -2099 0
-2094 -2100 0
-2094 -2101 0
-2094 -2102 0
-2094 -2103 0
-2094 -2104 0
-2094 -2105 0
-2094 -2106 0
-2094 -2107 0
-2094 -2108 0
-2094 -2109 0
-2094 -2110 0
-2094 -2111 0
-2094 -2112 0
-2094 -2113 0
-2094 -2114 0
-2094 -2115 0
-2094 -2116 0
-2094 -2117 0
-2094 -2118 0
-2094 -2119 0
-2094 -2120 0
-2094 -2121 0
-2094 -2122 0
-2094 -2123 0
-2094 -2124 0
-2094 -2125 0
-2094 -2126 0
-2094 -2127 0
-2094 -2128 0
-2094 -2129 0
-2094 -2130 0
-2094 -2131 0
-2094 -2132 0
-2094 -2133 0
-2094 -2134 0
-2094 -2135 0
-2094 -2136 0
-2094 -2137 0
-2094 -2138 0
-2094 -2139 0
-2094 -2140 0
-2095 -2096 0
-2095 -2097 0
-2095 -2098 0
-2095 -2099 0
-2095 -2100 0
-2095 -2101 0
-2095 -2102 0
-2095 -2103 0
-2095 -2104 0
-2095 -2105 0
-2095 -2106 0
-2095 -2107 0
-2095 -2108 0
-2095 -2109 0
-2095 -2110 0
-2095 -2111 0
-2095 -2112 0
-2095 -2113 0
-2095 -2114 0
-2095 -2115 0
-2095 -2116 0
-2095 -2117 0
-2095 -2118 0
-2095 -2119 0
-2095 -2120 0
-2095 -2121 0
-2095 -2122 0
-2095 -2123 0
-2095 -2124 0
-2095 -2125 0
-2095 -2126 0
-2095 -2127 0
-2095 -2128 0
-2095 -2129 0
-2095 -2130 0
-2095 -2131 0
-2095 -2132 0
-2095 -2133 0
-2095 -2134 0
-2095 -2135 0
-2095 -2136 0
-2095 -2137 0
-2095 -2138 0
-2095 -2139 0
-2095 -2140 0
-2096 -2097 0
-2096 -2098 0
-2096 -2099 0
-2096 -2100 0
-2096 -2101 0
-2096 -2102 0
-2096 -2103 0
-2096 -2104 0
-2096 -2105 0
-2096 -2106 0
-2096 -2107 0
-2096 -2108 0
-2096 -2109 0
-2096 -2110 0
-2096 -2111 0
-2096 -2112 0
-2096 -2113 0
-2096 -2114 0
-2096 -2115 0
-2096 -2116 0
-2096 -2117 0
-2096 -2118 0
-2096 -2119 0
-2096 -2120 0
-2096 -2121 0
-2096 -2122 0
-2096 -2123 0
-2096 -2124 0
-2096 -2125 0
-2096 -2126 0
-2096 -2127 0
-2096 -2128 0
-2096 -2129 0
-2096 -2130 0
-2096 -2131 0
-2096 -2132 0
-2096 -2133 0
-2096 -2134 0
-2096 -2135 0
-2096 -2136 0
-2096 -2137 0
-2096 -2138 0
-2096 -2139 0
-2096 -2140 0
-2097 -2098 0
-2097 -2099 0
-2097 -2100 0
-2097 -2101 0
-2097 -2102 0
-2097 -2103 0
-2097 -2104 0
-2097 -2105 0
-2097 -2106 0
-2097 -2107 0
-2097 -2108 0
-2097 -2109 0
-2097 -2110 0
-2097 -2111 0
-2097 -2112 0
-2097 -2113 0
-2097 -2114 0
-2097 -2115 0
-2097 -2116 0
-2097 -2117 0
-2097 -2118 0
-2097 -2119 0
-2097 -2120 0
-2097 -2121 0
-2097 -2122 0
-2097 -2123 0
-2097 -2124 0
-2097 -2125 0
-2097 -2126 0
-2097 -2127 0
-2097 -2128 0
-2097 -2129 0
-2097 -2130 0
-2097 -2131 0
-2097 -2132 0
-2097 -2133 0
-2097 -2134 0
-2097 -2135 0
-2097 -2136 0
-2097 -2137 0
-2097 -2138 0
-2097 -2139 0
-2097 -2140 0
-2098 -2099 0
-2098 -2100 0
-2098 -2101 0
-2098 -2102 0
-2098 -2103 0
-2098 -2104 0
-2098 -2105 0
-2098 -2106 0
-2098 -2107 0
-2098 -2108 0
-2098 -2109 0
-2098 -2110 0
-2098 -2111 0
-2098 -2112 0
-2098 -2113 0
-2098 -2114 0
-2098 -2115 0
-2098 -2116 0
-2098 -2117 0
-2098 -2118 0
-2098 -2119 0
-2098 -2120 0
-2098 -2121 0
-2098 -2122 0
-2098 -2123 0
-2098 -2124 0
-2098 -2125 0
-2098 -2126 0
-2098 -2127 0
-2098 -2128 0
-2098 -2129 0
-2098 -2130 0
-2098 -2131 0
-2098 -2132 0
-2098 -2133 0
-2098 -2134 0
-2098 -2135 0
-2098 -2136 0
-2098 -2137 0
-2098 -2138 0
-2098 -2139 0
-2098 -2140 0
-2099 -2100 0
-2099 -2101 0
-2099 -2102 0
-2099 -2103 0
-2099 -2104 0
-2099 -2105 0
-2099 -2106 0
-2099 -2107 0
-2099 -2108 0
-2099 -2109 0
-2099 -2110 0
-2099 -2111 0
-2099 -2112 0
-2099 -2113 0
-2099 -2114 0
-2099 -2115 0
-2099 -2116 0
-2099 -2117 0
-2099 -2118 0
-2099 -2119 0
-2099 -2120 0
-2099 -2121 0
-2099 -2122 0
-2099 -2123 0
-2099 -2124 0
-2099 -2125 0
-2099 -2126 0
-2099 -2127 0
-2099 -2128 0
-2099 -2129 0
-2099 -2130 0
-2099 -2131 0
-2099 -2132 0
-2099 -2133 0
-2099 -2134 0
-2099 -2135 0
-2099 -2136 0
-2099 -2137 0
-2099 -2138 0
-2099 -2139 0
-2099 -2140 0
-2100 -2101 0
-2100 -2102 0
-2100 -2103 0
-2100 -2104 0
-2100 -2105 0
-2100 -2106 0
-2100 -2107 0
-2100 -2108 0
-2100 -2109 0
-2100 -2110 0
-2100 -2111 0
-2100 -2112 0
-2100 -2113 0
-2100 -2114 0
-2100 -2115 0
-2100 -2116 0
-2100 -2117 0
-2100 -2118 0
-2100 -2119 0
-2100 -2120 0
-2100 -2121 0
-2100 -2122 0
-2100 -2123 0
-2100 -2124 0
-2100 -2125 0
-2100 -2126 0
-2100 -2127 0
-2100 -2128 0
-2100 -2129 0
-2100 -2130 0
-2100 -2131 0
-2100 -2132 0
-2100 -2133 0
-2100 -2134 0
-2100 -2135 0
-2100 -2136 0
-2100 -2137 0
-2100 -2138 0
-2100 -2139 0
-2100 -2140 0
-2101 -2102 0
-2101 -2103 0
-2101 -2104 0
-2101 -2105 0
-2101 -2106 0
-2101 -2107 0
-2101 -2108 0
-2101 -2109 0
-2101 -2110 0
-2101 -2111 0
-2101 -2112 0
-2101 -2113 0
-2101 -2114 0
-2101 -2115 0
-2101 -2116 0
-2101 -2117 0
-2101 -2118 0
-2101 -2119 0
-2101 -2120 0
-2101 -2121 0
-2101 -2122 0
-2101 -2123 0
-2101 -2124 0
-2101 -2125 0
-2101 -2126 0
-2101 -2127 0
-2101 -2128 0
-2101 -2129 0
-2101 -2130 0
-2101 -2131 0
-2101 -2132 0
-2101 -2133 0
-2101 -2134 0
-2101 -2135 0
-2101 -2136 0
-2101 -2137 0
-2101 -2138 0
-2101 -2139 0
-2101 -2140 0
-2102 -2103 0
-2102 -2104 0
-2102 -2105 0
-2102 -2106 0
-2102 -2107 0
-2102 -2108 0
-2102 -2109 0
-2102 -2110 0
-2102 -2111 0
-2102 -2112 0
-2102 -2113 0
-2102 -2114 0
-2102 -2115 0
-2102 -2116 0
-2102 -2117 0
-2102 -2118 0
-2102 -2119 0
-2102 -2120 0
-2102 -2121 0
-2102 -2122 0
-2102 -2123 0
-2102 -2124 0
-2102 -2125 0
-2102 -2126 0
-2102 -2127 0
-2102 -2128 0
-2102 -2129 0
-2102 -2130 0
-2102 -2131 0
-2102 -2132 0
-2102 -2133 0
-2102 -2134 0
-2102 -2135 0
-2102 -2136 0
-2102 -2137 0
-2102 -2138 0
-2102 -2139 0
-2102 -2140 0
-2103 -2104 0
-2103 -2105 0
-2103 -2106 0
-2103 -2107 0
-2103 -2108 0
-2103 -2109 0
-2103 -2110 0
-2103 -2111 0
-2103 -2112 0
-2103 -2113 0
-2103 -2114 0
-2103 -2115 0
-2103 -2116 0
-2103 -2117 0
-2103 -2118 0
-2103 -2119 0
-2103 -2120 0
-2103 -2121 0
-2103 -2122 0
-2103 -2123 0
-2103 -2124 0
-2103 -2125 0
-2103 -2126 0
-2103 -2127 0
-2103 -2128 0
-2103 -2129 0
-2103 -2130 0
-2103 -2131 0
-2103 -2132 0
-2103 -2133 0
-2103 -2134 0
-2103 -2135 0
-2103 -2136 0
-2103 -2137 0
-2103 -2138 0
-2103 -2139 0
-2103 -2140 0
-2104 -2105 0
-2104 -2106 0
-2104 -2107 0
-2104 -2108 0
-2104 -2109 0
-2104 -2110 0
-2104 -2111 0
-2104 -2112 0
-2104 -2113 0
-2104 -2114 0
-2104 -2115 0
-2104 -2116 0
-2104 -2117 0
-2104 -2118 0
-2104 -2119 0
-2104 -2120 0
-2104 -2121 0
-2104 -2122 0
-2104 -2123 0
-2104 -2124 0
-2104 -2125 0
-2104 -2126 0
-2104 -2127 0
-2104 -2128 0
-2104 -2129 0
-2104 -2130 0
-2104 -2131 0
-2104 -2132 0
-2104 -2133 0
-2104 -2134 0
-2104 -2135 0
-2104 -2136 0
-2104 -2137 0
-2104 -2138 0
-2104 -2139 0
-2104 -2140 0
-2105 -2106 0
-2105 -2107 0
-2105 -2108 0
-2105 -2109 0
-2105 -2110 0
-2105 -2111 0
-2105 -2112 0
-2105 -2113 0
-2105 -2114 0
-2105 -2115 0
-2105 -2116 0
-2105 -2117 0
-2105 -2118 0
-2105 -2119 0
-2105 -2120 0
-2105 -2121 0
-2105 -2122 0
-2105 -2123 0
-2105 -2124 0
-2105 -2125 0
-2105 -2126 0
-2105 -2127 0
-2105 -2128 0
-2105 -2129 0
-2105 -2130 0
-2105 -2131 0
-2105 -2132 0
-2105 -2133 0
-2105 -2134 0
-2105 -2135 0
-2105 -2136 0
-2105 -2137 0
-2105 -2138 0
-2105 -2139 0
-2105 -2140 0
-2106 -2107 0
-2106 -2108 0
-2106 -2109 0
-2106 -2110 0
-2106 -2111 0
-2106 -2112 0
-2106 -2113 0
-2106 -2114 0
-2106 -2115 0
-2106 -2116 0
-2106 -2117 0
-2106 -2118 0
-2106 -2119 0
-2106 -2120 0
-2106 -2121 0
-2106 -2122 0
-2106 -2123 0
-2106 -2124 0
-2106 -2125 0
-2106 -2126 0
-2106 -2127 0
-2106 -2128 0
-2106 -2129 0
-2106 -2130 0
-2106 -2131 0
-2106 -2132 0
-2106 -2133 0
-2106 -2134 0
-2106 -2135 0
-2106 -2136 0
-2106 -2137 0
-2106 -2138 0
-2106 -2139 0
-2106 -2140 0
-2107 -2108 0
-2107 -2109 0
-2107 -2110 0
-2107 -2111 0
-2107 -2112 0
-2107 -2113 0
-2107 -2114 0
-2107 -2115 0
-2107 -2116 0
-2107 -2117 0
-2107 -2118 0
-2107 -2119 0
-2107 -2120 0
-2107 -2121 0
-2107 -2122 0
-2107 -2123 0
-2107 -2124 0
-2107 -2125 0
-2107 -2126 0
-2107 -2127 0
-2107 -2128 0
-2107 -2129 0
-2107 -2130 0
-2107 -2131 0
-2107 -2132 0
-2107 -2133 0
-2107 -2134 0
-2107 -2135 0
-2107 -2136 0
-2107 -2137 0
-2107 -2138 0
-2107 -2139 0
-2107 -2140 0
-2108 -2109 0
-2108 -2110 0
-2108 -2111 0
-2108 -2112 0
-2108 -2113 0
-2108 -2114 0
-2108 -2115 0
-2108 -2116 0
-2108 -2117 0
-2108 -2118 0
-2108 -2119 0
-2108 -2120 0
-2108 -2121 0
-2108 -2122 0
-2108 -2123 0
-2108 -2124 0
-2108 -2125 0
-2108 -2126 0
-2108 -2127 0
-2108 -2128 0
-2108 -2129 0
-2108 -2130 0
-2108 -2131 0
-2108 -2132 0
-2108 -2133 0
-2108 -2134 0
-2108 -2135 0
-2108 -2136 0
-2108 -2137 0
-2108 -2138 0
-2108 -2139 0
-2108 -2140 0
-2109 -2110 0
-2109 -2111 0
-2109 -2112 0
-2109 -2113 0
-2109 -2114 0
-2109 -2115 0
-2109 -2116 0
-2109 -2117 0
-2109 -2118 0
-2109 -2119 0
-2109 -2120 0
-2109 -2121 0
-2109 -2122 0
-2109 -2123 0
-2109 -2124 0
-2109 -2125 0
-2109 -2126 0
-2109 -2127 0
-2109 -2128 0
-2109 -2129 0
-2109 -2130 0
-2109 -2131 0
-2109 -2132 0
-2109 -2133 0
-2109 -2134 0
-2109 -2135 0
-2109 -2136 0
-2109 -2137 0
-2109 -2138 0
-2109 -2139 0
-2109 -2140 0
-2110 -2111 0
-2110 -2112 0
-2110 -2113 0
-2110 -2114 0
-2110 -2115 0
-2110 -2116 0
-2110 -2117 0
-2110 -2118 0
-2110 -2119 0
-2110 -2120 0
-2110 -2121 0
-2110 -2122 0
-2110 -2123 0
-2110 -2124 0
-2110 -2125 0
-2110 -2126 0
-2110 -2127 0
-2110 -2128 0
-2110 -2129 0
-2110 -2130 0
-2110 -2131 0
-2110 -2132 0
-2110 -2133 0
-2110 -2134 0
-2110 -2135 0
-2110 -2136 0
-2110 -2137 0
-2110 -2138 0
-2110 -2139 0
-2110 -2140 0
-2111 -2112 0
-2111 -2113 0
-2111 -2114 0
-2111 -2115 0
-2111 -2116 0
-2111 -2117 0
-2111 -2118 0
-2111 -2119 0
-2111 -2120 0
-2111 -2121 0
-2111 -2122 0
-2111 -2123 0
-2111 -2124 0
-2111 -2125 0
-2111 -2126 0
-2111 -2127 0
-2111 -2128 0
-2111 -2129 0
-2111 -2130 0
-2111 -2131 0
-2111 -2132 0
-2111 -2133 0
-2111 -2134 0
-2111 -2135 0
-2111 -2136 0
-2111 -2137 0
-2111 -2138 0
-2111 -2139 0
-2111 -2140 0
-2112 -2113 0
-2112 -2114 0
-2112 -2115 0
-2112 -2116 0
-2112 -2117 0
-2112 -2118 0
-2112 -2119 0
-2112 -2120 0
-2112 -2121 0
-2112 -2122 0
-2112 -2123 0
-2112 -2124 0
-2112 -2125 0
-2112 -2126 0
-2112 -2127 0
-2112 -2128 0
-2112 -2129 0
-2112 -2130 0
-2112 -2131 0
-2112 -2132 0
-2112 -2133 0
-2112 -2134 0
-2112 -2135 0
-2112 -2136 0
-2112 -2137 0
-2112 -2138 0
-2112 -2139 0
-2112 -2140 0
-2113 -2114 0
-2113 -2115 0
-2113 -2116 0
-2113 -2117 0
-2113 -2118 0
-2113 -2119 0
-2113 -2120 0
-2113 -2121 0
-2113 -2122 0
-2113 -2123 0
-2113 -2124 0
-2113 -2125 0
-2113 -2126 0
-2113 -2127 0
-2113 -2128 0
-2113 -2129 0
-2113 -2130 0
-2113 -2131 0
-2113 -2132 0
-2113 -2133 0
-2113 -2134 0
-2113 -2135 0
-2113 -2136 0
-2113 -2137 0
-2113 -2138 0
-2113 -2139 0
-2113 -2140 0
-2114 -2115 0
-2114 -2116 0
-2114 -2117 0
-2114 -2118 0
-2114 -2119 0
-2114 -2120 0
-2114 -2121 0
-2114 -2122 0
-2114 -2123 0
-2114 -2124 0
-2114 -2125 0
-2114 -2126 0
-2114 -2127 0
-2114 -2128 0
-2114 -2129 0
-2114 -2130 0
-2114 -2131 0
-2114 -2132 0
-2114 -2133 0
-2114 -2134 0
-2114 -2135 0
-2114 -2136 0
-2114 -2137 0
-2114 -2138 0
-2114 -2139 0
-2114 -2140 0
-2115 -2116 0
-2115 -2117 0
-2115 -2118 0
-2115 -2119 0
-2115 -2120 0
-2115 -2121 0
-2115 -2122 0
-2115 -2123 0
-2115 -2124 0
-2115 -2125 0
-2115 -2126 0
-2115 -2127 0
-2115 -2128 0
-2115 -2129 0
-2115 -2130 0
-2115 -2131 0
-2115 -2132 0
-2115 -2133 0
-2115 -2134 0
-2115 -2135 0
-2115 -2136 0
-2115 -2137 0
-2115 -2138 0
-2115 -2139 0
-2115 -2140 0
-2116 -2117 0
-2116 -2118 0
-2116 -2119 0
-2116 -2120 0
-2116 -2121 0
-2116 -2122 0
-2116 -2123 0
-2116 -2124 0
-2116 -2125 0
-2116 -2126 0
-2116 -2127 0
-2116 -2128 0
-2116 -2129 0
-2116 -2130 0
-2116 -2131 0
-2116 -2132 0
-2116 -2133 0
-2116 -2134 0
-2116 -2135 0
-2116 -2136 0
-2116 -2137 0
-2116 -2138 0
-2116 -2139 0
-2116 -2140 0
-2117 -2118 0
-2117 -2119 0
-2117 -2120 0
-2117 -2121 0
-2117 -2122 0
-2117 -2123 0
-2117 -2124 0
-2117 -2125 0
-2117 -2126 0
-2117 -2127 0
-2117 -2128 0
-2117 -2129 0
-2117 -2130 0
-2117 -2131 0
-2117 -2132 0
-2117 -2133 0
-2117 -2134 0
-2117 -2135 0
-2117 -2136 0
-2117 -2137 0
-2117 -2138 0
-2117 -2139 0
-2117 -2140 0
-2118 -2119 0
-2118 -2120 0
-2118 -2121 0
-2118 -2122 0
-2118 -2123 0
-2118 -2124 0
-2118 -2125 0
-2118 -2126 0
-2118 -2127 0
-2118 -2128 0
-2118 -2129 0
-2118 -2130 0
-2118 -2131 0
-2118 -2132 0
-2118 -2133 0
-2118 -2134 0
-2118 -2135 0
-2118 -2136 0
-2118 -2137 0
-2118 -2138 0
-2118 -2139 0
-2118 -2140 0
-2119 -2120 0
-2119 -2121 0
-2119 -2122 0
-2119 -2123 0
-2119 -2124 0
-2119 -2125 0
-2119 -2126 0
-2119 -2127 0
-2119 -2128 0
-2119 -2129 0
-2119 -2130 0
-2119 -2131 0
-2119 -2132 0
-2119 -2133 0
-2119 -2134 0
-2119 -2135 0
-2119 -2136 0
-2119 -2137 0
-2119 -2138 0
-2119 -2139 0
-2119 -2140 0
-2120 -2121 0
-2120 -2122 0
-2120 -2123 0
-2120 -2124 0
-2120 -2125 0
-2120 -2126 0
-2120 -2127 0
-2120 -2128 0
-2120 -2129 0
-2120 -2130 0
-2120 -2131 0
-2120 -2132 0
-2120 -2133 0
-2120 -2134 0
-2120 -2135 0
-2120 -2136 0
-2120 -2137 0
-2120 -2138 0
-2120 -2139 0
-2120 -2140 0
-2121 -2122 0
-2121 -2123 0
-2121 -2124 0
-2121 -2125 0
-2121 -2126 0
-2121 -2127 0
-2121 -2128 0
-2121 -2129 0
-2121 -2130 0
-2121 -2131 0
-2121 -2132 0
-2121 -2133 0
-2121 -2134 0
-2121 -2135 0
-2121 -2136 0
-2121 -2137 0
-2121 -2138 0
-2121 -2139 0
-2121 -2140 0
-2122 -2123 0
-2122 -2124 0
-2122 -2125 0
-2122 -2126 0
-2122 -2127 0
-2122 -2128 0
-2122 -2129 0
-2122 -2130 0
-2122 -2131 0
-2122 -2132 0
-2122 -2133 0
-2122 -2134 0
-2122 -2135 0
-2122 -2136 0
-2122 -2137 0
-2122 -2138 0
-2122 -2139 0
-2122 -2140 0
-2123 -2124 0
-2123 -2125 0
-2123 -2126 0
-2123 -2127 0
-2123 -2128 0
-2123 -2129 0
-2123 -2130 0
-2123 -2131 0
-2123 -2132 0
-2123 -2133 0
-2123 -2134 0
-2123 -2135 0
-2123 -2136 0
-2123 -2137 0
-2123 -2138 0
-2123 -2139 0
-2123 -2140 0
-2124 -2125 0
-2124 -2126 0
-2124 -2127 0
-2124 -2128 0
-2124 -2129 0
-2124 -2130 0
-2124 -2131 0
-2124 -2132 0
-2124 -2133 0
-2124 -2134 0
-2124 -2135 0
-2124 -2136 0
-2124 -2137 0
-2124 -2138 0
-2124 -2139 0
-2124 -2140 0
-2125 -2126 0
-2125 -2127 0
-2125 -2128 0
-2125 -2129 0
-2125 -2130 0
-2125 -2131 0
-2125 -2132 0
-2125 -2133 0
-2125 -2134 0
-2125 -2135 0
-2125 -2136 0
-2125 -2137 0
-2125 -2138 0
-2125 -2139 0
-2125 -2140 0
-2126 -2127 0
-2126 -2128 0
-2126 -2129 0
-2126 -2130 0
-2126 -2131 0
-2126 -2132 0
-2126 -2133 0
-2126 -2134 0
-2126 -2135 0
-2126 -2136 0
-2126 -2137 0
-2126 -2138 0
-2126 -2139 0
-2126 -2140 0
-2127 -2128 0
-2127 -2129 0
-2127 -2130 0
-2127 -2131 0
-2127 -2132 0
-2127 -2133 0
-2127 -2134 0
-2127 -2135 0
-2127 -2136 0
-2127 -2137 0
-2127 -2138 0
-2127 -2139 0
-2127 -2140 0
-2128 -2129 0
-2128 -2130 0
-2128 -2131 0
-2128 -2132 0
-2128 -2133 0
-2128 -2134 0
-2128 -2135 0
-2128 -2136 0
-2128 -2137 0
-2128 -2138 0
-2128 -2139 0
-2128 -2140 0
-2129 -2130 0
-2129 -2131 0
-2129 -2132 0
-2129 -2133 0
-2129 -2134 0
-2129 -2135 0
-2129 -2136 0
-2129 -2137 0
-2129 -2138 0
-2129 -2139 0
-2129 -2140 0
-2130 -2131 0
-2130 -2132 0
-2130 -2133 0
-2130 -2134 0
-2130 -2135 0
-2130 -2136 0
-2130 -2137 0
-2130 -2138 0
-2130 -2139 0
-2130 -2140 0
-2131 -2132 0
-2131 -2133 0
-2131 -2134 0
-2131 -2135 0
-2131 -2136 0
-2131 -2137 0
-2131 -2138 0
-2131 -2139 0
-2131 -2140 0
-2132 -2133 0
-2132 -2134 0
-2132 -2135 0
-2132 -2136 0
-2132 -2137 0
-2132 -2138 0
-2132 -2139 0
-2132 -2140 0
-2133 -2134 0
-2133 -2135 0
-2133 -2136 0
-2133 -2137 0
-2133 -2138 0
-2133 -2139 0
-2133 -2140 0
-2134 -2135 0
-2134 -2136 0
-2134 -2137 0
-2134 -2138 0
-2134 -2139 0
-2134 -2140 0
-2135 -2136 0
-2135 -2137 0
-2135 -2138 0
-2135 -2139 0
-2135 -2140 0
-2136 -2137 0
-2136 -2138 0
-2136 -2139 0
-2136 -2140 0
-2137 -2138 0
-2137 -2139 0
-2137 -2140 0
-2138 -2139 0
-2138 -2140 0
-2139 -2140 0
-2057 11 0
-2057 258 0
-2057 -61 0
-2057 -62 0
-2057 -63 0
-2057 -64 0
-2057 -65 0
-2057 -66 265 0
-2057 -66 -1 -8 0
-2057 -66 -73 0
-2057 -66 -131 0
-2057 -66 -188 0
-2057 -67 266 0
-2057 -67 -1 -9 0
-2057 -67 -75 0
-2057 -67 -133 0
-2057 -67 -190 0
-2057 -68 267 0
-2057 -68 -1 -10 0
-2057 -68 -77 0
-2057 -68 -135 0
-2057 -68 -192 0
-2057 -69 0
-2058 11 0
-2058 259 0
-2058 -60 0
-2058 -62 0
-2058 -63 0
-2058 -64 0
-2058 -65 0
-2058 -66 265 0
-2058 -66 -2 -8 0
-2058 -66 -81 0
-2058 -66 -139 0
-2058 -66 -196 0
-2058 -67 266 0
-2058 -67 -2 -9 0
-2058 -67 -83 0
-2058 -67 -141 0
-2058 -67 -198 0
-2058 -68 267 0
-2058 -68 -2 -10 0
-2058 -68 -85 0
-2058 -68 -143 0
-2058 -68 -200 0
-2058 -69 0
-2059 11 0
-2059 260 0
-2059 -60 0
-2059 -61 0
-2059 -63 0
-2059 -64 0
-2059 -65 0
-2059 -66 265 0
-2059 -66 -3 -8 0
-2059 -66 -89 0
-2059 -66 -147 0
-2059 -66 -204 0
-2059 -67 266 0
-2059 -67 -3 -9 0
-2059 -67 -91 0
-2059 -67 -149 0
-2059 -67 -206 0
-2059 -68 267 0
-2059 -68 -3 -10 0
-2059 -68 -93 0
-2059 -68 -151 0
-2059 -68 -208 0
-2059 -69 0
-2060 11 0
-2060 261 0
-2060 -60 0
-2060 -61 0
-2060 -62 0
-2060 -64 0
-2060 -65 0
-2060 -66 265 0
-2060 -66 -4 -8 0
-2060 -66 -97 0
-2060 -66 -155 0
-2060 -66 -212 0
-2060 -67 266 0
-2060 -67 -4 -9 0
-2060 -67 -99 0
-2060 -67 -157 0
-2060 -67 -214 0
-2060 -68 267 0
-2060 -68 -4 -10 0
-2060 -68 -101 0
-2060 -68 -159 0
-2060 -68 -216 0
-2060 -69 0
-2061 11 0
-2061 262 0
-2061 -60 0
-2061 -61 0
-2061 -62 0
-2061 -63 0
-2061 -65 0
-2061 -66 265 0
-2061 -66 -5 -8 0
-2061 -66 -105 0
-2061 -66 -163 0
-2061 -66 -220 0
-2061 -67 266 0
-2061 -67 -5 -9 0
-2061 -67 -107 0
-2061 -67 -165 0
-2061 -67 -222 0
-2061 -68 267 0
-2061 -68 -5 -10 0
-2061 -68 -109 0
-2061 -68 -167 0
-2061 -68 -224 0
-2061 -69 0
-2062 11 0
-2062 263 0
-2062 -60 0
-2062 -61 0
-2062 -62 0
-2062 -63 0
-2062 -64 0
-2062 -66 265 0
-2062 -66 -6 -8 0
-2062 -66 -113 0
-2062 -66 -171 0
-2062 -66 -228 0
-2062 -67 266 0
-2062 -67 -6 -9 0
-2062 -67 -115 0
-2062 -67 -173 0
-2062 -67 -230 0
-2062 -68 267 0
-2062 -68 -6 -10 0
-2062 -68 -117 0
-2062 -68 -175 0
-2062 -68 -232 0
-2062 -69 0
-2063 11 0
-2063 258 0
-2063 -120 0
-2063 -121 0
-2063 -122 0
-2063 -123 0
-2063 -124 265 0
-2063 -124 -1 -8 0
-2063 -124 -73 0
-2063 -124 -131 0
-2063 -124 -188 0
-2063 -125 266 0
-2063 -125 -1 -9 0
-2063 -125 -75 0
-2063 -125 -133 0
-2063 -125 -190 0
-2063 -126 267 0
-2063 -126 -1 -10 0
-2063 -126 -77 0
-2063 -126 -135 0
-2063 -126 -192 0
-2063 -127 0
-2064 11 0
-2064 259 0
-2064 -121 0
-2064 -122 0
-2064 -123 0
-2064 -124 265 0
-2064 -124 -2 -8 0
-2064 -124 -81 0
-2064 -124 -139 0
-2064 -124 -196 0
-2064 -125 266 0
-2064 -125 -2 -9 0
-2064 -125 -83 0
-2064 -125 -141 0
-2064 -125 -198 0
-2064 -126 267 0
-2064 -126 -2 -10 0
-2064 -126 -85 0
-2064 -126 -143 0
-2064 -126 -200 0
-2064 -127 0
-2065 11 0
-2065 260 0
-2065 -119 0
-2065 -122 0
-2065 -123 0
-2065 -124 265 0
-2065 -124 -3 -8 0
-2065 -124 -89 0
-2065 -124 -147 0
-2065 -124 -204 0
-2065 -125 266 0
-2065 -125 -3 -9 0
-2065 -125 -91 0
-2065 -125 -149 0
-2065 -125 -206 0
-2065 -126 267 0
-2065 -126 -3 -10 0
-2065 -126 -93 0
-2065 -126 -151 0
-2065 -126 -208 0
-2065 -127 0
-2066 11 0
-2066 261 0
-2066 -119 0
-2066 -120 0
-2066 -123 0
-2066 -124 265 0
-2066 -124 -4 -8 0
-2066 -124 -97 0
-2066 -124 -155 0
-2066 -124 -212 0
-2066 -125 266 0
-2066 -125 -4 -9 0
-2066 -125 -99 0
-2066 -125 -157 0
-2066 -125 -214 0
-2066 -126 267 0
-2066 -126 -4 -10 0
-2066 -126 -101 0
-2066 -126 -159 0
-2066 -126 -216 0
-2066 -127 0
-2067 11 0
-2067 262 0
-2067 -119 0
-2067 -120 0
-2067 -121 0
-2067 -124 265 0
-2067 -124 -5 -8 0
-2067 -124 -105 0
-2067 -124 -163 0
-2067 -124 -220 0
-2067 -125 266 0
-2067 -125 -5 -9 0
-2067 -125 -107 0
-2067 -125 -165 0
-2067 -125 -222 0
-2067 -126 267 0
-2067 -126 -5 -10 0
-2067 -126 -109 0
-2067 -126 -167 0
-2067 -126 -224 0
-2067 -127 0
-2068 11 0
-2068 263 0
-2068 -119 0
-2068 -120 0
-2068 -121 0
-2068 -122 0
-2068 -124 265 0
-2068 -124 -6 -8 0
-2068 -124 -113 0
-2068 -124 -171 0
-2068 -124 -228 0
-2068 -125 266 0
-2068 -125 -6 -9 0
-2068 -125 -115 0
-2068 -125 -173 0
-2068 -125 -230 0
-2068 -126 267 0
-2068 -126 -6 -10 0
-2068 -126 -117 0
-2068 -126 -175 0
-2068 -126 -232 0
-2068 -127 0
-2069 11 0
-2069 258 0
-2069 -178 0
-2069 -179 0
-2069 -180 0
-2069 -181 265 0
-2069 -181 -1 -8 0
-2069 -181 -73 0
-2069 -181 -131 0
-2069 -181 -188 0
-2069 -182 266 0
-2069 -182 -1 -9 0
-2069 -182 -75 0
-2069 -182 -133 0
-2069 -182 -190 0
-2069 -183 267 0
-2069 -183 -1 -10 0
-2069 -183 -77 0
-2069 -183 -135 0
-2069 -183 -192 0
-2069 -184 0
-2070 11 0
-2070 259 0
-2070 -179 0
-2070 -180 0
-2070 -181 265 0
-2070 -181 -2 -8 0
-2070 -181 -81 0
-2070 -181 -139 0
-2070 -181 -196 0
-2070 -182 266 0
-2070 -182 -2 -9 0
-2070 -182 -83 0
-2070 -182 -141 0
-2070 -182 -198 0
-2070 -183 267 0
-2070 -183 -2 -10 0
-2070 -183 -85 0
-2070 -183 -143 0
-2070 -183 -200 0
-2070 -184 0
-2071 11 0
-2071 260 0
-2071 -180 0
-2071 -181 265 0
-2071 -181 -3 -8 0
-2071 -181 -89 0
-2071 -181 -147 0
-2071 -181 -204 0
-2071 -182 266 0
-2071 -182 -3 -9 0
-2071 -182 -91 0
-2071 -182 -149 0
-2071 -182 -206 0
-2071 -183 267 0
-2071 -183 -3 -10 0
-2071 -183 -93 0
-2071 -183 -151 0
-2071 -183 -208 0
-2071 -184 0
-2072 11 0
-2072 261 0
-2072 -177 0
-2072 -181 265 0
-2072 -181 -4 -8 0
-2072 -181 -97 0
-2072 -181 -155 0
-2072 -181 -212 0
-2072 -182 266 0
-2072 -182 -4 -9 0
-2072 -182 -99 0
-2072 -182 -157 0
-2072 -182 -214 0
-2072 -183 267 0
-2072 -183 -4 -10 0
-2072 -183 -101 0
-2072 -183 -159 0
-2072 -183 -216 0
-2072 -184 0
-2073 11 0
-2073 262 0
-2073 -177 0
-2073 -178 0
-2073 -181 265 0
-2073 -181 -5 -8 0
-2073 -181 -105 0
-2073 -181 -163 0
-2073 -181 -220 0
-2073 -182 266 0
-2073 -182 -5 -9 0
-2073 -182 -107 0
-2073 -182 -165 0
-2073 -182 -222 0
-2073 -183 267 0
-2073 -183 -5 -10 0
-2073 -183 -109 0
-2073 -183 -167 0
-2073 -183 -224 0
-2073 -184 0
-2074 11 0
-2074 263 0
-2074 -177 0
-2074 -178 0
-2074 -179 0
-2074 -181 265 0
-2074 -181 -6 -8 0
-2074 -181 -113 0
-2074 -181 -171 0
-2074 -181 -228 0
-2074 -182 266 0
-2074 -182 -6 -9 0
-2074 -182 -115 0
-2074 -182 -173 0
-2074 -182 -230 0
-2074 -183 267 0
-2074 -183 -6 -10 0
-2074 -183 -117 0
-2074 -183 -175 0
-2074 -183 -232 0
-2074 -184 0
-2075 11 0
-2075 258 0
-2075 264 0
-2075 -1 -7 0
-2075 -71 0
-2075 -129 0
-2075 -186 0
-2076 11 0
-2076 259 0
-2076 264 0
-2076 -2 -7 0
-2076 -79 0
-2076 -137 0
-2076 -194 0
-2077 11 0
-2077 260 0
-2077 264 0
-2077 -3 -7 0
-2077 -87 0
-2077 -145 0
-2077 -202 0
-2078 11 0
-2078 261 0
-2078 264 0
-2078 -4 -7 0
-2078 -95 0
-2078 -153 0
-2078 -210 0
-2079 11 0
-2079 262 0
-2079 264 0
-2079 -5 -7 0
-2079 -103 0
-2079 -161 0
-2079 -218 0
-2080 11 0
-2080 263 0
-2080 264 0
-2080 -6 -7 0
-2080 -111 0
-2080 -169 0
-2080 -226 0
-2081 70 0
-2081 317 0
-2081 -2 0
-2081 -3 0
-2081 -4 0
-2081 -5 0
-2081 -6 0
-2081 -7 324 0
-2081 -7 -60 -67 0
-2081 -7 -14 0
-2081 -7 -131 0
-2081 -7 -188 0
-2081 -8 325 0
-2081 -8 -60 -68 0
-2081 -8 -16 0
-2081 -8 -133 0
-2081 -8 -190 0
-2081 -9 326 0
-2081 -9 -60 -69 0
-2081 -9 -18 0
-2081 -9 -135 0
-2081 -9 -192 0
-2081 -10 0
-2082 70 0
-2082 318 0
-2082 -1 0
-2082 -3 0
-2082 -4 0
-2082 -5 0
-2082 -6 0
-2082 -7 324 0
-2082 -7 -61 -67 0
-2082 -7 -22 0
-2082 -7 -139 0
-2082 -7 -196 0
-2082 -8 325 0
-2082 -8 -61 -68 0
-2082 -8 -24 0
-2082 -8 -141 0
-2082 -8 -198 0
-2082 -9 326 0
-2082 -9 -61 -69 0
-2082 -9 -26 0
-2082 -9 -143 0
-2082 -9 -200 0
-2082 -10 0
-2083 70 0
-2083 319 0
-2083 -1 0
-2083 -2 0
-2083 -4 0
-2083 -5 0
-2083 -6 0
-2083 -7 324 0
-2083 -7 -62 -67 0
-2083 -7 -30 0
-2083 -7 -147 0
-2083 -7 -204 0
-2083 -8 325 0
-2083 -8 -62 -68 0
-2083 -8 -32 0
-2083 -8 -149 0
-2083 -8 -206 0
-2083 -9 326 0
-2083 -9 -62 -69 0
-2083 -9 -34 0
-2083 -9 -151 0
-2083 -9 -208 0
-2083 -10 0
-2084 70 0
-2084 320 0
-2084 -1 0
-2084 -2 0
-2084 -3 0
-2084 -5 0
-2084 -6 0
-2084 -7 324 0
-2084 -7 -63 -67 0
-2084 -7 -38 0
-2084 -7 -155 0
-2084 -7 -212 0
-2084 -8 325 0
-2084 -8 -63 -68 0
-2084 -8 -40 0
-2084 -8 -157 0
-2084 -8 -214 0
-2084 -9 326 0
-2084 -9 -63 -69 0
-2084 -9 -42 0
-2084 -9 -159 0
-2084 -9 -216 0
-2084 -10 0
-2085 70 0
-2085 321 0
-2085 -1 0
-2085 -2 0
-2085 -3 0
-2085 -4 0
-2085 -6 0
-2085 -7 324 0
-2085 -7 -64 -67 0
-2085 -7 -46 0
-2085 -7 -163 0
-2085 -7 -220 0
-2085 -8 325 0
-2085 -8 -64 -68 0
-2085 -8 -48 0
-2085 -8 -165 0
-2085 -8 -222 0
-2085 -9 326 0
-2085 -9 -64 -69 0
-2085 -9 -50 0
-2085 -9 -167 0
-2085 -9 -224 0
-2085 -10 0
-2086 70 0
-2086 322 0
-2086 -1 0
-2086 -2 0
-2086 -3 0
-2086 -4 0
-2086 -5 0
-2086 -7 324 0
-2086 -7 -65 -67 0
-2086 -7 -54 0
-2086 -7 -171 0
-2086 -7 -228 0
-2086 -8 325 0
-2086 -8 -65 -68 0
-2086 -8 -56 0
-2086 -8 -173 0
-2086 -8 -230 0
-2086 -9 326 0
-2086 -9 -65 -69 0
-2086 -9 -58 0
-2086 -9 -175 0
-2086 -9 -232 0
-2086 -10 0
-2087 70 0
-2087 317 0
-2087 -120 0
-2087 -121 0
-2087 -122 0
-2087 -123 0
-2087 -124 324 0
-2087 -124 -60 -67 0
-2087 -124 -14 0
-2087 -124 -131 0
-2087 -124 -188 0
-2087 -125 325 0
-2087 -125 -60 -68 0
-2087 -125 -16 0
-2087 -125 -133 0
-2087 -125 -190 0
-2087 -126 326 0
-2087 -126 -60 -69 0
-2087 -126 -18 0
-2087 -126 -135 0
-2087 -126 -192 0
-2087 -127 0
-2088 70 0
-2088 318 0
-2088 -121 0
-2088 -122 0
-2088 -123 0
-2088 -124 324 0
-2088 -124 -61 -67 0
-2088 -124 -22 0
-2088 -124 -139 0
-2088 -124 -196 0
-2088 -125 325 0
-2088 -125 -61 -68 0
-2088 -125 -24 0
-2088 -125 -141 0
-2088 -125 -198 0
-2088 -126 326 0
-2088 -126 -61 -69 0
-2088 -126 -26 0
-2088 -126 -143 0
-2088 -126 -200 0
-2088 -127 0
-2089 70 0
-2089 319 0
-2089 -119 0
-2089 -122 0
-2089 -123 0
-2089 -124 324 0
-2089 -124 -62 -67 0
-2089 -124 -30 0
-2089 -124 -147 0
-2089 -124 -204 0
-2089 -125 325 0
-2089 -125 -62 -68 0
-2089 -125 -32 0
-2089 -125 -149 0
-2089 -125 -206 0
-2089 -126 326 0
-2089 -126 -62 -69 0
-2089 -126 -34 0
-2089 -126 -151 0
-2089 -126 -208 0
-2089 -127 0
-2090 70 0
-2090 320 0
-2090 -119 0
-2090 -120 0
-2090 -123 0
-2090 -124 324 0
-2090 -124 -63 -67 0
-2090 -124 -38 0
-2090 -124 -155 0
-2090 -124 -212 0
-2090 -125 325 0
-2090 -125 -63 -68 0
-2090 -125 -40 0
-2090 -125 -157 0
-2090 -125 -214 0
-2090 -126 326 0
-2090 -126 -63 -69 0
-2090 -126 -42 0
-2090 -126 -159 0
-2090 -126 -216 0
-2090 -127 0
-2091 70 0
-2091 321 0
-2091 -119 0
-2091 -120 0
-2091 -121 0
-2091 -124 324 0
-2091 -124 -64 -67 0
-2091 -124 -46 0
-2091 -124 -163 0
-2091 -124 -220 0
-2091 -125 325 0
-2091 -125 -64 -68 0
-2091 -125 -48 0
-2091 -125 -165 0
-2091 -125 -222 0
-2091 -126 326 0
-2091 -126 -64 -69 0
-2091 -126 -50 0
-2091 -126 -167 0
-2091 -126 -224 0
-2091 -127 0
-2092 70 0
-2092 322 0
-2092 -119 0
-2092 -120 0
-2092 -121 0
-2092 -122 0
-2092 -124 324 0
-2092 -124 -65 -67 0
-2092 -124 -54 0
-2092 -124 -171 0
-2092 -124 -228 0
-2092 -125 325 0
-2092 -125 -65 -68 0
-2092 -125 -56 0
-2092 -125 -173 0
-2092 -125 -230 0
-2092 -126 326 0
-2092 -126 -65 -69 0
-2092 -126 -58 0
-2092 -126 -175 0
-2092 -126 -232 0
-2092 -127 0
-2093 70 0
-2093 317 0
-2093 -178 0
-2093 -179 0
-2093 -180 0
-2093 -181 324 0
-2093 -181 -60 -67 0
-2093 -181 -14 0
-2093 -181 -131 0
-2093 -181 -188 0
-2093 -182 325 0
-2093 -182 -60 -68 0
-2093 -182 -16 0
-2093 -182 -133 0
-2093 -182 -190 0
-2093 -183 326 0
-2093 -183 -60 -69 0
-2093 -183 -18 0
-2093 -183 -135 0
-2093 -183 -192 0
-2093 -184 0
-2094 70 0
-2094 318 0
-2094 -179 0
-2094 -180 0
-2094 -181 324 0
-2094 -181 -61 -67 0
-2094 -181 -22 0
-2094 -181 -139 0
-2094 -181 -196 0
-2094 -182 325 0
-2094 -182 -61 -68 0
-2094 -182 -24 0
-2094 -182 -141 0
-2094 -182 -198 0
-2094 -183 326 0
-2094 -183 -61 -69 0
-2094 -183 -26 0
-2094 -183 -143 0
-2094 -183 -200 0
-2094 -184 0
-2095 70 0
-2095 319 0
-2095 -180 0
-2095 -181 324 0
-2095 -181 -62 -67 0
-2095 -181 -30 0
-2095 -181 -147 0
-2095 -181 -204 0
-2095 -182 325 0
-2095 -182 -62 -68 0
-2095 -182 -32 0
-2095 -182 -149 0
-2095 -182 -206 0
-2095 -183 326 0
-2095 -183 -62 -69 0
-2095 -183 -34 0
-2095 -183 -151 0
-2095 -183 -208 0
-2095 -184 0
-2096 70 0
-2096 320 0
-2096 -177 0
-2096 -181 324 0
-2096 -181 -63 -67 0
-2096 -181 -38 0
-2096 -181 -155 0
-2096 -181 -212 0
-2096 -182 325 0
-2096 -182 -63 -68 0
-2096 -182 -40 0
-2096 -182 -157 0
-2096 -182 -214 0
-2096 -183 326 0
-2096 -183 -63 -69 0
-2096 -183 -42 0
-2096 -183 -159 0
-2096 -183 -216 0
-2096 -184 0
-2097 70 0
-2097 321 0
-2097 -177 0
-2097 -178 0
-2097 -181 324 0
-2097 -181 -64 -67 0
-2097 -181 -46 0
-2097 -181 -163 0
-2097 -181 -220 0
-2097 -182 325 0
-2097 -182 -64 -68 0
-2097 -182 -48 0
-2097 -182 -165 0
-2097 -182 -222 0
-2097 -183 326 0
-2097 -183 -64 -69 0
-2097 -183 -50 0
-2097 -183 -167 0
-2097 -183 -224 0
-2097 -184 0
-2098 70 0
-2098 322 0
-2098 -177 0
-2098 -178 0
-2098 -179 0
-2098 -181 324 0
-2098 -181 -65 -67 0
-2098 -181 -54 0
-2098 -181 -171 0
-2098 -181 -228 0
-2098 -182 325 0
-2098 -182 -65 -68 0
-2098 -182 -56 0
-2098 -182 -173 0
-2098 -182 -230 0
-2098 -183 326 0
-2098 -183 -65 -69 0
-2098 -183 -58 0
-2098 -183 -175 0
-2098 -183 -232 0
-2098 -184 0
-2099 70 0
-2099 317 0
-2099 323 0
-2099 -60 -66 0
-2099 -12 0
-2099 -129 0
-2099 -186 0
-2100 70 0
-2100 318 0
-2100 323 0
-2100 -61 -66 0
-2100 -20 0
-2100 -137 0
-2100 -194 0
-2101 70 0
-2101 319 0
-2101 323 0
-2101 -62 -66 0
-2101 -28 0
-2101 -145 0
-2101 -202 0
-2102 70 0
-2102 320 0
-2102 323 0
-2102 -63 -66 0
-2102 -36 0
-2102 -153 0
-2102 -210 0
-2103 70 0
-2103 321 0
-2103 323 0
-2103 -64 -66 0
-2103 -44 0
-2103 -161 0
-2103 -218 0
-2104 70 0
-2104 322 0
-2104 323 0
-2104 -65 -66 0
-2104 -52 0
-2104 -169 0
-2104 -226 0
-2105 128 0
-2105 376 0
-2105 -3 0
-2105 -4 0
-2105 -5 0
-2105 -6 0
-2105 -7 382 0
-2105 -7 -119 -125 0
-2105 -7 -14 0
-2105 -7 -22 0
-2105 -7 -73 0
-2105 -7 -81 0
-2105 -7 -188 0
-2105 -7 -196 0
-2105 -8 383 0
-2105 -8 -119 -126 0
-2105 -8 -16 0
-2105 -8 -24 0
-2105 -8 -75 0
-2105 -8 -83 0
-2105 -8 -190 0
-2105 -8 -198 0
-2105 -9 384 0
-2105 -9 -119 -127 0
-2105 -9 -18 0
-2105 -9 -26 0
-2105 -9 -77 0
-2105 -9 -85 0
-2105 -9 -192 0
-2105 -9 -200 0
-2105 -10 0
-2106 128 0
-2106 377 0
-2106 -1 0
-2106 -4 0
-2106 -5 0
-2106 -6 0
-2106 -7 382 0
-2106 -7 -120 -125 0
-2106 -7 -22 0
-2106 -7 -30 0
-2106 -7 -81 0
-2106 -7 -89 0
-2106 -7 -196 0
-2106 -7 -204 0
-2106 -8 383 0
-2106 -8 -120 -126 0
-2106 -8 -24 0
-2106 -8 -32 0
-2106 -8 -83 0
-2106 -8 -91 0
-2106 -8 -198 0
-2106 -8 -206 0
-2106 -9 384 0
-2106 -9 -120 -127 0
-2106 -9 -26 0
-2106 -9 -34 0
-2106 -9 -85 0
-2106 -9 -93 0
-2106 -9 -200 0
-2106 -9 -208 0
-2106 -10 0
-2107 128 0
-2107 378 0
-2107 -1 0
-2107 -2 0
-2107 -5 0
-2107 -6 0
-2107 -7 382 0
-2107 -7 -121 -125 0
-2107 -7 -30 0
-2107 -7 -38 0
-2107 -7 -89 0
-2107 -7 -97 0
-2107 -7 -204 0
-2107 -7 -212 0
-2107 -8 383 0
-2107 -8 -121 -126 0
-2107 -8 -32 0
-2107 -8 -40 0
-2107 -8 -91 0
-2107 -8 -99 0
-2107 -8 -206 0
-2107 -8 -214 0
-2107 -9 384 0
-2107 -9 -121 -127 0
-2107 -9 -34 0
-2107 -9 -42 0
-2107 -9 -93 0
-2107 -9 -101 0
-2107 -9 -208 0
-2107 -9 -216 0
-2107 -10 0
-2108 128 0
-2108 379 0
-2108 -1 0
-2108 -2 0
-2108 -3 0
-2108 -6 0
-2108 -7 382 0
-2108 -7 -122 -125 0
-2108 -7 -38 0
-2108 -7 -46 0
-2108 -7 -97 0
-2108 -7 -105 0
-2108 -7 -212 0
-2108 -7 -220 0
-2108 -8 383 0
-2108 -8 -122 -126 0
-2108 -8 -40 0
-2108 -8 -48 0
-2108 -8 -99 0
-2108 -8 -107 0
-2108 -8 -214 0
-2108 -8 -222 0
-2108 -9 384 0
-2108 -9 -122 -127 0
-2108 -9 -42 0
-2108 -9 -50 0
-2108 -9 -101 0
-2108 -9 -109 0
-2108 -9 -216 0
-2108 -9 -224 0
-2108 -10 0
-2109 128 0
-2109 380 0
-2109 -1 0
-2109 -2 0
-2109 -3 0
-2109 -4 0
-2109 -7 382 0
-2109 -7 -123 -125 0
-2109 -7 -46 0
-2109 -7 -54 0
-2109 -7 -105 0
-2109 -7 -113 0
-2109 -7 -220 0
-2109 -7 -228 0
-2109 -8 383 0
-2109 -8 -123 -126 0
-2109 -8 -48 0
-2109 -8 -56 0
-2109 -8 -107 0
-2109 -8 -115 0
-2109 -8 -222 0
-2109 -8 -230 0
-2109 -9 384 0
-2109 -9 -123 -127 0
-2109 -9 -50 0
-2109 -9 -58 0
-2109 -9 -109 0
-2109 -9 -117 0
-2109 -9 -224 0
-2109 -9 -232 0
-2109 -10 0
-2110 128 0
-2110 376 0
-2110 -62 0
-2110 -63 0
-2110 -64 0
-2110 -65 0
-2110 -66 382 0
-2110 -66 -119 -125 0
-2110 -66 -14 0
-2110 -66 -22 0
-2110 -66 -73 0
-2110 -66 -81 0
-2110 -66 -188 0
-2110 -66 -196 0
-2110 -67 383 0
-2110 -67 -119 -126 0
-2110 -67 -16 0
-2110 -67 -24 0
-2110 -67 -75 0
-2110 -67 -83 0
-2110 -67 -190 0
-2110 -67 -198 0
-2110 -68 384 0
-2110 -68 -119 -127 0
-2110 -68 -18 0
-2110 -68 -26 0
-2110 -68 -77 0
-2110 -68 -85 0
-2110 -68 -192 0
-2110 -68 -200 0
-2110 -69 0
-2111 128 0
-2111 377 0
-2111 -60 0
-2111 -63 0
-2111 -64 0
-2111 -65 0
-2111 -66 382 0
-2111 -66 -120 -125 0
-2111 -66 -22 0
-2111 -66 -30 0
-2111 -66 -81 0
-2111 -66 -89 0
-2111 -66 -196 0
-2111 -66 -204 0
-2111 -67 383 0
-2111 -67 -120 -126 0
-2111 -67 -24 0
-2111 -67 -32 0
-2111 -67 -83 0
-2111 -67 -91 0
-2111 -67 -198 0
-2111 -67 -206 0
-2111 -68 384 0
-2111 -68 -120 -127 0
-2111 -68 -26 0
-2111 -68 -34 0
-2111 -68 -85 0
-2111 -68 -93 0
-2111 -68 -200 0
-2111 -68 -208 0
-2111 -69 0
-2112 128 0
-2112 378 0
-2112 -60 0
-2112 -61 0
-2112 -64 0
-2112 -65 0
-2112 -66 382 0
-2112 -66 -121 -125 0
-2112 -66 -30 0
-2112 -66 -38 0
-2112 -66 -89 0
-2112 -66 -97 0
-2112 -66 -204 0
-2112 -66 -212 0
-2112 -67 383 0
-2112 -67 -121 -126 0
-2112 -67 -32 0
-2112 -67 -40 0
-2112 -67 -91 0
-2112 -67 -99 0
-2112 -67 -206 0
-2112 -67 -214 0
-2112 -68 384 0
-2112 -68 -121 -127 0
-2112 -68 -34 0
-2112 -68 -42 0
-2112 -68 -93 0
-2112 -68 -101 0
-2112 -68 -208 0
-2112 -68 -216 0
-2112 -69 0
-2113 128 0
-2113 379 0
-2113 -60 0
-2113 -61 0
-2113 -62 0
-2113 -65 0
-2113 -66 382 0
-2113 -66 -122 -125 0
-2113 -66 -38 0
-2113 -66 -46 0
-2113 -66 -97 0
-2113 -66 -105 0
-2113 -66 -212 0
-2113 -66 -220 0
-2113 -67 383 0
-2113 -67 -122 -126 0
-2113 -67 -40 0
-2113 -67 -48 0
-2113 -67 -99 0
-2113 -67 -107 0
-2113 -67 -214 0
-2113 -67 -222 0
-2113 -68 384 0
-2113 -68 -122 -127 0
-2113 -68 -42 0
-2113 -68 -50 0
-2113 -68 -101 0
-2113 -68 -109 0
-2113 -68 -216 0
-2113 -68 -224 0
-2113 -69 0
-2114 128 0
-2114 380 0
-2114 -60 0
-2114 -61 0
-2114 -62 0
-2114 -63 0
-2114 -66 382 0
-2114 -66 -123 -125 0
-2114 -66 -46 0
-2114 -66 -54 0
-2114 -66 -105 0
-2114 -66 -113 0
-2114 -66 -220 0
-2114 -66 -228 0
-2114 -67 383 0
-2114 -67 -123 -126 0
-2114 -67 -48 0
-2114 -67 -56 0
-2114 -67 -107 0
-2114 -67 -115 0
-2114 -67 -222 0
-2114 -67 -230 0
-2114 -68 384 0
-2114 -68 -123 -127 0
-2114 -68 -50 0
-2114 -68 -58 0
-2114 -68 -109 0
-2114 -68 -117 0
-2114 -68 -224 0
-2114 -68 -232 0
-2114 -69 0
-2115 128 0
-2115 376 0
-2115 -179 0
-2115 -180 0
-2115 -181 382 0
-2115 -181 -119 -125 0
-2115 -181 -14 0
-2115 -181 -22 0
-2115 -181 -73 0
-2115 -181 -81 0
-2115 -181 -188 0
-2115 -181 -196 0
-2115 -182 383 0
-2115 -182 -119 -126 0
-2115 -182 -16 0
-2115 -182 -24 0
-2115 -182 -75 0
-2115 -182 -83 0
-2115 -182 -190 0
-2115 -182 -198 0
-2115 -183 384 0
-2115 -183 -119 -127 0
-2115 -183 -18 0
-2115 -183 -26 0
-2115 -183 -77 0
-2115 -183 -85 0
-2115 -183 -192 0
-2115 -183 -200 0
-2115 -184 0
-2116 128 0
-2116 377 0
-2116 -180 0
-2116 -181 382 0
-2116 -181 -120 -125 0
-2116 -181 -22 0
-2116 -181 -30 0
-2116 -181 -81 0
-2116 -181 -89 0
-2116 -181 -196 0
-2116 -181 -204 0
-2116 -182 383 0
-2116 -182 -120 -126 0
-2116 -182 -24 0
-2116 -182 -32 0
-2116 -182 -83 0
-2116 -182 -91 0
-2116 -182 -198 0
-2116 -182 -206 0
-2116 -183 384 0
-2116 -183 -120 -127 0
-2116 -183 -26 0
-2116 -183 -34 0
-2116 -183 -85 0
-2116 -183 -93 0
-2116 -183 -200 0
-2116 -183 -208 0
-2116 -184 0
-2117 128 0
-2117 378 0
-2117 -181 382 0
-2117 -181 -121 -125 0
-2117 -181 -30 0
-2117 -181 -38 0
-2117 -181 -89 0
-2117 -181 -97 0
-2117 -181 -204 0
-2117 -181 -212 0
-2117 -182 383 0
-2117 -182 -121 -126 0
-2117 -182 -32 0
-2117 -182 -40 0
-2117 -182 -91 0
-2117 -182 -99 0
-2117 -182 -206 0
-2117 -182 -214 0
-2117 -183 384 0
-2117 -183 -121 -127 0
-2117 -183 -34 0
-2117 -183 -42 0
-2117 -183 -93 0
-2117 -183 -101 0
-2117 -183 -208 0
-2117 -183 -216 0
-2117 -184 0
-2118 128 0
-2118 379 0
-2118 -177 0
-2118 -181 382 0
-2118 -181 -122 -125 0
-2118 -181 -38 0
-2118 -181 -46 0
-2118 -181 -97 0
-2118 -181 -105 0
-2118 -181 -212 0
-2118 -181 -220 0
-2118 -182 383 0
-2118 -182 -122 -126 0
-2118 -182 -40 0
-2118 -182 -48 0
-2118 -182 -99 0
-2118 -182 -107 0
-2118 -182 -214 0
-2118 -182 -222 0
-2118 -183 384 0
-2118 -183 -122 -127 0
-2118 -183 -42 0
-2118 -183 -50 0
-2118 -183 -101 0
-2118 -183 -109 0
-2118 -183 -216 0
-2118 -183 -224 0
-2118 -184 0
-2119 128 0
-2119 380 0
-2119 -177 0
-2119 -178 0
-2119 -181 382 0
-2119 -181 -123 -125 0
-2119 -181 -46 0
-2119 -181 -54 0
-2119 -181 -105 0
-2119 -181 -113 0
-2119 -181 -220 0
-2119 -181 -228 0
-2119 -182 383 0
-2119 -182 -123 -126 0
-2119 -182 -48 0
-2119 -182 -56 0
-2119 -182 -107 0
-2119 -182 -115 0
-2119 -182 -222 0
-2119 -182 -230 0
-2119 -183 384 0
-2119 -183 -123 -127 0
-2119 -183 -50 0
-2119 -183 -58 0
-2119 -183 -109 0
-2119 -183 -117 0
-2119 -183 -224 0
-2119 -183 -232 0
-2119 -184 0
-2120 128 0
-2120 376 0
-2120 381 0
-2120 -119 -124 0
-2120 -12 0
-2120 -20 0
-2120 -71 0
-2120 -79 0
-2120 -186 0
-2120 -194 0
-2121 128 0
-2121 377 0
-2121 381 0
-2121 -120 -124 0
-2121 -20 0
-2121 -28 0
-2121 -79 0
-2121 -87 0
-2121 -194 0
-2121 -202 0
-2122 128 0
-2122 378 0
-2122 381 0
-2122 -121 -124 0
-2122 -28 0
-2122 -36 0
-2122 -87 0
-2122 -95 0
-2122 -202 0
-2122 -210 0
-2123 128 0
-2123 379 0
-2123 381 0
-2123 -122 -124 0
-2123 -36 0
-2123 -44 0
-2123 -95 0
-2123 -103 0
-2123 -210 0
-2123 -218 0
-2124 128 0
-2124 380 0
-2124 381 0
-2124 -123 -124 0
-2124 -44 0
-2124 -52 0
-2124 -103 0
-2124 -111 0
-2124 -218 0
-2124 -226 0
-2125 185 0
-2125 434 0
-2125 -4 0
-2125 -5 0
-2125 -6 0
-2125 -7 439 0
-2125 -7 -177 -182 0
-2125 -7 -14 0
-2125 -7 -22 0
-2125 -7 -30 0
-2125 -7 -73 0
-2125 -7 -81 0
-2125 -7 -89 0
-2125 -7 -131 0
-2125 -7 -139 0
-2125 -7 -147 0
-2125 -8 440 0
-2125 -8 -177 -183 0
-2125 -8 -16 0
-2125 -8 -24 0
-2125 -8 -32 0
-2125 -8 -75 0
-2125 -8 -83 0
-2125 -8 -91 0
-2125 -8 -133 0
-2125 -8 -141 0
-2125 -8 -149 0
-2125 -9 441 0
-2125 -9 -177 -184 0
-2125 -9 -18 0
-2125 -9 -26 0
-2125 -9 -34 0
-2125 -9 -77 0
-2125 -9 -85 0
-2125 -9 -93 0
-2125 -9 -135 0
-2125 -9 -143 0
-2125 -9 -151 0
-2125 -10 0
-2126 185 0
-2126 435 0
-2126 -1 0
-2126 -5 0
-2126 -6 0
-2126 -7 439 0
-2126 -7 -178 -182 0
-2126 -7 -22 0
-2126 -7 -30 0
-2126 -7 -38 0
-2126 -7 -81 0
-2126 -7 -89 0
-2126 -7 -97 0
-2126 -7 -139 0
-2126 -7 -147 0
-2126 -7 -155 0
-2126 -8 440 0
-2126 -8 -178 -183 0
-2126 -8 -24 0
-2126 -8 -32 0
-2126 -8 -40 0
-2126 -8 -83 0
-2126 -8 -91 0
-2126 -8 -99 0
-2126 -8 -141 0
-2126 -8 -149 0
-2126 -8 -157 0
-2126 -9 441 0
-2126 -9 -178 -184 0
-2126 -9 -26 0
-2126 -9 -34 0
-2126 -9 -42 0
-2126 -9 -85 0
-2126 -9 -93 0
-2126 -9 -101 0
-2126 -9 -143 0
-2126 -9 -151 0
-2126 -9 -159 0
-2126 -10 0
-2127 185 0
-2127 436 0
-2127 -1 0
-2127 -2 0
-2127 -6 0
-2127 -7 439 0
-2127 -7 -179 -182 0
-2127 -7 -30 0
-2127 -7 -38 0
-2127 -7 -46 0
-2127 -7 -89 0
-2127 -7 -97 0
-2127 -7 -105 0
-2127 -7 -147 0
-2127 -7 -155 0
-2127 -7 -163 0
-2127 -8 440 0
-2127 -8 -179 -183 0
-2127 -8 -32 0
-2127 -8 -40 0
-2127 -8 -48 0
-2127 -8 -91 0
-2127 -8 -99 0
-2127 -8 -107 0
-2127 -8 -149 0
-2127 -8 -157 0
-2127 -8 -165 0
-2127 -9 441 0
-2127 -9 -179 -184 0
-2127 -9 -34 0
-2127 -9 -42 0
-2127 -9 -50 0
-2127 -9 -93 0
-2127 -9 -101 0
-2127 -9 -109 0
-2127 -9 -151 0
-2127 -9 -159 0
-2127 -9 -167 0
-2127 -10 0
-2128 185 0
-2128 437 0
-2128 -1 0
-2128 -2 0
-2128 -3 0
-2128 -7 439 0
-2128 -7 -180 -182 0
-2128 -7 -38 0
-2128 -7 -46 0
-2128 -7 -54 0
-2128 -7 -97 0
-2128 -7 -105 0
-2128 -7 -113 0
-2128 -7 -155 0
-2128 -7 -163 0
-2128 -7 -171 0
-2128 -8 440 0
-2128 -8 -180 -183 0
-2128 -8 -40 0
-2128 -8 -48 0
-2128 -8 -56 0
-2128 -8 -99 0
-2128 -8 -107 0
-2128 -8 -115 0
-2128 -8 -157 0
-2128 -8 -165 0
-2128 -8 -173 0
-2128 -9 441 0
-2128 -9 -180 -184 0
-2128 -9 -42 0
-2128 -9 -50 0
-2128 -9 -58 0
-2128 -9 -101 0
-2128 -9 -109 0
-2128 -9 -117 0
-2128 -9 -159 0
-2128 -9 -167 0
-2128 -9 -175 0
-2128 -10 0
-2129 185 0
-2129 434 0
-2129 -63 0
-2129 -64 0
-2129 -65 0
-2129 -66 439 0
-2129 -66 -177 -182 0
-2129 -66 -14 0
-2129 -66 -22 0
-2129 -66 -30 0
-2129 -66 -73 0
-2129 -66 -81 0
-2129 -66 -89 0
-2129 -66 -131 0
-2129 -66 -139 0
-2129 -66 -147 0
-2129 -67 440 0
-2129 -67 -177 -183 0
-2129 -67 -16 0
-2129 -67 -24 0
-2129 -67 -32 0
-2129 -67 -75 0
-2129 -67 -83 0
-2129 -67 -91 0
-2129 -67 -133 0
-2129 -67 -141 0
-2129 -67 -149 0
-2129 -68 441 0
-2129 -68 -177 -184 0
-2129 -68 -18 0
-2129 -68 -26 0
-2129 -68 -34 0
-2129 -68 -77 0
-2129 -68 -85 0
-2129 -68 -93 0
-2129 -68 -135 0
-2129 -68 -143 0
-2129 -68 -151 0
-2129 -69 0
-2130 185 0
-2130 435 0
-2130 -60 0
-2130 -64 0
-2130 -65 0
-2130 -66 439 0
-2130 -66 -178 -182 0
-2130 -66 -22 0
-2130 -66 -30 0
-2130 -66 -38 0
-2130 -66 -81 0
-2130 -66 -89 0
-2130 -66 -97 0
-2130 -66 -139 0
-2130 -66 -147 0
-2130 -66 -155 0
-2130 -67 440 0
-2130 -67 -178 -183 0
-2130 -67 -24 0
-2130 -67 -32 0
-2130 -67 -40 0
-2130 -67 -83 0
-2130 -67 -91 0
-2130 -67 -99 0
-2130 -67 -141 0
-2130 -67 -149 0
-2130 -67 -157 0
-2130 -68 441 0
-2130 -68 -178 -184 0
-2130 -68 -26 0
-2130 -68 -34 0
-2130 -68 -42 0
-2130 -68 -85 0
-2130 -68 -93 0
-2130 -68 -101 0
-2130 -68 -143 0
-2130 -68 -151 0
-2130 -68 -159 0
-2130 -69 0
-2131 185 0
-2131 436 0
-2131 -60 0
-2131 -61 0
-2131 -65 0
-2131 -66 439 0
-2131 -66 -179 -182 0
-2131 -66 -30 0
-2131 -66 -38 0
-2131 -66 -46 0
-2131 -66 -89 0
-2131 -66 -97 0
-2131 -66 -105 0
-2131 -66 -147 0
-2131 -66 -155 0
-2131 -66 -163 0
-2131 -67 440 0
-2131 -67 -179 -183 0
-2131 -67 -32 0
-2131 -67 -40 0
-2131 -67 -48 0
-2131 -67 -91 0
-2131 -67 -99 0
-2131 -67 -107 0
-2131 -67 -149 0
-2131 -67 -157 0
-2131 -67 -165 0
-2131 -68 441 0
-2131 -68 -179 -184 0
-2131 -68 -34 0
-2131 -68 -42 0
-2131 -68 -50 0
-2131 -68 -93 0
-2131 -68 -101 0
-2131 -68 -109 0
-2131 -68 -151 0
-2131 -68 -159 0
-2131 -68 -167 0
-2131 -69 0
-2132 185 0
-2132 437 0
-2132 -60 0
-2132 -61 0
-2132 -62 0
-2132 -66 439 0
-2132 -66 -180 -182 0
-2132 -66 -38 0
-2132 -66 -46 0
-2132 -66 -54 0
-2132 -66 -97 0
-2132 -66 -105 0
-2132 -66 -113 0
-2132 -66 -155 0
-2132 -66 -163 0
-2132 -66 -171 0
-2132 -67 440 0
-2132 -67 -180 -183 0
-2132 -67 -40 0
-2132 -67 -48 0
-2132 -67 -56 0
-2132 -67 -99 0
-2132 -67 -107 0
-2132 -67 -115 0
-2132 -67 -157 0
-2132 -67 -165 0
-2132 -67 -173 0
-2132 -68 441 0
-2132 -68 -180 -184 0
-2132 -68 -42 0
-2132 -68 -50 0
-2132 -68 -58 0
-2132 -68 -101 0
-2132 -68 -109 0
-2132 -68 -117 0
-2132 -68 -159 0
-2132 -68 -167 0
-2132 -68 -175 0
-2132 -69 0
-2133 185 0
-2133 434 0
-2133 -122 0
-2133 -123 0
-2133 -124 439 0
-2133 -124 -177 -182 0
-2133 -124 -14 0
-2133 -124 -22 0
-2133 -124 -30 0
-2133 -124 -73 0
-2133 -124 -81 0
-2133 -124 -89 0
-2133 -124 -131 0
-2133 -124 -139 0
-2133 -124 -147 0
-2133 -125 440 0
-2133 -125 -177 -183 0
-2133 -125 -16 0
-2133 -125 -24 0
-2133 -125 -32 0
-2133 -125 -75 0
-2133 -125 -83 0
-2133 -125 -91 0
-2133 -125 -133 0
-2133 -125 -141 0
-2133 -125 -149 0
-2133 -126 441 0
-2133 -126 -177 -184 0
-2133 -126 -18 0
-2133 -126 -26 0
-2133 -126 -34 0
-2133 -126 -77 0
-2133 -126 -85 0
-2133 -126 -93 0
-2133 -126 -135 0
-2133 -126 -143 0
-2133 -126 -151 0
-2133 -127 0
-2134 185 0
-2134 435 0
-2134 -123 0
-2134 -124 439 0
-2134 -124 -178 -182 0
-2134 -124 -22 0
-2134 -124 -30 0
-2134 -124 -38 0
-2134 -124 -81 0
-2134 -124 -89 0
-2134 -124 -97 0
-2134 -124 -139 0
-2134 -124 -147 0
-2134 -124 -155 0
-2134 -125 440 0
-2134 -125 -178 -183 0
-2134 -125 -24 0
-2134 -125 -32 0
-2134 -125 -40 0
-2134 -125 -83 0
-2134 -125 -91 0
-2134 -125 -99 0
-2134 -125 -141 0
-2134 -125 -149 0
-2134 -125 -157 0
-2134 -126 441 0
-2134 -126 -178 -184 0
-2134 -126 -26 0
-2134 -126 -34 0
-2134 -126 -42 0
-2134 -126 -85 0
-2134 -126 -93 0
-2134 -126 -101 0
-2134 -126 -143 0
-2134 -126 -151 0
-2134 -126 -159 0
-2134 -127 0
-2135 185 0
-2135 436 0
-2135 -119 0
-2135 -124 439 0
-2135 -124 -179 -182 0
-2135 -124 -30 0
-2135 -124 -38 0
-2135 -124 -46 0
-2135 -124 -89 0
-2135 -124 -97 0
-2135 -124 -105 0
-2135 -124 -147 0
-2135 -124 -155 0
-2135 -124 -163 0
-2135 -125 440 0
-2135 -125 -179 -183 0
-2135 -125 -32 0
-2135 -125 -40 0
-2135 -125 -48 0
-2135 -125 -91 0
-2135 -125 -99 0
-2135 -125 -107 0
-2135 -125 -149 0
-2135 -125 -157 0
-2135 -125 -165 0
-2135 -126 441 0
-2135 -126 -179 -184 0
-2135 -126 -34 0
-2135 -126 -42 0
-2135 -126 -50 0
-2135 -126 -93 0
-2135 -126 -101 0
-2135 -126 -109 0
-2135 -126 -151 0
-2135 -126 -159 0
-2135 -126 -167 0
-2135 -127 0
-2136 185 0
-2136 437 0
-2136 -119 0
-2136 -120 0
-2136 -124 439 0
-2136 -124 -180 -182 0
-2136 -124 -38 0
-2136 -124 -46 0
-2136 -124 -54 0
-2136 -124 -97 0
-2136 -124 -105 0
-2136 -124 -113 0
-2136 -124 -155 0
-2136 -124 -163 0
-2136 -124 -171 0
-2136 -125 440 0
-2136 -125 -180 -183 0
-2136 -125 -40 0
-2136 -125 -48 0
-2136 -125 -56 0
-2136 -125 -99 0
-2136 -125 -107 0
-2136 -125 -115 0
-2136 -125 -157 0
-2136 -125 -165 0
-2136 -125 -173 0
-2136 -126 441 0
-2136 -126 -180 -184 0
-2136 -126 -42 0
-2136 -126 -50 0
-2136 -126 -58 0
-2136 -126 -101 0
-2136 -126 -109 0
-2136 -126 -117 0
-2136 -126 -159 0
-2136 -126 -167 0
-2136 -126 -175 0
-2136 -127 0
-2137 185 0
-2137 434 0
-2137 438 0
-2137 -177 -181 0
-2137 -12 0
-2137 -20 0
-2137 -28 0
-2137 -71 0
-2137 -79 0
-2137 -87 0
-2137 -129 0
-2137 -137 0
-2137 -145 0
-2138 185 0
-2138 435 0
-2138 438 0
-2138 -178 -181 0
-2138 -20 0
-2138 -28 0
-2138 -36 0
-2138 -79 0
-2138 -87 0
-2138 -95 0
-2138 -137 0
-2138 -145 0
-2138 -153 0
-2139 185 0
-2139 436 0
-2139 438 0
-2139 -179 -181 0
-2139 -28 0
-2139 -36 0
-2139 -44 0
-2139 -87 0
-2139 -95 0
-2139 -103 0
-2139 -145 0
-2139 -153 0
-2139 -161 0
-2140 185 0
-2140 437 0
-2140 438 0
-2140 -180 -181 0
-2140 -36 0
-2140 -44 0
-2140 -52 0
-2140 -95 0
-2140 -103 0
-2140 -111 0
-2140 -153 0
-2140 -161 0
-2140 -169 0
-1 258 2057 2058 2059 2060 2061 2062 2063 2064 2065 2066 2067 2068 2069 2070 2071 2072 2073 2074 2075 2076 2077 2078 2079 2080 0
-2 259 2057 2058 2059 2060 2061 2062 2063 2064 2065 2066 2067 2068 2069 2070 2071 2072 2073 2074 2075 2076 2077 2078 2079 2080 0
-3 260 2057 2058 2059 2060 2061 2062 2063 2064 2065 2066 2067 2068 2069 2070 2071 2072 2073 2074 2075 2076 2077 2078 2079 2080 0
-4 261 2057 2058 2059 2060 2061 2062 2063 2064 2065 2066 2067 2068 2069 2070 2071 2072 2073 2074 2075 2076 2077 2078 2079 2080 0
-5 262 2057 2058 2059 2060 2061 2062 2063 2064 2065 2066 2067 2068 2069 2070 2071 2072 2073 2074 2075 2076 2077 2078 2079 2080 0
-6 263 2057 2058 2059 2060 2061 2062 2063 2064 2065 2066 2067 2068 2069 2070 2071 2072 2073 2074 2075 2076 2077 2078 2079 2080 0
-7 264 2057 2058 2059 2060 2061 2062 2063 2064 2065 2066 2067 2068 2069 2070 2071 2072 2073 2074 2075 2076 2077 2078 2079 2080 0
-8 265 2057 2058 2059 2060 2061 2062 2063 2064 2065 2066 2067 2068 2069 2070 2071 2072 2073 2074 2075 2076 2077 2078 2079 2080 0
-9 266 2057 2058 2059 2060 2061 2062 2063 2064 2065 2066 2067 2068 2069 2070 2071 2072 2073 2074 2075 2076 2077 2078 2079 2080 0
-10 267 2057 2058 2059 2060 2061 2062 2063 2064 2065 2066 2067 2068 2069 2070 2071 2072 2073 2074 2075 2076 2077 2078 2079 2080 0
-60 317 2081 2082 2083 2084 2085 2086 2087 2088 2089 2090 2091 2092 2093 2094 2095 2096 2097 2098 2099 2100 2101 2102 2103 2104 0
-61 318 2081 2082 2083 2084 2085 2086 2087 2088 2089 2090 2091 2092 2093 2094 2095 2096 2097 2098 2099 2100 2101 2102 2103 2104 0
-62 319 2081 2082 2083 2084 2085 2086 2087 2088 2089 2090 2091 2092 2093 2094 2095 2096 2097 2098 2099 2100 2101 2102 2103 2104 0
-63 320 2081 2082 2083 2084 2085 2086 2087 2088 2089 2090 2091 2092 2093 2094 2095 2096 2097 2098 2099 2100 2101 2102 2103 2104 0
-64 321 2081 2082 2083 2084 2085 2086 2087 2088 2089 2090 2091 2092 2093 2094 2095 2096 2097 2098 2099 2100 2101 2102 2103 2104 0
-65 322 2081 2082 2083 2084 2085 2086 2087 2088 2089 2090 2091 2092 2093 2094 2095 2096 2097 2098 2099 2100 2101 2102 2103 2104 0
-66 323 2081 2082 2083 2084 2085 2086 2087 2088 2089 2090 2091 2092 2093 2094 2095 2096 2097 2098 2099 2100 2101 2102 2103 2104 0
-67 324 2081 2082 2083 2084 2085 2086 2087 2088 2089 2090 2091 2092 2093 2094 2095 2096 2097 2098 2099 2100 2101 2102 2103 2104 0
-68 325 2081 2082 2083 2084 2085 2086 2087 2088 2089 2090 2091 2092 2093 2094 2095 2096 2097 2098 2099 2100 2101 2102 2103 2104 0
-69 326 2081 2082 2083 2084 2085 2086 2087 2088 2089 2090 2091 2092 2093 2094 2095 2096 2097 2098 2099 2100 2101 2102 2103 2104 0
-119 376 2105 2106 2107 2108 2109 2110 2111 2112 2113 2114 2115 2116 2117 2118 2119 2120 2121 2122 2123 2124 0
-120 377 2105 2106 2107 2108 2109 2110 2111 2112 2113 2114 2115 2116 2117 2118 2119 2120 2121 2122 2123 2124 0
-121 378 2105 2106 2107 2108 2109 2110 2111 2112 2113 2114 2115 2116 2117 2118 2119 2120 2121 2122 2123 2124 0
-122 379 2105 2106 2107 2108 2109 2110 2111 2112 2113 2114 2115 2116 2117 2118 2119 2120 2121 2122 2123 2124 0
-123 380 2105 2106 2107 2108 2109 2110 2111 2112 2113 2114 2115 2116 2117 2118 2119 2120 2121 2122 2123 2124 0
-124 381 2105 2106 2107 2108 2109 2110 2111 2112 2113 2114 2115 2116 2117 2118 2119 2120 2121 2122 2123 2124 0
-125 382 2105 2106 2107 2108 2109 2110 2111 2112 2113 2114 2115 2116 2117 2118 2119 2120 2121 2122 2123 2124 0
-126 383 2105 2106 2107 2108 2109 2110 2111 2112 2113 2114 2115 2116 2117 2118 2119 2120 2121 2122 2123 2124 0
-127 384 2105 2106 2107 2108 2109 2110 2111 2112 2113 2114 2115 2116 2117 2118 2119 2120 2121 2122 2123 2124 0
-177 434 2125 2126 2127 2128 2129 2130 2131 2132 2133 2134 2135 2136 2137 2138 2139 2140 0
-178 435 2125 2126 2127 2128 2129 2130 2131 2132 2133 2134 2135 2136 2137 2138 2139 2140 0
-179 436 2125 2126 2127 2128 2129 2130 2131 2132 2133 2134 2135 2136 2137 2138 2139 2140 0
-180 437 2125 2126 2127 2128 2129 2130 2131 2132 2133 2134 2135 2136 2137 2138 2139 2140 0
-181 438 2125 2126 2127 2128 2129 2130 2131 2132 2133 2134 2135 2136 2137 2138 2139 2140 0
-182 439 2125 2126 2127 2128 2129 2130 2131 2132 2133 2134 2135 2136 2137 2138 2139 2140 0
-183 440 2125 2126 2127 2128 2129 2130 2131 2132 2133 2134 2135 2136 2137 2138 2139 2140 0
-184 441 2125 2126 2127 2128 2129 2130 2131 2132 2133 2134 2135 2136 2137 2138 2139 2140 0
-2141 -2142 0
-2141 -2143 0
-2141 -2144 0
-2141 -2145 0
-2141 -2146 0
-2141 -2147 0
-2141 -2148 0
-2141 -2149 0
-2141 -2150 0
-2141 -2151 0
-2141 -2152 0
-2141 -2153 0
-2141 -2154 0
-2141 -2155 0
-2141 -2156 0
-2141 -2157 0
-2141 -2158 0
-2141 -2159 0
-2141 -2160 0
-2141 -2161 0
-2141 -2162 0
-2141 -2163 0
-2141 -2164 0
-2141 -2165 0
-2141 -2166 0
-2141 -2167 0
-2141 -2168 0
-2141 -2169 0
-2141 -2170 0
-2141 -2171 0
-2141 -2172 0
-2141 -2173 0
-2141 -2174 0
-2141 -2175 0
-2141 -2176 0
-2141 -2177 0
-2141 -2178 0
-2141 -2179 0
-2141 -2180 0
-2141 -2181 0
-2141 -2182 0
-2141 -2183 0
-2141 -2184 0
-2141 -2185 0
-2141 -2186 0
-2141 -2187 0
-2141 -2188 0
-2141 -2189 0
-2141 -2190 0
-2141 -2191 0
-2141 -2192 0
-2141 -2193 0
-2141 -2194 0
-2141 -2195 0
-2141 -2196 0
-2141 -2197 0
-2141 -2198 0
-2141 -2199 0
-2141 -2200 0
-2141 -2201 0
-2141 -2202 0
-2141 -2203 0
-2141 -2204 0
-2141 -2205 0
-2141 -2206 0
-2141 -2207 0
-2141 -2208 0
-2141 -2209 0
-2141 -2210 0
-2141 -2211 0
-2141 -2212 0
-2141 -2213 0
-2141 -2214 0
-2141 -2215 0
-2141 -2216 0
-2141 -2217 0
-2141 -2218 0
-2141 -2219 0
-2141 -2220 0
-2141 -2221 0
-2141 -2222 0
-2141 -2223 0
-2141 -2224 0
-2142 -2143 0
-2142 -2144 0
-2142 -2145 0
-2142 -2146 0
-2142 -2147 0
-2142 -2148 0
-2142 -2149 0
-2142 -2150 0
-2142 -2151 0
-2142 -2152 0
-2142 -2153 0
-2142 -2154 0
-2142 -2155 0
-2142 -2156 0
-2142 -2157 0
-2142 -2158 0
-2142 -2159 0
-2142 -2160 0
-2142 -2161 0
-2142 -2162 0
-2142 -2163 0
-2142 -2164 0
-2142 -2165 0
-2142 -2166 0
-2142 -2167 0
-2142 -2168 0
-2142 -2169 0
-2142 -2170 0
-2142 -2171 0
-2142 -2172 0
-2142 -2173 0
-2142 -2174 0
-2142 -2175 0
-2142 -2176 0
-2142 -2177 0
-2142 -2178 0
-2142 -2179 0
-2142 -2180 0
-2142 -2181 0
-2142 -2182 0
-2142 -2183 0
-2142 -2184 0
-2142 -2185 0
-2142 -2186 0
-2142 -2187 0
-2142 -2188 0
-2142 -2189 0
-2142 -2190 0
-2142 -2191 0
-2142 -2192 0
-2142 -2193 0
-2142 -2194 0
-2142 -2195 0
-2142 -2196 0
-2142 -2197 0
-2142 -2198 0
-2142 -2199 0
-2142 -2200 0
-2142 -2201 0
-2142 -2202 0
-2142 -2203 0
-2142 -2204 0
-2142 -2205 0
-2142 -2206 0
-2142 -2207 0
-2142 -2208 0
-2142 -2209 0
-2142 -2210 0
-2142 -2211 0
-2142 -2212 0
-2142 -2213 0
-2142 -2214 0
-2142 -2215 0
-2142 -2216 0
-2142 -2217 0
-2142 -2218 0
-2142 -2219 0
-2142 -2220 0
-2142 -2221 0
-2142 -2222 0
-2142 -2223 0
-2142 -2224 0
-2143 -2144 0
-2143 -2145 0
-2143 -2146 0
-2143 -2147 0
-2143 -2148 0
-2143 -2149 0
-2143 -2150 0
-2143 -2151 0
-2143 -2152 0
-2143 -2153 0
-2143 -2154 0
-2143 -2155 0
-2143 -2156 0
-2143 -2157 0
-2143 -2158 0
-2143 -2159 0
-2143 -2160 0
-2143 -2161 0
-2143 -2162 0
-2143 -2163 0
-2143 -2164 0
-2143 -2165 0
-2143 -2166 0
-2143 -2167 0
-2143 -2168 0
-2143 -2169 0
-2143 -2170 0
-2143 -2171 0
-2143 -2172 0
-2143 -2173 0
-2143 -2174 0
-2143 -2175 0
-2143 -2176 0
-2143 -2177 0
-2143 -2178 0
-2143 -2179 0
-2143 -2180 0
-2143 -2181 0
-2143 -2182 0
-2143 -2183 0
-2143 -2184 0
-2143 -2185 0
-2143 -2186 0
-2143 -2187 0
-2143 -2188 0
-2143 -2189 0
-2143 -2190 0
-2143 -2191 0
-2143 -2192 0
-2143 -2193 0
-2143 -2194 0
-2143 -2195 0
-2143 -2196 0
-2143 -2197 0
-2143 -2198 0
-2143 -2199 0
-2143 -2200 0
-2143 -2201 0
-2143 -2202 0
-2143 -2203 0
-2143 -2204 0
-2143 -2205 0
-2143 -2206 0
-2143 -2207 0
-2143 -2208 0
-2143 -2209 0
-2143 -2210 0
-2143 -2211 0
-2143 -2212 0
-2143 -2213 0
-2143 -2214 0
-2143 -2215 0
-2143 -2216 0
-2143 -2217 0
-2143 -2218 0
-2143 -2219 0
-2143 -2220 0
-2143 -2221 0
-2143 -2222 0
-2143 -2223 0
-2143 -2224 0
-2144 -2145 0
-2144 -2146 0
-2144 -2147 0
-2144 -2148 0
-2144 -2149 0
-2144 -2150 0
-2144 -2151 0
-2144 -2152 0
-2144 -2153 0
-2144 -2154 0
-2144 -2155 0
-2144 -2156 0
-2144 -2157 0
-2144 -2158 0
-2144 -2159 0
-2144 -2160 0
-2144 -2161 0
-2144 -2162 0
-2144 -2163 0
-2144 -2164 0
-2144 -2165 0
-2144 -2166 0
-2144 -2167 0
-2144 -2168 0
-2144 -2169 0
-2144 -2170 0
-2144 -2171 0
-2144 -2172 0
-2144 -2173 0
-2144 -2174 0
-2144 -2175 0
-2144 -2176 0
-2144 -2177 0
-2144 -2178 0
-2144 -2179 0
-2144 -2180 0
-2144 -2181 0
-2144 -2182 0
-2144 -2183 0
-2144 -2184 0
-2144 -2185 0
-2144 -2186 0
-2144 -2187 0
-2144 -2188 0
-2144 -2189 0
-2144 -2190 0
-2144 -2191 0
-2144 -2192 0
-2144 -2193 0
-2144 -2194 0
-2144 -2195 0
-2144 -2196 0
-2144 -2197 0
-2144 -2198 0
-2144 -2199 0
-2144 -2200 0
-2144 -2201 0
-2144 -2202 0
-2144 -2203 0
-2144 -2204 0
-2144 -2205 0
-2144 -2206 0
-2144 -2207 0
-2144 -2208 0
-2144 -2209 0
-2144 -2210 0
-2144 -2211 0
-2144 -2212 0
-2144 -2213 0
-2144 -2214 0
-2144 -2215 0
-2144 -2216 0
-2144 -2217 0
-2144 -2218 0
-2144 -2219 0
-2144 -2220 0
-2144 -2221 0
-2144 -2222 0
-2144 -2223 0
-2144 -2224 0
-2145 -2146 0
-2145 -2147 0
-2145 -2148 0
-2145 -2149 0
-2145 -2150 0
-2145 -2151 0
-2145 -2152 0
-2145 -2153 0
-2145 -2154 0
-2145 -2155 0
-2145 -2156 0
-2145 -2157 0
-2145 -2158 0
-2145 -2159 0
-2145 -2160 0
-2145 -2161 0
-2145 -2162 0
-2145 -2163 0
-2145 -2164 0
-2145 -2165 0
-2145 -2166 0
-2145 -2167 0
-2145 -2168 0
-2145 -2169 0
-2145 -2170 0
-2145 -2171 0
-2145 -2172 0
-2145 -2173 0
-2145 -2174 0
-2145 -2175 0
-2145 -2176 0
-2145 -2177 0
-2145 -2178 0
-2145 -2179 0
-2145 -2180 0
-2145 -2181 0
-2145 -2182 0
-2145 -2183 0
-2145 -2184 0
-2145 -2185 0
-2145 -2186 0
-2145 -2187 0
-2145 -2188 0
-2145 -2189 0
-2145 -2190 0
-2145 -2191 0
-2145 -2192 0
-2145 -2193 0
-2145 -2194 0
-2145 -2195 0
-2145 -2196 0
-2145 -2197 0
-2145 -2198 0
-2145 -2199 0
-2145 -2200 0
-2145 -2201 0
-2145 -2202 0
-2145 -2203 0
-2145 -2204 0
-2145 -2205 0
-2145 -2206 0
-2145 -2207 0
-2145 -2208 0
-2145 -2209 0
-2145 -2210 0
-2145 -2211 0
-2145 -2212 0
-2145 -2213 0
-2145 -2214 0
-2145 -2215 0
-2145 -2216 0
-2145 -2217 0
-2145 -2218 0
-2145 -2219 0
-2145 -2220 0
-2145 -2221 0
-2145 -2222 0
-2145 -2223 0
-2145 -2224 0
-2146 -2147 0
-2146 -2148 0
-2146 -2149 0
-2146 -2150 0
-2146 -2151 0
-2146 -2152 0
-2146 -2153 0
-2146 -2154 0
-2146 -2155 0
-2146 -2156 0
-2146 -2157 0
-2146 -2158 0
-2146 -2159 0
-2146 -2160 0
-2146 -2161 0
-2146 -2162 0
-2146 -2163 0
-2146 -2164 0
-2146 -2165 0
-2146 -2166 0
-2146 -2167 0
-2146 -2168 0
-2146 -2169 0
-2146 -2170 0
-2146 -2171 0
-2146 -2172 0
-2146 -2173 0
-2146 -2174 0
-2146 -2175 0
-2146 -2176 0
-2146 -2177 0
-2146 -2178 0
-2146 -2179 0
-2146 -2180 0
-2146 -2181 0
-2146 -2182 0
-2146 -2183 0
-2146 -2184 0
-2146 -2185 0
-2146 -2186 0
-2146 -2187 0
-2146 -2188 0
-2146 -2189 0
-2146 -2190 0
-2146 -2191 0
-2146 -2192 0
-2146 -2193 0
-2146 -2194 0
-2146 -2195 0
-2146 -2196 0
-2146 -2197 0
-2146 -2198 0
-2146 -2199 0
-2146 -2200 0
-2146 -2201 0
-2146 -2202 0
-2146 -2203 0
-2146 -2204 0
-2146 -2205 0
-2146 -2206 0
-2146 -2207 0
-2146 -2208 0
-2146 -2209 0
-2146 -2210 0
-2146 -2211 0
-2146 -2212 0
-2146 -2213 0
-2146 -2214 0
-2146 -2215 0
-2146 -2216 0
-2146 -2217 0
-2146 -2218 0
-2146 -2219 0
-2146 -2220 0
-2146 -2221 0
-2146 -2222 0
-2146 -2223 0
-2146 -2224 0
-2147 -2148 0
-2147 -2149 0
-2147 -2150 0
-2147 -2151 0
-2147 -2152 0
-2147 -2153 0
-2147 -2154 0
-2147 -2155 0
-2147 -2156 0
-2147 -2157 0
-2147 -2158 0
-2147 -2159 0
-2147 -2160 0
-2147 -2161 0
-2147 -2162 0
-2147 -2163 0
-2147 -2164 0
-2147 -2165 0
-2147 -2166 0
-2147 -2167 0
-2147 -2168 0
-2147 -2169 0
-2147 -2170 0
-2147 -2171 0
-2147 -2172 0
-2147 -2173 0
-2147 -2174 0
-2147 -2175 0
-2147 -2176 0
-2147 -2177 0
-2147 -2178 0
-2147 -2179 0
-2147 -2180 0
-2147 -2181 0
-2147 -2182 0
-2147 -2183 0
-2147 -2184 0
-2147 -2185 0
-2147 -2186 0
-2147 -2187 0
-2147 -2188 0
-2147 -2189 0
-2147 -2190 0
-2147 -2191 0
-2147 -2192 0
-2147 -2193 0
-2147 -2194 0
-2147 -2195 0
-2147 -2196 0
-2147 -2197 0
-2147 -2198 0
-2147 -2199 0
-2147 -2200 0
-2147 -2201 0
-2147 -2202 0
-2147 -2203 0
-2147 -2204 0
-2147 -2205 0
-2147 -2206 0
-2147 -2207 0
-2147 -2208 0
-2147 -2209 0
-2147 -2210 0
-2147 -2211 0
-2147 -2212 0
-2147 -2213 0
-2147 -2214 0
-2147 -2215 0
-2147 -2216 0
-2147 -2217 0
-2147 -2218 0
-2147 -2219 0
-2147 -2220 0
-2147 -2221 0
-2147 -2222 0
-2147 -2223 0
-2147 -2224 0
-2148 -2149 0
-2148 -2150 0
-2148 -2151 0
-2148 -2152 0
-2148 -2153 0
-2148 -2154 0
-2148 -2155 0
-2148 -2156 0
-2148 -2157 0
-2148 -2158 0
-2148 -2159 0
-2148 -2160 0
-2148 -2161 0
-2148 -2162 0
-2148 -2163 0
-2148 -2164 0
-2148 -2165 0
-2148 -2166 0
-2148 -2167 0
-2148 -2168 0
-2148 -2169 0
-2148 -2170 0
-2148 -2171 0
-2148 -2172 0
-2148 -2173 0
-2148 -2174 0
-2148 -2175 0
-2148 -2176 0
-2148 -2177 0
-2148 -2178 0
-2148 -2179 0
-2148 -2180 0
-2148 -2181 0
-2148 -2182 0
-2148 -2183 0
-2148 -2184 0
-2148 -2185 0
-2148 -2186 0
-2148 -2187 0
-2148 -2188 0
-2148 -2189 0
-2148 -2190 0
-2148 -2191 0
-2148 -2192 0
-2148 -2193 0
-2148 -2194 0
-2148 -2195 0
-2148 -2196 0
-2148 -2197 0
-2148 -2198 0
-2148 -2199 0
-2148 -2200 0
-2148 -2201 0
-2148 -2202 0
-2148 -2203 0
-2148 -2204 0
-2148 -2205 0
-2148 -2206 0
-2148 -2207 0
-2148 -2208 0
-2148 -2209 0
-2148 -2210 0
-2148 -2211 0
-2148 -2212 0
-2148 -2213 0
-2148 -2214 0
-2148 -2215 0
-2148 -2216 0
-2148 -2217 0
-2148 -2218 0
-2148 -2219 0
-2148 -2220 0
-2148 -2221 0
-2148 -2222 0
-2148 -2223 0
-2148 -2224 0
-2149 -2150 0
-2149 -2151 0
-2149 -2152 0
-2149 -2153 0
-2149 -2154 0
-2149 -2155 0
-2149 -2156 0
-2149 -2157 0
-2149 -2158 0
-2149 -2159 0
-2149 -2160 0
-2149 -2161 0
-2149 -2162 0
-2149 -2163 0
-2149 -2164 0
-2149 -2165 0
-2149 -2166 0
-2149 -2167 0
-2149 -2168 0
-2149 -2169 0
-2149 -2170 0
-2149 -2171 0
-2149 -2172 0
-2149 -2173 0
-2149 -2174 0
-2149 -2175 0
-2149 -2176 0
-2149 -2177 0
-2149 -2178 0
-2149 -2179 0
-2149 -2180 0
-2149 -2181 0
-2149 -2182 0
-2149 -2183 0
-2149 -2184 0
-2149 -2185 0
-2149 -2186 0
-2149 -2187 0
-2149 -2188 0
-2149 -2189 0
-2149 -2190 0
-2149 -2191 0
-2149 -2192 0
-2149 -2193 0
-2149 -2194 0
-2149 -2195 0
-2149 -2196 0
-2149 -2197 0
-2149 -2198 0
-2149 -2199 0
-2149 -2200 0
-2149 -2201 0
-2149 -2202 0
-2149 -2203 0
-2149 -2204 0
-2149 -2205 0
-2149 -2206 0
-2149 -2207 0
-2149 -2208 0
-2149 -2209 0
-2149 -2210 0
-2149 -2211 0
-2149 -2212 0
-2149 -2213 0
-2149 -2214 0
-2149 -2215 0
-2149 -2216 0
-2149 -2217 0
-2149 -2218 0
-2149 -2219 0
-2149 -2220 0
-2149 -2221 0
-2149 -2222 0
-2149 -2223 0
-2149 -2224 0
-2150 -2151 0
-2150 -2152 0
-2150 -2153 0
-2150 -2154 0
-2150 -2155 0
-2150 -2156 0
-2150 -2157 0
-2150 -2158 0
-2150 -2159 0
-2150 -2160 0
-2150 -2161 0
-2150 -2162 0
-2150 -2163 0
-2150 -2164 0
-2150 -2165 0
-2150 -2166 0
-2150 -2167 0
-2150 -2168 0
-2150 -2169 0
-2150 -2170 0
-2150 -2171 0
-2150 -2172 0
-2150 -2173 0
-2150 -2174 0
-2150 -2175 0
-2150 -2176 0
-2150 -2177 0
-2150 -2178 0
-2150 -2179 0
-2150 -2180 0
-2150 -2181 0
-2150 -2182 0
-2150 -2183 0
-2150 -2184 0
-2150 -2185 0
-2150 -2186 0
-2150 -2187 0
-2150 -2188 0
-2150 -2189 0
-2150 -2190 0
-2150 -2191 0
-2150 -2192 0
-2150 -2193 0
-2150 -2194 0
-2150 -2195 0
-2150 -2196 0
-2150 -2197 0
-2150 -2198 0
-2150 -2199 0
-2150 -2200 0
-2150 -2201 0
-2150 -2202 0
-2150 -2203 0
-2150 -2204 0
-2150 -2205 0
-2150 -2206 0
-2150 -2207 0
-2150 -2208 0
-2150 -2209 0
-2150 -2210 0
-2150 -2211 0
-2150 -2212 0
-2150 -2213 0
-2150 -2214 0
-2150 -2215 0
-2150 -2216 0
-2150 -2217 0
-2150 -2218 0
-2150 -2219 0
-2150 -2220 0
-2150 -2221 0
-2150 -2222 0
-2150 -2223 0
-2150 -2224 0
-2151 -2152 0
-2151 -2153 0
-2151 -2154 0
-2151 -2155 0
-2151 -2156 0
-2151 -2157 0
-2151 -2158 0
-2151 -2159 0
-2151 -2160 0
-2151 -2161 0
-2151 -2162 0
-2151 -2163 0
-2151 -2164 0
-2151 -2165 0
-2151 -2166 0
-2151 -2167 0
-2151 -2168 0
-2151 -2169 0
-2151 -2170 0
-2151 -2171 0
-2151 -2172 0
-2151 -2173 0
-2151 -2174 0
-2151 -2175 0
-2151 -2176 0
-2151 -2177 0
-2151 -2178 0
-2151 -2179 0
-2151 -2180 0
-2151 -2181 0
-2151 -2182 0
-2151 -2183 0
-2151 -2184 0
-2151 -2185 0
-2151 -2186 0
-2151 -2187 0
-2151 -2188 0
-2151 -2189 0
-2151 -2190 0
-2151 -2191 0
-2151 -2192 0
-2151 -2193 0
-2151 -2194 0
-2151 -2195 0
-2151 -2196 0
-2151 -2197 0
-2151 -2198 0
-2151 -2199 0
-2151 -2200 0
-2151 -2201 0
-2151 -2202 0
-2151 -2203 0
-2151 -2204 0
-2151 -2205 0
-2151 -2206 0
-2151 -2207 0
-2151 -2208 0
-2151 -2209 0
-2151 -2210 0
-2151 -2211 0
-2151 -2212 0
-2151 -2213 0
-2151 -2214 0
-2151 -2215 0
-2151 -2216 0
-2151 -2217 0
-2151 -2218 0
-2151 -2219 0
-2151 -2220 0
-2151 -2221 0
-2151 -2222 0
-2151 -2223 0
-2151 -2224 0
-2152 -2153 0
-2152 -2154 0
-2152 -2155 0
-2152 -2156 0
-2152 -2157 0
-2152 -2158 0
-2152 -2159 0
-2152 -2160 0
-2152 -2161 0
-2152 -2162 0
-2152 -2163 0
-2152 -2164 0
-2152 -2165 0
-2152 -2166 0
-2152 -2167 0
-2152 -2168 0
-2152 -2169 0
-2152 -2170 0
-2152 -2171 0
-2152 -2172 0
-2152 -2173 0
-2152 -2174 0
-2152 -2175 0
-2152 -2176 0
-2152 -2177 0
-2152 -2178 0
-2152 -2179 0
-2152 -2180 0
-2152 -2181 0
-2152 -2182 0
-2152 -2183 0
-2152 -2184 0
-2152 -2185 0
-2152 -2186 0
-2152 -2187 0
-2152 -2188 0
-2152 -2189 0
-2152 -2190 0
-2152 -2191 0
-2152 -2192 0
-2152 -2193 0
-2152 -2194 0
-2152 -2195 0
-2152 -2196 0
-2152 -2197 0
-2152 -2198 0
-2152 -2199 0
-2152 -2200 0
-2152 -2201 0
-2152 -2202 0
-2152 -2203 0
-2152 -2204 0
-2152 -2205 0
-2152 -2206 0
-2152 -2207 0
-2152 -2208 0
-2152 -2209 0
-2152 -2210 0
-2152 -2211 0
-2152 -2212 0
-2152 -2213 0
-2152 -2214 0
-2152 -2215 0
-2152 -2216 0
-2152 -2217 0
-2152 -2218 0
-2152 -2219 0
-2152 -2220 0
-2152 -2221 0
-2152 -2222 0
-2152 -2223 0
-2152 -2224 0
-2153 -2154 0
-2153 -2155 0
-2153 -2156 0
-2153 -2157 0
-2153 -2158 0
-2153 -2159 0
-2153 -2160 0
-2153 -2161 0
-2153 -2162 0
-2153 -2163 0
-2153 -2164 0
-2153 -2165 0
-2153 -2166 0
-2153 -2167 0
-2153 -2168 0
-2153 -2169 0
-2153 -2170 0
-2153 -2171 0
-2153 -2172 0
-2153 -2173 0
-2153 -2174 0
-2153 -2175 0
-2153 -2176 0
-2153 -2177 0
-2153 -2178 0
-2153 -2179 0
-2153 -2180 0
-2153 -2181 0
-2153 -2182 0
-2153 -2183 0
-2153 -2184 0
-2153 -2185 0
-2153 -2186 0
-2153 -2187 0
-2153 -2188 0
-2153 -2189 0
-2153 -2190 0
-2153 -2191 0
-2153 -2192 0
-2153 -2193 0
-2153 -2194 0
-2153 -2195 0
-2153 -2196 0
-2153 -2197 0
-2153 -2198 0
-2153 -2199 0
-2153 -2200 0
-2153 -2201 0
-2153 -2202 0
-2153 -2203 0
-2153 -2204 0
-2153 -2205 0
-2153 -2206 0
-2153 -2207 0
-2153 -2208 0
-2153 -2209 0
-2153 -2210 0
-2153 -2211 0
-2153 -2212 0
-2153 -2213 0
-2153 -2214 0
-2153 -2215 0
-2153 -2216 0
-2153 -2217 0
-2153 -2218 0
-2153 -2219 0
-2153 -2220 0
-2153 -2221 0
-2153 -2222 0
-2153 -2223 0
-2153 -2224 0
-2154 -2155 0
-2154 -2156 0
-2154 -2157 0
-2154 -2158 0
-2154 -2159 0
-2154 -2160 0
-2154 -2161 0
-2154 -2162 0
-2154 -2163 0
-2154 -2164 0
-2154 -2165 0
-2154 -2166 0
-2154 -2167 0
-2154 -2168 0
-2154 -2169 0
-2154 -2170 0
-2154 -2171 0
-2154 -2172 0
-2154 -2173 0
-2154 -2174 0
-2154 -2175 0
-2154 -2176 0
-2154 -2177 0
-2154 -2178 0
-2154 -2179 0
-2154 -2180 0
-2154 -2181 0
-2154 -2182 0
-2154 -2183 0
-2154 -2184 0
-2154 -2185 0
-2154 -2186 0
-2154 -2187 0
-2154 -2188 0
-2154 -2189 0
-2154 -2190 0
-2154 -2191 0
-2154 -2192 0
-2154 -2193 0
-2154 -2194 0
-2154 -2195 0
-2154 -2196 0
-2154 -2197 0
-2154 -2198 0
-2154 -2199 0
-2154 -2200 0
-2154 -2201 0
-2154 -2202 0
-2154 -2203 0
-2154 -2204 0
-2154 -2205 0
-2154 -2206 0
-2154 -2207 0
-2154 -2208 0
-2154 -2209 0
-2154 -2210 0
-2154 -2211 0
-2154 -2212 0
-2154 -2213 0
-2154 -2214 0
-2154 -2215 0
-2154 -2216 0
-2154 -2217 0
-2154 -2218 0
-2154 -2219 0
-2154 -2220 0
-2154 -2221 0
-2154 -2222 0
-2154 -2223 0
-2154 -2224 0
-2155 -2156 0
-2155 -2157 0
-2155 -2158 0
-2155 -2159 0
-2155 -2160 0
-2155 -2161 0
-2155 -2162 0
-2155 -2163 0
-2155 -2164 0
-2155 -2165 0
-2155 -2166 0
-2155 -2167 0
-2155 -2168 0
-2155 -2169 0
-2155 -2170 0
-2155 -2171 0
-2155 -2172 0
-2155 -2173 0
-2155 -2174 0
-2155 -2175 0
-2155 -2176 0
-2155 -2177 0
-2155 -2178 0
-2155 -2179 0
-2155 -2180 0
-2155 -2181 0
-2155 -2182 0
-2155 -2183 0
-2155 -2184 0
-2155 -2185 0
-2155 -2186 0
-2155 -2187 0
-2155 -2188 0
-2155 -2189 0
-2155 -2190 0
-2155 -2191 0
-2155 -2192 0
-2155 -2193 0
-2155 -2194 0
-2155 -2195 0
-2155 -2196 0
-2155 -2197 0
-2155 -2198 0
-2155 -2199 0
-2155 -2200 0
-2155 -2201 0
-2155 -2202 0
-2155 -2203 0
-2155 -2204 0
-2155 -2205 0
-2155 -2206 0
-2155 -2207 0
-2155 -2208 0
-2155 -2209 0
-2155 -2210 0
-2155 -2211 0
-2155 -2212 0
-2155 -2213 0
-2155 -2214 0
-2155 -2215 0
-2155 -2216 0
-2155 -2217 0
-2155 -2218 0
-2155 -2219 0
-2155 -2220 0
-2155 -2221 0
-2155 -2222 0
-2155 -2223 0
-2155 -2224 0
-2156 -2157 0
-2156 -2158 0
-2156 -2159 0
-2156 -2160 0
-2156 -2161 0
-2156 -2162 0
-2156 -2163 0
-2156 -2164 0
-2156 -2165 0
-2156 -2166 0
-2156 -2167 0
-2156 -2168 0
-2156 -2169 0
-2156 -2170 0
-2156 -2171 0
-2156 -2172 0
-2156 -2173 0
-2156 -2174 0
-2156 -2175 0
-2156 -2176 0
-2156 -2177 0
-2156 -2178 0
-2156 -2179 0
-2156 -2180 0
-2156 -2181 0
-2156 -2182 0
-2156 -2183 0
-2156 -2184 0
-2156 -2185 0
-2156 -2186 0
-2156 -2187 0
-2156 -2188 0
-2156 -2189 0
-2156 -2190 0
-2156 -2191 0
-2156 -2192 0
-2156 -2193 0
-2156 -2194 0
-2156 -2195 0
-2156 -2196 0
-2156 -2197 0
-2156 -2198 0
-2156 -2199 0
-2156 -2200 0
-2156 -2201 0
-2156 -2202 0
-2156 -2203 0
-2156 -2204 0
-2156 -2205 0
-2156 -2206 0
-2156 -2207 0
-2156 -2208 0
-2156 -2209 0
-2156 -2210 0
-2156 -2211 0
-2156 -2212 0
-2156 -2213 0
-2156 -2214 0
-2156 -2215 0
-2156 -2216 0
-2156 -2217 0
-2156 -2218 0
-2156 -2219 0
-2156 -2220 0
-2156 -2221 0
-2156 -2222 0
-2156 -2223 0
-2156 -2224 0
-2157 -2158 0
-2157 -2159 0
-2157 -2160 0
-2157 -2161 0
-2157 -2162 0
-2157 -2163 0
-2157 -2164 0
-2157 -2165 0
-2157 -2166 0
-2157 -2167 0
-2157 -2168 0
-2157 -2169 0
-2157 -2170 0
-2157 -2171 0
-2157 -2172 0
-2157 -2173 0
-2157 -2174 0
-2157 -2175 0
-2157 -2176 0
-2157 -2177 0
-2157 -2178 0
-2157 -2179 0
-2157 -2180 0
-2157 -2181 0
-2157 -2182 0
-2157 -2183 0
-2157 -2184 0
-2157 -2185 0
-2157 -2186 0
-2157 -2187 0
-2157 -2188 0
-2157 -2189 0
-2157 -2190 0
-2157 -2191 0
-2157 -2192 0
-2157 -2193 0
-2157 -2194 0
-2157 -2195 0
-2157 -2196 0
-2157 -2197 0
-2157 -2198 0
-2157 -2199 0
-2157 -2200 0
-2157 -2201 0
-2157 -2202 0
-2157 -2203 0
-2157 -2204 0
-2157 -2205 0
-2157 -2206 0
-2157 -2207 0
-2157 -2208 0
-2157 -2209 0
-2157 -2210 0
-2157 -2211 0
-2157 -2212 0
-2157 -2213 0
-2157 -2214 0
-2157 -2215 0
-2157 -2216 0
-2157 -2217 0
-2157 -2218 0
-2157 -2219 0
-2157 -2220 0
-2157 -2221 0
-2157 -2222 0
-2157 -2223 0
-2157 -2224 0
-2158 -2159 0
-2158 -2160 0
-2158 -2161 0
-2158 -2162 0
-2158 -2163 0
-2158 -2164 0
-2158 -2165 0
-2158 -2166 0
-2158 -2167 0
-2158 -2168 0
-2158 -2169 0
-2158 -2170 0
-2158 -2171 0
-2158 -2172 0
-2158 -2173 0
-2158 -2174 0
-2158 -2175 0
-2158 -2176 0
-2158 -2177 0
-2158 -2178 0
-2158 -2179 0
-2158 -2180 0
-2158 -2181 0
-2158 -2182 0
-2158 -2183 0
-2158 -2184 0
-2158 -2185 0
-2158 -2186 0
-2158 -2187 0
-2158 -2188 0
-2158 -2189 0
-2158 -2190 0
-2158 -2191 0
-2158 -2192 0
-2158 -2193 0
-2158 -2194 0
-2158 -2195 0
-2158 -2196 0
-2158 -2197 0
-2158 -2198 0
-2158 -2199 0
-2158 -2200 0
-2158 -2201 0
-2158 -2202 0
-2158 -2203 0
-2158 -2204 0
-2158 -2205 0
-2158 -2206 0
-2158 -2207 0
-2158 -2208 0
-2158 -2209 0
-2158 -2210 0
-2158 -2211 0
-2158 -2212 0
-2158 -2213 0
-2158 -2214 0
-2158 -2215 0
-2158 -2216 0
-2158 -2217 0
-2158 -2218 0
-2158 -2219 0
-2158 -2220 0
-2158 -2221 0
-2158 -2222 0
-2158 -2223 0
-2158 -2224 0
-2159 -2160 0
-2159 -2161 0
-2159 -2162 0
-2159 -2163 0
-2159 -2164 0
-2159 -2165 0
-2159 -2166 0
-2159 -2167 0
-2159 -2168 0
-2159 -2169 0
-2159 -2170 0
-2159 -2171 0
-2159 -2172 0
-2159 -2173 0
-2159 -2174 0
-2159 -2175 0
-2159 -2176 0
-2159 -2177 0
-2159 -2178 0
-2159 -2179 0
-2159 -2180 0
-2159 -2181 0
-2159 -2182 0
-2159 -2183 0
-2159 -2184 0
-2159 -2185 0
-2159 -2186 0
-2159 -2187 0
-2159 -2188 0
-2159 -2189 0
-2159 -2190 0
-2159 -2191 0
-2159 -2192 0
-2159 -2193 0
-2159 -2194 0
-2159 -2195 0
-2159 -2196 0
-2159 -2197 0
-2159 -2198 0
-2159 -2199 0
-2159 -2200 0
-2159 -2201 0
-2159 -2202 0
-2159 -2203 0
-2159 -2204 0
-2159 -2205 0
-2159 -2206 0
-2159 -2207 0
-2159 -2208 0
-2159 -2209 0
-2159 -2210 0
-2159 -2211 0
-2159 -2212 0
-2159 -2213 0
-2159 -2214 0
-2159 -2215 0
-2159 -2216 0
-2159 -2217 0
-2159 -2218 0
-2159 -2219 0
-2159 -2220 0
-2159 -2221 0
-2159 -2222 0
-2159 -2223 0
-2159 -2224 0
-2160 -2161 0
-2160 -2162 0
-2160 -2163 0
-2160 -2164 0
-2160 -2165 0
-2160 -2166 0
-2160 -2167 0
-2160 -2168 0
-2160 -2169 0
-2160 -2170 0
-2160 -2171 0
-2160 -2172 0
-2160 -2173 0
-2160 -2174 0
-2160 -2175 0
-2160 -2176 0
-2160 -2177 0
-2160 -2178 0
-2160 -2179 0
-2160 -2180 0
-2160 -2181 0
-2160 -2182 0
-2160 -2183 0
-2160 -2184 0
-2160 -2185 0
-2160 -2186 0
-2160 -2187 0
-2160 -2188 0
-2160 -2189 0
-2160 -2190 0
-2160 -2191 0
-2160 -2192 0
-2160 -2193 0
-2160 -2194 0
-2160 -2195 0
-2160 -2196 0
-2160 -2197 0
-2160 -2198 0
-2160 -2199 0
-2160 -2200 0
-2160 -2201 0
-2160 -2202 0
-2160 -2203 0
-2160 -2204 0
-2160 -2205 0
-2160 -2206 0
-2160 -2207 0
-2160 -2208 0
-2160 -2209 0
-2160 -2210 0
-2160 -2211 0
-2160 -2212 0
-2160 -2213 0
-2160 -2214 0
-2160 -2215 0
-2160 -2216 0
-2160 -2217 0
-2160 -2218 0
-2160 -2219 0
-2160 -2220 0
-2160 -2221 0
-2160 -2222 0
-2160 -2223 0
-2160 -2224 0
-2161 -2162 0
-2161 -2163 0
-2161 -2164 0
-2161 -2165 0
-2161 -2166 0
-2161 -2167 0
-2161 -2168 0
-2161 -2169 0
-2161 -2170 0
-2161 -2171 0
-2161 -2172 0
-2161 -2173 0
-2161 -2174 0
-2161 -2175 0
-2161 -2176 0
-2161 -2177 0
-2161 -2178 0
-2161 -2179 0
-2161 -2180 0
-2161 -2181 0
-2161 -2182 0
-2161 -2183 0
-2161 -2184 0
-2161 -2185 0
-2161 -2186 0
-2161 -2187 0
-2161 -2188 0
-2161 -2189 0
-2161 -2190 0
-2161 -2191 0
-2161 -2192 0
-2161 -2193 0
-2161 -2194 0
-2161 -2195 0
-2161 -2196 0
-2161 -2197 0
-2161 -2198 0
-2161 -2199 0
-2161 -2200 0
-2161 -2201 0
-2161 -2202 0
-2161 -2203 0
-2161 -2204 0
-2161 -2205 0
-2161 -2206 0
-2161 -2207 0
-2161 -2208 0
-2161 -2209 0
-2161 -2210 0
-2161 -2211 0
-2161 -2212 0
-2161 -2213 0
-2161 -2214 0
-2161 -2215 0
-2161 -2216 0
-2161 -2217 0
-2161 -2218 0
-2161 -2219 0
-2161 -2220 0
-2161 -2221 0
-2161 -2222 0
-2161 -2223 0
-2161 -2224 0
-2162 -2163 0
-2162 -2164 0
-2162 -2165 0
-2162 -2166 0
-2162 -2167 0
-2162 -2168 0
-2162 -2169 0
-2162 -2170 0
-2162 -2171 0
-2162 -2172 0
-2162 -2173 0
-2162 -2174 0
-2162 -2175 0
-2162 -2176 0
-2162 -2177 0
-2162 -2178 0
-2162 -2179 0
-2162 -2180 0
-2162 -2181 0
-2162 -2182 0
-2162 -2183 0
-2162 -2184 0
-2162 -2185 0
-2162 -2186 0
-2162 -2187 0
-2162 -2188 0
-2162 -2189 0
-2162 -2190 0
-2162 -2191 0
-2162 -2192 0
-2162 -2193 0
-2162 -2194 0
-2162 -2195 0
-2162 -2196 0
-2162 -2197 0
-2162 -2198 0
-2162 -2199 0
-2162 -2200 0
-2162 -2201 0
-2162 -2202 0
-2162 -2203 0
-2162 -2204 0
-2162 -2205 0
-2162 -2206 0
-2162 -2207 0
-2162 -2208 0
-2162 -2209 0
-2162 -2210 0
-2162 -2211 0
-2162 -2212 0
-2162 -2213 0
-2162 -2214 0
-2162 -2215 0
-2162 -2216 0
-2162 -2217 0
-2162 -2218 0
-2162 -2219 0
-2162 -2220 0
-2162 -2221 0
-2162 -2222 0
-2162 -2223 0
-2162 -2224 0
-2163 -2164 0
-2163 -2165 0
-2163 -2166 0
-2163 -2167 0
-2163 -2168 0
-2163 -2169 0
-2163 -2170 0
-2163 -2171 0
-2163 -2172 0
-2163 -2173 0
-2163 -2174 0
-2163 -2175 0
-2163 -2176 0
-2163 -2177 0
-2163 -2178 0
-2163 -2179 0
-2163 -2180 0
-2163 -2181 0
-2163 -2182 0
-2163 -2183 0
-2163 -2184 0
-2163 -2185 0
-2163 -2186 0
-2163 -2187 0
-2163 -2188 0
-2163 -2189 0
-2163 -2190 0
-2163 -2191 0
-2163 -2192 0
-2163 -2193 0
-2163 -2194 0
-2163 -2195 0
-2163 -2196 0
-2163 -2197 0
-2163 -2198 0
-2163 -2199 0
-2163 -2200 0
-2163 -2201 0
-2163 -2202 0
-2163 -2203 0
-2163 -2204 0
-2163 -2205 0
-2163 -2206 0
-2163 -2207 0
-2163 -2208 0
-2163 -2209 0
-2163 -2210 0
-2163 -2211 0
-2163 -2212 0
-2163 -2213 0
-2163 -2214 0
-2163 -2215 0
-2163 -2216 0
-2163 -2217 0
-2163 -2218 0
-2163 -2219 0
-2163 -2220 0
-2163 -2221 0
-2163 -2222 0
-2163 -2223 0
-2163 -2224 0
-2164 -2165 0
-2164 -2166 0
-2164 -2167 0
-2164 -2168 0
-2164 -2169 0
-2164 -2170 0
-2164 -2171 0
-2164 -2172 0
-2164 -2173 0
-2164 -2174 0
-2164 -2175 0
-2164 -2176 0
-2164 -2177 0
-2164 -2178 0
-2164 -2179 0
-2164 -2180 0
-2164 -2181 0
-2164 -2182 0
-2164 -2183 0
-2164 -2184 0
-2164 -2185 0
-2164 -2186 0
-2164 -2187 0
-2164 -2188 0
-2164 -2189 0
-2164 -2190 0
-2164 -2191 0
-2164 -2192 0
-2164 -2193 0
-2164 -2194 0
-2164 -2195 0
-2164 -2196 0
-2164 -2197 0
-2164 -2198 0
-2164 -2199 0
-2164 -2200 0
-2164 -2201 0
-2164 -2202 0
-2164 -2203 0
-2164 -2204 0
-2164 -2205 0
-2164 -2206 0
-2164 -2207 0
-2164 -2208 0
-2164 -2209 0
-2164 -2210 0
-2164 -2211 0
-2164 -2212 0
-2164 -2213 0
-2164 -2214 0
-2164 -2215 0
-2164 -2216 0
-2164 -2217 0
-2164 -2218 0
-2164 -2219 0
-2164 -2220 0
-2164 -2221 0
-2164 -2222 0
-2164 -2223 0
-2164 -2224 0
-2165 -2166 0
-2165 -2167 0
-2165 -2168 0
-2165 -2169 0
-2165 -2170 0
-2165 -2171 0
-2165 -2172 0
-2165 -2173 0
-2165 -2174 0
-2165 -2175 0
-2165 -2176 0
-2165 -2177 0
-2165 -2178 0
-2165 -2179 0
-2165 -2180 0
-2165 -2181 0
-2165 -2182 0
-2165 -2183 0
-2165 -2184 0
-2165 -2185 0
-2165 -2186 0
-2165 -2187 0
-2165 -2188 0
-2165 -2189 0
-2165 -2190 0
-2165 -2191 0
-2165 -2192 0
-2165 -2193 0
-2165 -2194 0
-2165 -2195 0
-2165 -2196 0
-2165 -2197 0
-2165 -2198 0
-2165 -2199 0
-2165 -2200 0
-2165 -2201 0
-2165 -2202 0
-2165 -2203 0
-2165 -2204 0
-2165 -2205 0
-2165 -2206 0
-2165 -2207 0
-2165 -2208 0
-2165 -2209 0
-2165 -2210 0
-2165 -2211 0
-2165 -2212 0
-2165 -2213 0
-2165 -2214 0
-2165 -2215 0
-2165 -2216 0
-2165 -2217 0
-2165 -2218 0
-2165 -2219 0
-2165 -2220 0
-2165 -2221 0
-2165 -2222 0
-2165 -2223 0
-2165 -2224 0
-2166 -2167 0
-2166 -2168 0
-2166 -2169 0
-2166 -2170 0
-2166 -2171 0
-2166 -2172 0
-2166 -2173 0
-2166 -2174 0
-2166 -2175 0
-2166 -2176 0
-2166 -2177 0
-2166 -2178 0
-2166 -2179 0
-2166 -2180 0
-2166 -2181 0
-2166 -2182 0
-2166 -2183 0
-2166 -2184 0
-2166 -2185 0
-2166 -2186 0
-2166 -2187 0
-2166 -2188 0
-2166 -2189 0
-2166 -2190 0
-2166 -2191 0
-2166 -2192 0
-2166 -2193 0
-2166 -2194 0
-2166 -2195 0
-2166 -2196 0
-2166 -2197 0
-2166 -2198 0
-2166 -2199 0
-2166 -2200 0
-2166 -2201 0
-2166 -2202 0
-2166 -2203 0
-2166 -2204 0
-2166 -2205 0
-2166 -2206 0
-2166 -2207 0
-2166 -2208 0
-2166 -2209 0
-2166 -2210 0
-2166 -2211 0
-2166 -2212 0
-2166 -2213 0
-2166 -2214 0
-2166 -2215 0
-2166 -2216 0
-2166 -2217 0
-2166 -2218 0
-2166 -2219 0
-2166 -2220 0
-2166 -2221 0
-2166 -2222 0
-2166 -2223 0
-2166 -2224 0
-2167 -2168 0
-2167 -2169 0
-2167 -2170 0
-2167 -2171 0
-2167 -2172 0
-2167 -2173 0
-2167 -2174 0
-2167 -2175 0
-2167 -2176 0
-2167 -2177 0
-2167 -2178 0
-2167 -2179 0
-2167 -2180 0
-2167 -2181 0
-2167 -2182 0
-2167 -2183 0
-2167 -2184 0
-2167 -2185 0
-2167 -2186 0
-2167 -2187 0
-2167 -2188 0
-2167 -2189 0
-2167 -2190 0
-2167 -2191 0
-2167 -2192 0
-2167 -2193 0
-2167 -2194 0
-2167 -2195 0
-2167 -2196 0
-2167 -2197 0
-2167 -2198 0
-2167 -2199 0
-2167 -2200 0
-2167 -2201 0
-2167 -2202 0
-2167 -2203 0
-2167 -2204 0
-2167 -2205 0
-2167 -2206 0
-2167 -2207 0
-2167 -2208 0
-2167 -2209 0
-2167 -2210 0
-2167 -2211 0
-2167 -2212 0
-2167 -2213 0
-2167 -2214 0
-2167 -2215 0
-2167 -2216 0
-2167 -2217 0
-2167 -2218 0
-2167 -2219 0
-2167 -2220 0
-2167 -2221 0
-2167 -2222 0
-2167 -2223 0
-2167 -2224 0
-2168 -2169 0
-2168 -2170 0
-2168 -2171 0
-2168 -2172 0
-2168 -2173 0
-2168 -2174 0
-2168 -2175 0
-2168 -2176 0
-2168 -2177 0
-2168 -2178 0
-2168 -2179 0
-2168 -2180 0
-2168 -2181 0
-2168 -2182 0
-2168 -2183 0
-2168 -2184 0
-2168 -2185 0
-2168 -2186 0
-2168 -2187 0
-2168 -2188 0
-2168 -2189 0
-2168 -2190 0
-2168 -2191 0
-2168 -2192 0
-2168 -2193 0
-2168 -2194 0
-2168 -2195 0
-2168 -2196 0
-2168 -2197 0
-2168 -2198 0
-2168 -2199 0
-2168 -2200 0
-2168 -2201 0
-2168 -2202 0
-2168 -2203 0
-2168 -2204 0
-2168 -2205 0
-2168 -2206 0
-2168 -2207 0
-2168 -2208 0
-2168 -2209 0
-2168 -2210 0
-2168 -2211 0
-2168 -2212 0
-2168 -2213 0
-2168 -2214 0
-2168 -2215 0
-2168 -2216 0
-2168 -2217 0
-2168 -2218 0
-2168 -2219 0
-2168 -2220 0
-2168 -2221 0
-2168 -2222 0
-2168 -2223 0
-2168 -2224 0
-2169 -2170 0
-2169 -2171 0
-2169 -2172 0
-2169 -2173 0
-2169 -2174 0
-2169 -2175 0
-2169 -2176 0
-2169 -2177 0
-2169 -2178 0
-2169 -2179 0
-2169 -2180 0
-2169 -2181 0
-2169 -2182 0
-2169 -2183 0
-2169 -2184 0
-2169 -2185 0
-2169 -2186 0
-2169 -2187 0
-2169 -2188 0
-2169 -2189 0
-2169 -2190 0
-2169 -2191 0
-2169 -2192 0
-2169 -2193 0
-2169 -2194 0
-2169 -2195 0
-2169 -2196 0
-2169 -2197 0
-2169 -2198 0
-2169 -2199 0
-2169 -2200 0
-2169 -2201 0
-2169 -2202 0
-2169 -2203 0
-2169 -2204 0
-2169 -2205 0
-2169 -2206 0
-2169 -2207 0
-2169 -2208 0
-2169 -2209 0
-2169 -2210 0
-2169 -2211 0
-2169 -2212 0
-2169 -2213 0
-2169 -2214 0
-2169 -2215 0
-2169 -2216 0
-2169 -2217 0
-2169 -2218 0
-2169 -2219 0
-2169 -2220 0
-2169 -2221 0
-2169 -2222 0
-2169 -2223 0
-2169 -2224 0
-2170 -2171 0
-2170 -2172 0
-2170 -2173 0
-2170 -2174 0
-2170 -2175 0
-2170 -2176 0
-2170 -2177 0
-2170 -2178 0
-2170 -2179 0
-2170 -2180 0
-2170 -2181 0
-2170 -2182 0
-2170 -2183 0
-2170 -2184 0
-2170 -2185 0
-2170 -2186 0
-2170 -2187 0
-2170 -2188 0
-2170 -2189 0
-2170 -2190 0
-2170 -2191 0
-2170 -2192 0
-2170 -2193 0
-2170 -2194 0
-2170 -2195 0
-2170 -2196 0
-2170 -2197 0
-2170 -2198 0
-2170 -2199 0
-2170 -2200 0
-2170 -2201 0
-2170 -2202 0
-2170 -2203 0
-2170 -2204 0
-2170 -2205 0
-2170 -2206 0
-2170 -2207 0
-2170 -2208 0
-2170 -2209 0
-2170 -2210 0
-2170 -2211 0
-2170 -2212 0
-2170 -2213 0
-2170 -2214 0
-2170 -2215 0
-2170 -2216 0
-2170 -2217 0
-2170 -2218 0
-2170 -2219 0
-2170 -2220 0
-2170 -2221 0
-2170 -2222 0
-2170 -2223 0
-2170 -2224 0
-2171 -2172 0
-2171 -2173 0
-2171 -2174 0
-2171 -2175 0
-2171 -2176 0
-2171 -2177 0
-2171 -2178 0
-2171 -2179 0
-2171 -2180 0
-2171 -2181 0
-2171 -2182 0
-2171 -2183 0
-2171 -2184 0
-2171 -2185 0
-2171 -2186 0
-2171 -2187 0
-2171 -2188 0
-2171 -2189 0
-2171 -2190 0
-2171 -2191 0
-2171 -2192 0
-2171 -2193 0
-2171 -2194 0
-2171 -2195 0
-2171 -2196 0
-2171 -2197 0
-2171 -2198 0
-2171 -2199 0
-2171 -2200 0
-2171 -2201 0
-2171 -2202 0
-2171 -2203 0
-2171 -2204 0
-2171 -2205 0
-2171 -2206 0
-2171 -2207 0
-2171 -2208 0
-2171 -2209 0
-2171 -2210 0
-2171 -2211 0
-2171 -2212 0
-2171 -2213 0
-2171 -2214 0
-2171 -2215 0
-2171 -2216 0
-2171 -2217 0
-2171 -2218 0
-2171 -2219 0
-2171 -2220 0
-2171 -2221 0
-2171 -2222 0
-2171 -2223 0
-2171 -2224 0
-2172 -2173 0
-2172 -2174 0
-2172 -2175 0
-2172 -2176 0
-2172 -2177 0
-2172 -2178 0
-2172 -2179 0
-2172 -2180 0
-2172 -2181 0
-2172 -2182 0
-2172 -2183 0
-2172 -2184 0
-2172 -2185 0
-2172 -2186 0
-2172 -2187 0
-2172 -2188 0
-2172 -2189 0
-2172 -2190 0
-2172 -2191 0
-2172 -2192 0
-2172 -2193 0
-2172 -2194 0
-2172 -2195 0
-2172 -2196 0
-2172 -2197 0
-2172 -2198 0
-2172 -2199 0
-2172 -2200 0
-2172 -2201 0
-2172 -2202 0
-2172 -2203 0
-2172 -2204 0
-2172 -2205 0
-2172 -2206 0
-2172 -2207 0
-2172 -2208 0
-2172 -2209 0
-2172 -2210 0
-2172 -2211 0
-2172 -2212 0
-2172 -2213 0
-2172 -2214 0
-2172 -2215 0
-2172 -2216 0
-2172 -2217 0
-2172 -2218 0
-2172 -2219 0
-2172 -2220 0
-2172 -2221 0
-2172 -2222 0
-2172 -2223 0
-2172 -2224 0
-2173 -2174 0
-2173 -2175 0
-2173 -2176 0
-2173 -2177 0
-2173 -2178 0
-2173 -2179 0
-2173 -2180 0
-2173 -2181 0
-2173 -2182 0
-2173 -2183 0
-2173 -2184 0
-2173 -2185 0
-2173 -2186 0
-2173 -2187 0
-2173 -2188 0
-2173 -2189 0
-2173 -2190 0
-2173 -2191 0
-2173 -2192 0
-2173 -2193 0
-2173 -2194 0
-2173 -2195 0
-2173 -2196 0
-2173 -2197 0
-2173 -2198 0
-2173 -2199 0
-2173 -2200 0
-2173 -2201 0
-2173 -2202 0
-2173 -2203 0
-2173 -2204 0
-2173 -2205 0
-2173 -2206 0
-2173 -2207 0
-2173 -2208 0
-2173 -2209 0
-2173 -2210 0
-2173 -2211 0
-2173 -2212 0
-2173 -2213 0
-2173 -2214 0
-2173 -2215 0
-2173 -2216 0
-2173 -2217 0
-2173 -2218 0
-2173 -2219 0
-2173 -2220 0
-2173 -2221 0
-2173 -2222 0
-2173 -2223 0
-2173 -2224 0
-2174 -2175 0
-2174 -2176 0
-2174 -2177 0
-2174 -2178 0
-2174 -2179 0
-2174 -2180 0
-2174 -2181 0
-2174 -2182 0
-2174 -2183 0
-2174 -2184 0
-2174 -2185 0
-2174 -2186 0
-2174 -2187 0
-2174 -2188 0
-2174 -2189 0
-2174 -2190 0
-2174 -2191 0
-2174 -2192 0
-2174 -2193 0
-2174 -2194 0
-2174 -2195 0
-2174 -2196 0
-2174 -2197 0
-2174 -2198 0
-2174 -2199 0
-2174 -2200 0
-2174 -2201 0
-2174 -2202 0
-2174 -2203 0
-2174 -2204 0
-2174 -2205 0
-2174 -2206 0
-2174 -2207 0
-2174 -2208 0
-2174 -2209 0
-2174 -2210 0
-2174 -2211 0
-2174 -2212 0
-2174 -2213 0
-2174 -2214 0
-2174 -2215 0
-2174 -2216 0
-2174 -2217 0
-2174 -2218 0
-2174 -2219 0
-2174 -2220 0
-2174 -2221 0
-2174 -2222 0
-2174 -2223 0
-2174 -2224 0
-2175 -2176 0
-2175 -2177 0
-2175 -2178 0
-2175 -2179 0
-2175 -2180 0
-2175 -2181 0
-2175 -2182 0
-2175 -2183 0
-2175 -2184 0
-2175 -2185 0
-2175 -2186 0
-2175 -2187 0
-2175 -2188 0
-2175 -2189 0
-2175 -2190 0
-2175 -2191 0
-2175 -2192 0
-2175 -2193 0
-2175 -2194 0
-2175 -2195 0
-2175 -2196 0
-2175 -2197 0
-2175 -2198 0
-2175 -2199 0
-2175 -2200 0
-2175 -2201 0
-2175 -2202 0
-2175 -2203 0
-2175 -2204 0
-2175 -2205 0
-2175 -2206 0
-2175 -2207 0
-2175 -2208 0
-2175 -2209 0
-2175 -2210 0
-2175 -2211 0
-2175 -2212 0
-2175 -2213 0
-2175 -2214 0
-2175 -2215 0
-2175 -2216 0
-2175 -2217 0
-2175 -2218 0
-2175 -2219 0
-2175 -2220 0
-2175 -2221 0
-2175 -2222 0
-2175 -2223 0
-2175 -2224 0
-2176 -2177 0
-2176 -2178 0
-2176 -2179 0
-2176 -2180 0
-2176 -2181 0
-2176 -2182 0
-2176 -2183 0
-2176 -2184 0
-2176 -2185 0
-2176 -2186 0
-2176 -2187 0
-2176 -2188 0
-2176 -2189 0
-2176 -2190 0
-2176 -2191 0
-2176 -2192 0
-2176 -2193 0
-2176 -2194 0
-2176 -2195 0
-2176 -2196 0
-2176 -2197 0
-2176 -2198 0
-2176 -2199 0
-2176 -2200 0
-2176 -2201 0
-2176 -2202 0
-2176 -2203 0
-2176 -2204 0
-2176 -2205 0
-2176 -2206 0
-2176 -2207 0
-2176 -2208 0
-2176 -2209 0
-2176 -2210 0
-2176 -2211 0
-2176 -2212 0
-2176 -2213 0
-2176 -2214 0
-2176 -2215 0
-2176 -2216 0
-2176 -2217 0
-2176 -2218 0
-2176 -2219 0
-2176 -2220 0
-2176 -2221 0
-2176 -2222 0
-2176 -2223 0
-2176 -2224 0
-2177 -2178 0
-2177 -2179 0
-2177 -2180 0
-2177 -2181 0
-2177 -2182 0
-2177 -2183 0
-2177 -2184 0
-2177 -2185 0
-2177 -2186 0
-2177 -2187 0
-2177 -2188 0
-2177 -2189 0
-2177 -2190 0
-2177 -2191 0
-2177 -2192 0
-2177 -2193 0
-2177 -2194 0
-2177 -2195 0
-2177 -2196 0
-2177 -2197 0
-2177 -2198 0
-2177 -2199 0
-2177 -2200 0
-2177 -2201 0
-2177 -2202 0
-2177 -2203 0
-2177 -2204 0
-2177 -2205 0
-2177 -2206 0
-2177 -2207 0
-2177 -2208 0
-2177 -2209 0
-2177 -2210 0
-2177 -2211 0
-2177 -2212 0
-2177 -2213 0
-2177 -2214 0
-2177 -2215 0
-2177 -2216 0
-2177 -2217 0
-2177 -2218 0
-2177 -2219 0
-2177 -2220 0
-2177 -2221 0
-2177 -2222 0
-2177 -2223 0
-2177 -2224 0
-2178 -2179 0
-2178 -2180 0
-2178 -2181 0
-2178 -2182 0
-2178 -2183 0
-2178 -2184 0
-2178 -2185 0
-2178 -2186 0
-2178 -2187 0
-2178 -2188 0
-2178 -2189 0
-2178 -2190 0
-2178 -2191 0
-2178 -2192 0
-2178 -2193 0
-2178 -2194 0
-2178 -2195 0
-2178 -2196 0
-2178 -2197 0
-2178 -2198 0
-2178 -2199 0
-2178 -2200 0
-2178 -2201 0
-2178 -2202 0
-2178 -2203 0
-2178 -2204 0
-2178 -2205 0
-2178 -2206 0
-2178 -2207 0
-2178 -2208 0
-2178 -2209 0
-2178 -2210 0
-2178 -2211 0
-2178 -2212 0
-2178 -2213 0
-2178 -2214 0
-2178 -2215 0
-2178 -2216 0
-2178 -2217 0
-2178 -2218 0
-2178 -2219 0
-2178 -2220 0
-2178 -2221 0
-2178 -2222 0
-2178 -2223 0
-2178 -2224 0
-2179 -2180 0
-2179 -2181 0
-2179 -2182 0
-2179 -2183 0
-2179 -2184 0
-2179 -2185 0
-2179 -2186 0
-2179 -2187 0
-2179 -2188 0
-2179 -2189 0
-2179 -2190 0
-2179 -2191 0
-2179 -2192 0
-2179 -2193 0
-2179 -2194 0
-2179 -2195 0
-2179 -2196 0
-2179 -2197 0
-2179 -2198 0
-2179 -2199 0
-2179 -2200 0
-2179 -2201 0
-2179 -2202 0
-2179 -2203 0
-2179 -2204 0
-2179 -2205 0
-2179 -2206 0
-2179 -2207 0
-2179 -2208 0
-2179 -2209 0
-2179 -2210 0
-2179 -2211 0
-2179 -2212 0
-2179 -2213 0
-2179 -2214 0
-2179 -2215 0
-2179 -2216 0
-2179 -2217 0
-2179 -2218 0
-2179 -2219 0
-2179 -2220 0
-2179 -2221 0
-2179 -2222 0
-2179 -2223 0
-2179 -2224 0
-2180 -2181 0
-2180 -2182 0
-2180 -2183 0
-2180 -2184 0
-2180 -2185 0
-2180 -2186 0
-2180 -2187 0
-2180 -2188 0
-2180 -2189 0
-2180 -2190 0
-2180 -2191 0
-2180 -2192 0
-2180 -2193 0
-2180 -2194 0
-2180 -2195 0
-2180 -2196 0
-2180 -2197 0
-2180 -2198 0
-2180 -2199 0
-2180 -2200 0
-2180 -2201 0
-2180 -2202 0
-2180 -2203 0
-2180 -2204 0
-2180 -2205 0
-2180 -2206 0
-2180 -2207 0
-2180 -2208 0
-2180 -2209 0
-2180 -2210 0
-2180 -2211 0
-2180 -2212 0
-2180 -2213 0
-2180 -2214 0
-2180 -2215 0
-2180 -2216 0
-2180 -2217 0
-2180 -2218 0
-2180 -2219 0
-2180 -2220 0
-2180 -2221 0
-2180 -2222 0
-2180 -2223 0
-2180 -2224 0
-2181 -2182 0
-2181 -2183 0
-2181 -2184 0
-2181 -2185 0
-2181 -2186 0
-2181 -2187 0
-2181 -2188 0
-2181 -2189 0
-2181 -2190 0
-2181 -2191 0
-2181 -2192 0
-2181 -2193 0
-2181 -2194 0
-2181 -2195 0
-2181 -2196 0
-2181 -2197 0
-2181 -2198 0
-2181 -2199 0
-2181 -2200 0
-2181 -2201 0
-2181 -2202 0
-2181 -2203 0
-2181 -2204 0
-2181 -2205 0
-2181 -2206 0
-2181 -2207 0
-2181 -2208 0
-2181 -2209 0
-2181 -2210 0
-2181 -2211 0
-2181 -2212 0
-2181 -2213 0
-2181 -2214 0
-2181 -2215 0
-2181 -2216 0
-2181 -2217 0
-2181 -2218 0
-2181 -2219 0
-2181 -2220 0
-2181 -2221 0
-2181 -2222 0
-2181 -2223 0
-2181 -2224 0
-2182 -2183 0
-2182 -2184 0
-2182 -2185 0
-2182 -2186 0
-2182 -2187 0
-2182 -2188 0
-2182 -2189 0
-2182 -2190 0
-2182 -2191 0
-2182 -2192 0
-2182 -2193 0
-2182 -2194 0
-2182 -2195 0
-2182 -2196 0
-2182 -2197 0
-2182 -2198 0
-2182 -2199 0
-2182 -2200 0
-2182 -2201 0
-2182 -2202 0
-2182 -2203 0
-2182 -2204 0
-2182 -2205 0
-2182 -2206 0
-2182 -2207 0
-2182 -2208 0
-2182 -2209 0
-2182 -2210 0
-2182 -2211 0
-2182 -2212 0
-2182 -2213 0
-2182 -2214 0
-2182 -2215 0
-2182 -2216 0
-2182 -2217 0
-2182 -2218 0
-2182 -2219 0
-2182 -2220 0
-2182 -2221 0
-2182 -2222 0
-2182 -2223 0
-2182 -2224 0
-2183 -2184 0
-2183 -2185 0
-2183 -2186 0
-2183 -2187 0
-2183 -2188 0
-2183 -2189 0
-2183 -2190 0
-2183 -2191 0
-2183 -2192 0
-2183 -2193 0
-2183 -2194 0
-2183 -2195 0
-2183 -2196 0
-2183 -2197 0
-2183 -2198 0
-2183 -2199 0
-2183 -2200 0
-2183 -2201 0
-2183 -2202 0
-2183 -2203 0
-2183 -2204 0
-2183 -2205 0
-2183 -2206 0
-2183 -2207 0
-2183 -2208 0
-2183 -2209 0
-2183 -2210 0
-2183 -2211 0
-2183 -2212 0
-2183 -2213 0
-2183 -2214 0
-2183 -2215 0
-2183 -2216 0
-2183 -2217 0
-2183 -2218 0
-2183 -2219 0
-2183 -2220 0
-2183 -2221 0
-2183 -2222 0
-2183 -2223 0
-2183 -2224 0
-2184 -2185 0
-2184 -2186 0
-2184 -2187 0
-2184 -2188 0
-2184 -2189 0
-2184 -2190 0
-2184 -2191 0
-2184 -2192 0
-2184 -2193 0
-2184 -2194 0
-2184 -2195 0
-2184 -2196 0
-2184 -2197 0
-2184 -2198 0
-2184 -2199 0
-2184 -2200 0
-2184 -2201 0
-2184 -2202 0
-2184 -2203 0
-2184 -2204 0
-2184 -2205 0
-2184 -2206 0
-2184 -2207 0
-2184 -2208 0
-2184 -2209 0
-2184 -2210 0
-2184 -2211 0
-2184 -2212 0
-2184 -2213 0
-2184 -2214 0
-2184 -2215 0
-2184 -2216 0
-2184 -2217 0
-2184 -2218 0
-2184 -2219 0
-2184 -2220 0
-2184 -2221 0
-2184 -2222 0
-2184 -2223 0
-2184 -2224 0
-2185 -2186 0
-2185 -2187 0
-2185 -2188 0
-2185 -2189 0
-2185 -2190 0
-2185 -2191 0
-2185 -2192 0
-2185 -2193 0
-2185 -2194 0
-2185 -2195 0
-2185 -2196 0
-2185 -2197 0
-2185 -2198 0
-2185 -2199 0
-2185 -2200 0
-2185 -2201 0
-2185 -2202 0
-2185 -2203 0
-2185 -2204 0
-2185 -2205 0
-2185 -2206 0
-2185 -2207 0
-2185 -2208 0
-2185 -2209 0
-2185 -2210 0
-2185 -2211 0
-2185 -2212 0
-2185 -2213 0
-2185 -2214 0
-2185 -2215 0
-2185 -2216 0
-2185 -2217 0
-2185 -2218 0
-2185 -2219 0
-2185 -2220 0
-2185 -2221 0
-2185 -2222 0
-2185 -2223 0
-2185 -2224 0
-2186 -2187 0
-2186 -2188 0
-2186 -2189 0
-2186 -2190 0
-2186 -2191 0
-2186 -2192 0
-2186 -2193 0
-2186 -2194 0
-2186 -2195 0
-2186 -2196 0
-2186 -2197 0
-2186 -2198 0
-2186 -2199 0
-2186 -2200 0
-2186 -2201 0
-2186 -2202 0
-2186 -2203 0
-2186 -2204 0
-2186 -2205 0
-2186 -2206 0
-2186 -2207 0
-2186 -2208 0
-2186 -2209 0
-2186 -2210 0
-2186 -2211 0
-2186 -2212 0
-2186 -2213 0
-2186 -2214 0
-2186 -2215 0
-2186 -2216 0
-2186 -2217 0
-2186 -2218 0
-2186 -2219 0
-2186 -2220 0
-2186 -2221 0
-2186 -2222 0
-2186 -2223 0
-2186 -2224 0
-2187 -2188 0
-2187 -2189 0
-2187 -2190 0
-2187 -2191 0
-2187 -2192 0
-2187 -2193 0
-2187 -2194 0
-2187 -2195 0
-2187 -2196 0
-2187 -2197 0
-2187 -2198 0
-2187 -2199 0
-2187 -2200 0
-2187 -2201 0
-2187 -2202 0
-2187 -2203 0
-2187 -2204 0
-2187 -2205 0
-2187 -2206 0
-2187 -2207 0
-2187 -2208 0
-2187 -2209 0
-2187 -2210 0
-2187 -2211 0
-2187 -2212 0
-2187 -2213 0
-2187 -2214 0
-2187 -2215 0
-2187 -2216 0
-2187 -2217 0
-2187 -2218 0
-2187 -2219 0
-2187 -2220 0
-2187 -2221 0
-2187 -2222 0
-2187 -2223 0
-2187 -2224 0
-2188 -2189 0
-2188 -2190 0
-2188 -2191 0
-2188 -2192 0
-2188 -2193 0
-2188 -2194 0
-2188 -2195 0
-2188 -2196 0
-2188 -2197 0
-2188 -2198 0
-2188 -2199 0
-2188 -2200 0
-2188 -2201 0
-2188 -2202 0
-2188 -2203 0
-2188 -2204 0
-2188 -2205 0
-2188 -2206 0
-2188 -2207 0
-2188 -2208 0
-2188 -2209 0
-2188 -2210 0
-2188 -2211 0
-2188 -2212 0
-2188 -2213 0
-2188 -2214 0
-2188 -2215 0
-2188 -2216 0
-2188 -2217 0
-2188 -2218 0
-2188 -2219 0
-2188 -2220 0
-2188 -2221 0
-2188 -2222 0
-2188 -2223 0
-2188 -2224 0
-2189 -2190 0
-2189 -2191 0
-2189 -2192 0
-2189 -2193 0
-2189 -2194 0
-2189 -2195 0
-2189 -2196 0
-2189 -2197 0
-2189 -2198 0
-2189 -2199 0
-2189 -2200 0
-2189 -2201 0
-2189 -2202 0
-2189 -2203 0
-2189 -2204 0
-2189 -2205 0
-2189 -2206 0
-2189 -2207 0
-2189 -2208 0
-2189 -2209 0
-2189 -2210 0
-2189 -2211 0
-2189 -2212 0
-2189 -2213 0
-2189 -2214 0
-2189 -2215 0
-2189 -2216 0
-2189 -2217 0
-2189 -2218 0
-2189 -2219 0
-2189 -2220 0
-2189 -2221 0
-2189 -2222 0
-2189 -2223 0
-2189 -2224 0
-2190 -2191 0
-2190 -2192 0
-2190 -2193 0
-2190 -2194 0
-2190 -2195 0
-2190 -2196 0
-2190 -2197 0
-2190 -2198 0
-2190 -2199 0
-2190 -2200 0
-2190 -2201 0
-2190 -2202 0
-2190 -2203 0
-2190 -2204 0
-2190 -2205 0
-2190 -2206 0
-2190 -2207 0
-2190 -2208 0
-2190 -2209 0
-2190 -2210 0
-2190 -2211 0
-2190 -2212 0
-2190 -2213 0
-2190 -2214 0
-2190 -2215 0
-2190 -2216 0
-2190 -2217 0
-2190 -2218 0
-2190 -2219 0
-2190 -2220 0
-2190 -2221 0
-2190 -2222 0
-2190 -2223 0
-2190 -2224 0
-2191 -2192 0
-2191 -2193 0
-2191 -2194 0
-2191 -2195 0
-2191 -2196 0
-2191 -2197 0
-2191 -2198 0
-2191 -2199 0
-2191 -2200 0
-2191 -2201 0
-2191 -2202 0
-2191 -2203 0
-2191 -2204 0
-2191 -2205 0
-2191 -2206 0
-2191 -2207 0
-2191 -2208 0
-2191 -2209 0
-2191 -2210 0
-2191 -2211 0
-2191 -2212 0
-2191 -2213 0
-2191 -2214 0
-2191 -2215 0
-2191 -2216 0
-2191 -2217 0
-2191 -2218 0
-2191 -2219 0
-2191 -2220 0
-2191 -2221 0
-2191 -2222 0
-2191 -2223 0
-2191 -2224 0
-2192 -2193 0
-2192 -2194 0
-2192 -2195 0
-2192 -2196 0
-2192 -2197 0
-2192 -2198 0
-2192 -2199 0
-2192 -2200 0
-2192 -2201 0
-2192 -2202 0
-2192 -2203 0
-2192 -2204 0
-2192 -2205 0
-2192 -2206 0
-2192 -2207 0
-2192 -2208 0
-2192 -2209 0
-2192 -2210 0
-2192 -2211 0
-2192 -2212 0
-2192 -2213 0
-2192 -2214 0
-2192 -2215 0
-2192 -2216 0
-2192 -2217 0
-2192 -2218 0
-2192 -2219 0
-2192 -2220 0
-2192 -2221 0
-2192 -2222 0
-2192 -2223 0
-2192 -2224 0
-2193 -2194 0
-2193 -2195 0
-2193 -2196 0
-2193 -2197 0
-2193 -2198 0
-2193 -2199 0
-2193 -2200 0
-2193 -2201 0
-2193 -2202 0
-2193 -2203 0
-2193 -2204 0
-2193 -2205 0
-2193 -2206 0
-2193 -2207 0
-2193 -2208 0
-2193 -2209 0
-2193 -2210 0
-2193 -2211 0
-2193 -2212 0
-2193 -2213 0
-2193 -2214 0
-2193 -2215 0
-2193 -2216 0
-2193 -2217 0
-2193 -2218 0
-2193 -2219 0
-2193 -2220 0
-2193 -2221 0
-2193 -2222 0
-2193 -2223 0
-2193 -2224 0
-2194 -2195 0
-2194 -2196 0
-2194 -2197 0
-2194 -2198 0
-2194 -2199 0
-2194 -2200 0
-2194 -2201 0
-2194 -2202 0
-2194 -2203 0
-2194 -2204 0
-2194 -2205 0
-2194 -2206 0
-2194 -2207 0
-2194 -2208 0
-2194 -2209 0
-2194 -2210 0
-2194 -2211 0
-2194 -2212 0
-2194 -2213 0
-2194 -2214 0
-2194 -2215 0
-2194 -2216 0
-2194 -2217 0
-2194 -2218 0
-2194 -2219 0
-2194 -2220 0
-2194 -2221 0
-2194 -2222 0
-2194 -2223 0
-2194 -2224 0
-2195 -2196 0
-2195 -2197 0
-2195 -2198 0
-2195 -2199 0
-2195 -2200 0
-2195 -2201 0
-2195 -2202 0
-2195 -2203 0
-2195 -2204 0
-2195 -2205 0
-2195 -2206 0
-2195 -2207 0
-2195 -2208 0
-2195 -2209 0
-2195 -2210 0
-2195 -2211 0
-2195 -2212 0
-2195 -2213 0
-2195 -2214 0
-2195 -2215 0
-2195 -2216 0
-2195 -2217 0
-2195 -2218 0
-2195 -2219 0
-2195 -2220 0
-2195 -2221 0
-2195 -2222 0
-2195 -2223 0
-2195 -2224 0
-2196 -2197 0
-2196 -2198 0
-2196 -2199 0
-2196 -2200 0
-2196 -2201 0
-2196 -2202 0
-2196 -2203 0
-2196 -2204 0
-2196 -2205 0
-2196 -2206 0
-2196 -2207 0
-2196 -2208 0
-2196 -2209 0
-2196 -2210 0
-2196 -2211 0
-2196 -2212 0
-2196 -2213 0
-2196 -2214 0
-2196 -2215 0
-2196 -2216 0
-2196 -2217 0
-2196 -2218 0
-2196 -2219 0
-2196 -2220 0
-2196 -2221 0
-2196 -2222 0
-2196 -2223 0
-2196 -2224 0
-2197 -2198 0
-2197 -2199 0
-2197 -2200 0
-2197 -2201 0
-2197 -2202 0
-2197 -2203 0
-2197 -2204 0
-2197 -2205 0
-2197 -2206 0
-2197 -2207 0
-2197 -2208 0
-2197 -2209 0
-2197 -2210 0
-2197 -2211 0
-2197 -2212 0
-2197 -2213 0
-2197 -2214 0
-2197 -2215 0
-2197 -2216 0
-2197 -2217 0
-2197 -2218 0
-2197 -2219 0
-2197 -2220 0
-2197 -2221 0
-2197 -2222 0
-2197 -2223 0
-2197 -2224 0
-2198 -2199 0
-2198 -2200 0
-2198 -2201 0
-2198 -2202 0
-2198 -2203 0
-2198 -2204 0
-2198 -2205 0
-2198 -2206 0
-2198 -2207 0
-2198 -2208 0
-2198 -2209 0
-2198 -2210 0
-2198 -2211 0
-2198 -2212 0
-2198 -2213 0
-2198 -2214 0
-2198 -2215 0
-2198 -2216 0
-2198 -2217 0
-2198 -2218 0
-2198 -2219 0
-2198 -2220 0
-2198 -2221 0
-2198 -2222 0
-2198 -2223 0
-2198 -2224 0
-2199 -2200 0
-2199 -2201 0
-2199 -2202 0
-2199 -2203 0
-2199 -2204 0
-2199 -2205 0
-2199 -2206 0
-2199 -2207 0
-2199 -2208 0
-2199 -2209 0
-2199 -2210 0
-2199 -2211 0
-2199 -2212 0
-2199 -2213 0
-2199 -2214 0
-2199 -2215 0
-2199 -2216 0
-2199 -2217 0
-2199 -2218 0
-2199 -2219 0
-2199 -2220 0
-2199 -2221 0
-2199 -2222 0
-2199 -2223 0
-2199 -2224 0
-2200 -2201 0
-2200 -2202 0
-2200 -2203 0
-2200 -2204 0
-2200 -2205 0
-2200 -2206 0
-2200 -2207 0
-2200 -2208 0
-2200 -2209 0
-2200 -2210 0
-2200 -2211 0
-2200 -2212 0
-2200 -2213 0
-2200 -2214 0
-2200 -2215 0
-2200 -2216 0
-2200 -2217 0
-2200 -2218 0
-2200 -2219 0
-2200 -2220 0
-2200 -2221 0
-2200 -2222 0
-2200 -2223 0
-2200 -2224 0
-2201 -2202 0
-2201 -2203 0
-2201 -2204 0
-2201 -2205 0
-2201 -2206 0
-2201 -2207 0
-2201 -2208 0
-2201 -2209 0
-2201 -2210 0
-2201 -2211 0
-2201 -2212 0
-2201 -2213 0
-2201 -2214 0
-2201 -2215 0
-2201 -2216 0
-2201 -2217 0
-2201 -2218 0
-2201 -2219 0
-2201 -2220 0
-2201 -2221 0
-2201 -2222 0
-2201 -2223 0
-2201 -2224 0
-2202 -2203 0
-2202 -2204 0
-2202 -2205 0
-2202 -2206 0
-2202 -2207 0
-2202 -2208 0
-2202 -2209 0
-2202 -2210 0
-2202 -2211 0
-2202 -2212 0
-2202 -2213 0
-2202 -2214 0
-2202 -2215 0
-2202 -2216 0
-2202 -2217 0
-2202 -2218 0
-2202 -2219 0
-2202 -2220 0
-2202 -2221 0
-2202 -2222 0
-2202 -2223 0
-2202 -2224 0
-2203 -2204 0
-2203 -2205 0
-2203 -2206 0
-2203 -2207 0
-2203 -2208 0
-2203 -2209 0
-2203 -2210 0
-2203 -2211 0
-2203 -2212 0
-2203 -2213 0
-2203 -2214 0
-2203 -2215 0
-2203 -2216 0
-2203 -2217 0
-2203 -2218 0
-2203 -2219 0
-2203 -2220 0
-2203 -2221 0
-2203 -2222 0
-2203 -2223 0
-2203 -2224 0
-2204 -2205 0
-2204 -2206 0
-2204 -2207 0
-2204 -2208 0
-2204 -2209 0
-2204 -2210 0
-2204 -2211 0
-2204 -2212 0
-2204 -2213 0
-2204 -2214 0
-2204 -2215 0
-2204 -2216 0
-2204 -2217 0
-2204 -2218 0
-2204 -2219 0
-2204 -2220 0
-2204 -2221 0
-2204 -2222 0
-2204 -2223 0
-2204 -2224 0
-2205 -2206 0
-2205 -2207 0
-2205 -2208 0
-2205 -2209 0
-2205 -2210 0
-2205 -2211 0
-2205 -2212 0
-2205 -2213 0
-2205 -2214 0
-2205 -2215 0
-2205 -2216 0
-2205 -2217 0
-2205 -2218 0
-2205 -2219 0
-2205 -2220 0
-2205 -2221 0
-2205 -2222 0
-2205 -2223 0
-2205 -2224 0
-2206 -2207 0
-2206 -2208 0
-2206 -2209 0
-2206 -2210 0
-2206 -2211 0
-2206 -2212 0
-2206 -2213 0
-2206 -2214 0
-2206 -2215 0
-2206 -2216 0
-2206 -2217 0
-2206 -2218 0
-2206 -2219 0
-2206 -2220 0
-2206 -2221 0
-2206 -2222 0
-2206 -2223 0
-2206 -2224 0
-2207 -2208 0
-2207 -2209 0
-2207 -2210 0
-2207 -2211 0
-2207 -2212 0
-2207 -2213 0
-2207 -2214 0
-2207 -2215 0
-2207 -2216 0
-2207 -2217 0
-2207 -2218 0
-2207 -2219 0
-2207 -2220 0
-2207 -2221 0
-2207 -2222 0
-2207 -2223 0
-2207 -2224 0
-2208 -2209 0
-2208 -2210 0
-2208 -2211 0
-2208 -2212 0
-2208 -2213 0
-2208 -2214 0
-2208 -2215 0
-2208 -2216 0
-2208 -2217 0
-2208 -2218 0
-2208 -2219 0
-2208 -2220 0
-2208 -2221 0
-2208 -2222 0
-2208 -2223 0
-2208 -2224 0
-2209 -2210 0
-2209 -2211 0
-2209 -2212 0
-2209 -2213 0
-2209 -2214 0
-2209 -2215 0
-2209 -2216 0
-2209 -2217 0
-2209 -2218 0
-2209 -2219 0
-2209 -2220 0
-2209 -2221 0
-2209 -2222 0
-2209 -2223 0
-2209 -2224 0
-2210 -2211 0
-2210 -2212 0
-2210 -2213 0
-2210 -2214 0
-2210 -2215 0
-2210 -2216 0
-2210 -2217 0
-2210 -2218 0
-2210 -2219 0
-2210 -2220 0
-2210 -2221 0
-2210 -2222 0
-2210 -2223 0
-2210 -2224 0
-2211 -2212 0
-2211 -2213 0
-2211 -2214 0
-2211 -2215 0
-2211 -2216 0
-2211 -2217 0
-2211 -2218 0
-2211 -2219 0
-2211 -2220 0
-2211 -2221 0
-2211 -2222 0
-2211 -2223 0
-2211 -2224 0
-2212 -2213 0
-2212 -2214 0
-2212 -2215 0
-2212 -2216 0
-2212 -2217 0
-2212 -2218 0
-2212 -2219 0
-2212 -2220 0
-2212 -2221 0
-2212 -2222 0
-2212 -2223 0
-2212 -2224 0
-2213 -2214 0
-2213 -2215 0
-2213 -2216 0
-2213 -2217 0
-2213 -2218 0
-2213 -2219 0
-2213 -2220 0
-2213 -2221 0
-2213 -2222 0
-2213 -2223 0
-2213 -2224 0
-2214 -2215 0
-2214 -2216 0
-2214 -2217 0
-2214 -2218 0
-2214 -2219 0
-2214 -2220 0
-2214 -2221 0
-2214 -2222 0
-2214 -2223 0
-2214 -2224 0
-2215 -2216 0
-2215 -2217 0
-2215 -2218 0
-2215 -2219 0
-2215 -2220 0
-2215 -2221 0
-2215 -2222 0
-2215 -2223 0
-2215 -2224 0
-2216 -2217 0
-2216 -2218 0
-2216 -2219 0
-2216 -2220 0
-2216 -2221 0
-2216 -2222 0
-2216 -2223 0
-2216 -2224 0
-2217 -2218 0
-2217 -2219 0
-2217 -2220 0
-2217 -2221 0
-2217 -2222 0
-2217 -2223 0
-2217 -2224 0
-2218 -2219 0
-2218 -2220 0
-2218 -2221 0
-2218 -2222 0
-2218 -2223 0
-2218 -2224 0
-2219 -2220 0
-2219 -2221 0
-2219 -2222 0
-2219 -2223 0
-2219 -2224 0
-2220 -2221 0
-2220 -2222 0
-2220 -2223 0
-2220 -2224 0
-2221 -2222 0
-2221 -2223 0
-2221 -2224 0
-2222 -2223 0
-2222 -2224 0
-2223 -2224 0
-2141 268 0
-2141 515 0
-2141 -318 0
-2141 -319 0
-2141 -320 0
-2141 -321 0
-2141 -322 0
-2141 -323 522 0
-2141 -323 -258 -265 0
-2141 -323 -330 0
-2141 -323 -388 0
-2141 -323 -445 0
-2141 -324 523 0
-2141 -324 -258 -266 0
-2141 -324 -332 0
-2141 -324 -390 0
-2141 -324 -447 0
-2141 -325 524 0
-2141 -325 -258 -267 0
-2141 -325 -334 0
-2141 -325 -392 0
-2141 -325 -449 0
-2141 -326 0
-2142 268 0
-2142 516 0
-2142 -317 0
-2142 -319 0
-2142 -320 0
-2142 -321 0
-2142 -322 0
-2142 -323 522 0
-2142 -323 -259 -265 0
-2142 -323 -338 0
-2142 -323 -396 0
-2142 -323 -453 0
-2142 -324 523 0
-2142 -324 -259 -266 0
-2142 -324 -340 0
-2142 -324 -398 0
-2142 -324 -455 0
-2142 -325 524 0
-2142 -325 -259 -267 0
-2142 -325 -342 0
-2142 -325 -400 0
-2142 -325 -457 0
-2142 -326 0
-2143 268 0
-2143 517 0
-2143 -317 0
-2143 -318 0
-2143 -320 0
-2143 -321 0
-2143 -322 0
-2143 -323 522 0
-2143 -323 -260 -265 0
-2143 -323 -346 0
-2143 -323 -404 0
-2143 -323 -461 0
-2143 -324 523 0
-2143 -324 -260 -266 0
-2143 -324 -348 0
-2143 -324 -406 0
-2143 -324 -463 0
-2143 -325 524 0
-2143 -325 -260 -267 0
-2143 -325 -350 0
-2143 -325 -408 0
-2143 -325 -465 0
-2143 -326 0
-2144 268 0
-2144 518 0
-2144 -317 0
-2144 -318 0
-2144 -319 0
-2144 -321 0
-2144 -322 0
-2144 -323 522 0
-2144 -323 -261 -265 0
-2144 -323 -354 0
-2144 -323 -412 0
-2144 -323 -469 0
-2144 -324 523 0
-2144 -324 -261 -266 0
-2144 -324 -356 0
-2144 -324 -414 0
-2144 -324 -471 0
-2144 -325 524 0
-2144 -325 -261 -267 0
-2144 -325 -358 0
-2144 -325 -416 0
-2144 -325 -473 0
-2144 -326 0
-2145 268 0
-2145 519 0
-2145 -317 0
-2145 -318 0
-2145 -319 0
-2145 -320 0
-2145 -322 0
-2145 -323 522 0
-2145 -323 -262 -265 0
-2145 -323 -362 0
-2145 -323 -420 0
-2145 -323 -477 0
-2145 -324 523 0
-2145 -324 -262 -266 0
-2145 -324 -364 0
-2145 -324 -422 0
-2145 -324 -479 0
-2145 -325 524 0
-2145 -325 -262 -267 0
-2145 -325 -366 0
-2145 -325 -424 0
-2145 -325 -481 0
-2145 -326 0
-2146 268 0
-2146 520 0
-2146 -317 0
-2146 -318 0
-2146 -319 0
-2146 -320 0
-2146 -321 0
-2146 -323 522 0
-2146 -323 -263 -265 0
-2146 -323 -370 0
-2146 -323 -428 0
-2146 -323 -485 0
-2146 -324 523 0
-2146 -324 -263 -266 0
-2146 -324 -372 0
-2146 -324 -430 0
-2146 -324 -487 0
-2146 -325 524 0
-2146 -325 -263 -267 0
-2146 -325 -374 0
-2146 -325 -432 0
-2146 -325 -489 0
-2146 -326 0
-2147 268 0
-2147 515 0
-2147 -377 0
-2147 -378 0
-2147 -379 0
-2147 -380 0
-2147 -381 522 0
-2147 -381 -258 -265 0
-2147 -381 -330 0
-2147 -381 -388 0
-2147 -381 -445 0
-2147 -382 523 0
-2147 -382 -258 -266 0
-2147 -382 -332 0
-2147 -382 -390 0
-2147 -382 -447 0
-2147 -383 524 0
-2147 -383 -258 -267 0
-2147 -383 -334 0
-2147 -383 -392 0
-2147 -383 -449 0
-2147 -384 0
-2148 268 0
-2148 516 0
-2148 -378 0
-2148 -379 0
-2148 -380 0
-2148 -381 522 0
-2148 -381 -259 -265 0
-2148 -381 -338 0
-2148 -381 -396 0
-2148 -381 -453 0
-2148 -382 523 0
-2148 -382 -259 -266 0
-2148 -382 -340 0
-2148 -382 -398 0
-2148 -382 -455 0
-2148 -383 524 0
-2148 -383 -259 -267 0
-2148 -383 -342 0
-2148 -383 -400 0
-2148 -383 -457 0
-2148 -384 0
-2149 268 0
-2149 517 0
-2149 -376 0
-2149 -379 0
-2149 -380 0
-2149 -381 522 0
-2149 -381 -260 -265 0
-2149 -381 -346 0
-2149 -381 -404 0
-2149 -381 -461 0
-2149 -382 523 0
-2149 -382 -260 -266 0
-2149 -382 -348 0
-2149 -382 -406 0
-2149 -382 -463 0
-2149 -383 524 0
-2149 -383 -260 -267 0
-2149 -383 -350 0
-2149 -383 -408 0
-2149 -383 -465 0
-2149 -384 0
-2150 268 0
-2150 518 0
-2150 -376 0
-2150 -377 0
-2150 -380 0
-2150 -381 522 0
-2150 -381 -261 -265 0
-2150 -381 -354 0
-2150 -381 -412 0
-2150 -381 -469 0
-2150 -382 523 0
-2150 -382 -261 -266 0
-2150 -382 -356 0
-2150 -382 -414 0
-2150 -382 -471 0
-2150 -383 524 0
-2150 -383 -261 -267 0
-2150 -383 -358 0
-2150 -383 -416 0
-2150 -383 -473 0
-2150 -384 0
-2151 268 0
-2151 519 0
-2151 -376 0
-2151 -377 0
-2151 -378 0
-2151 -381 522 0
-2151 -381 -262 -265 0
-2151 -381 -362 0
-2151 -381 -420 0
-2151 -381 -477 0
-2151 -382 523 0
-2151 -382 -262 -266 0
-2151 -382 -364 0
-2151 -382 -422 0
-2151 -382 -479 0
-2151 -383 524 0
-2151 -383 -262 -267 0
-2151 -383 -366 0
-2151 -383 -424 0
-2151 -383 -481 0
-2151 -384 0
-2152 268 0
-2152 520 0
-2152 -376 0
-2152 -377 0
-2152 -378 0
-2152 -379 0
-2152 -381 522 0
-2152 -381 -263 -265 0
-2152 -381 -370 0
-2152 -381 -428 0
-2152 -381 -485 0
-2152 -382 523 0
-2152 -382 -263 -266 0
-2152 -382 -372 0
-2152 -382 -430 0
-2152 -382 -487 0
-2152 -383 524 0
-2152 -383 -263 -267 0
-2152 -383 -374 0
-2152 -383 -432 0
-2152 -383 -489 0
-2152 -384 0
-2153 268 0
-2153 515 0
-2153 -435 0
-2153 -436 0
-2153 -437 0
-2153 -438 522 0
-2153 -438 -258 -265 0
-2153 -438 -330 0
-2153 -438 -388 0
-2153 -438 -445 0
-2153 -439 523 0
-2153 -439 -258 -266 0
-2153 -439 -332 0
-2153 -439 -390 0
-2153 -439 -447 0
-2153 -440 524 0
-2153 -440 -258 -267 0
-2153 -440 -334 0
-2153 -440 -392 0
-2153 -440 -449 0
-2153 -441 0
-2154 268 0
-2154 516 0
-2154 -436 0
-2154 -437 0
-2154 -438 522 0
-2154 -438 -259 -265 0
-2154 -438 -338 0
-2154 -438 -396 0
-2154 -438 -453 0
-2154 -439 523 0
-2154 -439 -259 -266 0
-2154 -439 -340 0
-2154 -439 -398 0
-2154 -439 -455 0
-2154 -440 524 0
-2154 -440 -259 -267 0
-2154 -440 -342 0
-2154 -440 -400 0
-2154 -440 -457 0
-2154 -441 0
-2155 268 0
-2155 517 0
-2155 -437 0
-2155 -438 522 0
-2155 -438 -260 -265 0
-2155 -438 -346 0
-2155 -438 -404 0
-2155 -438 -461 0
-2155 -439 523 0
-2155 -439 -260 -266 0
-2155 -439 -348 0
-2155 -439 -406 0
-2155 -439 -463 0
-2155 -440 524 0
-2155 -440 -260 -267 0
-2155 -440 -350 0
-2155 -440 -408 0
-2155 -440 -465 0
-2155 -441 0
-2156 268 0
-2156 518 0
-2156 -434 0
-2156 -438 522 0
-2156 -438 -261 -265 0
-2156 -438 -354 0
-2156 -438 -412 0
-2156 -438 -469 0
-2156 -439 523 0
-2156 -439 -261 -266 0
-2156 -439 -356 0
-2156 -439 -414 0
-2156 -439 -471 0
-2156 -440 524 0
-2156 -440 -261 -267 0
-2156 -440 -358 0
-2156 -440 -416 0
-2156 -440 -473 0
-2156 -441 0
-2157 268 0
-2157 519 0
-2157 -434 0
-2157 -435 0
-2157 -438 522 0
-2157 -438 -262 -265 0
-2157 -438 -362 0
-2157 -438 -420 0
-2157 -438 -477 0
-2157 -439 523 0
-2157 -439 -262 -266 0
-2157 -439 -364 0
-2157 -439 -422 0
-2157 -439 -479 0
-2157 -440 524 0
-2157 -440 -262 -267 0
-2157 -440 -366 0
-2157 -440 -424 0
-2157 -440 -481 0
-2157 -441 0
-2158 268 0
-2158 520 0
-2158 -434 0
-2158 -435 0
-2158 -436 0
-2158 -438 522 0
-2158 -438 -263 -265 0
-2158 -438 -370 0
-2158 -438 -428 0
-2158 -438 -485 0
-2158 -439 523 0
-2158 -439 -263 -266 0
-2158 -439 -372 0
-2158 -439 -430 0
-2158 -439 -487 0
-2158 -440 524 0
-2158 -440 -263 -267 0
-2158 -440 -374 0
-2158 -440 -432 0
-2158 -440 -489 0
-2158 -441 0
-2159 268 0
-2159 515 0
-2159 521 0
-2159 -258 -264 0
-2159 -328 0
-2159 -386 0
-2159 -443 0
-2160 268 0
-2160 516 0
-2160 521 0
-2160 -259 -264 0
-2160 -336 0
-2160 -394 0
-2160 -451 0
-2161 268 0
-2161 517 0
-2161 521 0
-2161 -260 -264 0
-2161 -344 0
-2161 -402 0
-2161 -459 0
-2162 268 0
-2162 518 0
-2162 521 0
-2162 -261 -264 0
-2162 -352 0
-2162 -410 0
-2162 -467 0
-2163 268 0
-2163 519 0
-2163 521 0
-2163 -262 -264 0
-2163 -360 0
-2163 -418 0
-2163 -475 0
-2164 268 0
-2164 520 0
-2164 521 0
-2164 -263 -264 0
-2164 -368 0
-2164 -426 0
-2164 -483 0
-2165 327 0
-2165 574 0
-2165 -259 0
-2165 -260 0
-2165 -261 0
-2165 -262 0
-2165 -263 0
-2165 -264 581 0
-2165 -264 -317 -324 0
-2165 -264 -271 0
-2165 -264 -388 0
-2165 -264 -445 0
-2165 -265 582 0
-2165 -265 -317 -325 0
-2165 -265 -273 0
-2165 -265 -390 0
-2165 -265 -447 0
-2165 -266 583 0
-2165 -266 -317 -326 0
-2165 -266 -275 0
-2165 -266 -392 0
-2165 -266 -449 0
-2165 -267 0
-2166 327 0
-2166 575 0
-2166 -258 0
-2166 -260 0
-2166 -261 0
-2166 -262 0
-2166 -263 0
-2166 -264 581 0
-2166 -264 -318 -324 0
-2166 -264 -279 0
-2166 -264 -396 0
-2166 -264 -453 0
-2166 -265 582 0
-2166 -265 -318 -325 0
-2166 -265 -281 0
-2166 -265 -398 0
-2166 -265 -455 0
-2166 -266 583 0
-2166 -266 -318 -326 0
-2166 -266 -283 0
-2166 -266 -400 0
-2166 -266 -457 0
-2166 -267 0
-2167 327 0
-2167 576 0
-2167 -258 0
-2167 -259 0
-2167 -261 0
-2167 -262 0
-2167 -263 0
-2167 -264 581 0
-2167 -264 -319 -324 0
-2167 -264 -287 0
-2167 -264 -404 0
-2167 -264 -461 0
-2167 -265 582 0
-2167 -265 -319 -325 0
-2167 -265 -289 0
-2167 -265 -406 0
-2167 -265 -463 0
-2167 -266 583 0
-2167 -266 -319 -326 0
-2167 -266 -291 0
-2167 -266 -408 0
-2167 -266 -465 0
-2167 -267 0
-2168 327 0
-2168 577 0
-2168 -258 0
-2168 -259 0
-2168 -260 0
-2168 -262 0
-2168 -263 0
-2168 -264 581 0
-2168 -264 -320 -324 0
-2168 -264 -295 0
-2168 -264 -412 0
-2168 -264 -469 0
-2168 -265 582 0
-2168 -265 -320 -325 0
-2168 -265 -297 0
-2168 -265 -414 0
-2168 -265 -471 0
-2168 -266 583 0
-2168 -266 -320 -326 0
-2168 -266 -299 0
-2168 -266 -416 0
-2168 -266 -473 0
-2168 -267 0
-2169 327 0
-2169 578 0
-2169 -258 0
-2169 -259 0
-2169 -260 0
-2169 -261 0
-2169 -263 0
-2169 -264 581 0
-2169 -264 -321 -324 0
-2169 -264 -303 0
-2169 -264 -420 0
-2169 -264 -477 0
-2169 -265 582 0
-2169 -265 -321 -325 0
-2169 -265 -305 0
-2169 -265 -422 0
-2169 -265 -479 0
-2169 -266 583 0
-2169 -266 -321 -326 0
-2169 -266 -307 0
-2169 -266 -424 0
-2169 -266 -481 0
-2169 -267 0
-2170 327 0
-2170 579 0
-2170 -258 0
-2170 -259 0
-2170 -260 0
-2170 -261 0
-2170 -262 0
-2170 -264 581 0
-2170 -264 -322 -324 0
-2170 -264 -311 0
-2170 -264 -428 0
-2170 -264 -485 0
-2170 -265 582 0
-2170 -265 -322 -325 0
-2170 -265 -313 0
-2170 -265 -430 0
-2170 -265 -487 0
-2170 -266 583 0
-2170 -266 -322 -326 0
-2170 -266 -315 0
-2170 -266 -432 0
-2170 -266 -489 0
-2170 -267 0
-2171 327 0
-2171 574 0
-2171 -377 0
-2171 -378 0
-2171 -379 0
-2171 -380 0
-2171 -381 581 0
-2171 -381 -317 -324 0
-2171 -381 -271 0
-2171 -381 -388 0
-2171 -381 -445 0
-2171 -382 582 0
-2171 -382 -317 -325 0
-2171 -382 -273 0
-2171 -382 -390 0
-2171 -382 -447 0
-2171 -383 583 0
-2171 -383 -317 -326 0
-2171 -383 -275 0
-2171 -383 -392 0
-2171 -383 -449 0
-2171 -384 0
-2172 327 0
-2172 575 0
-2172 -378 0
-2172 -379 0
-2172 -380 0
-2172 -381 581 0
-2172 -381 -318 -324 0
-2172 -381 -279 0
-2172 -381 -396 0
-2172 -381 -453 0
-2172 -382 582 0
-2172 -382 -318 -325 0
-2172 -382 -281 0
-2172 -382 -398 0
-2172 -382 -455 0
-2172 -383 583 0
-2172 -383 -318 -326 0
-2172 -383 -283 0
-2172 -383 -400 0
-2172 -383 -457 0
-2172 -384 0
-2173 327 0
-2173 576 0
-2173 -376 0
-2173 -379 0
-2173 -380 0
-2173 -381 581 0
-2173 -381 -319 -324 0
-2173 -381 -287 0
-2173 -381 -404 0
-2173 -381 -461 0
-2173 -382 582 0
-2173 -382 -319 -325 0
-2173 -382 -289 0
-2173 -382 -406 0
-2173 -382 -463 0
-2173 -383 583 0
-2173 -383 -319 -326 0
-2173 -383 -291 0
-2173 -383 -408 0
-2173 -383 -465 0
-2173 -384 0
-2174 327 0
-2174 577 0
-2174 -376 0
-2174 -377 0
-2174 -380 0
-2174 -381 581 0
-2174 -381 -320 -324 0
-2174 -381 -295 0
-2174 -381 -412 0
-2174 -381 -469 0
-2174 -382 582 0
-2174 -382 -320 -325 0
-2174 -382 -297 0
-2174 -382 -414 0
-2174 -382 -471 0
-2174 -383 583 0
-2174 -383 -320 -326 0
-2174 -383 -299 0
-2174 -383 -416 0
-2174 -383 -473 0
-2174 -384 0
-2175 327 0
-2175 578 0
-2175 -376 0
-2175 -377 0
-2175 -378 0
-2175 -381 581 0
-2175 -381 -321 -324 0
-2175 -381 -303 0
-2175 -381 -420 0
-2175 -381 -477 0
-2175 -382 582 0
-2175 -382 -321 -325 0
-2175 -382 -305 0
-2175 -382 -422 0
-2175 -382 -479 0
-2175 -383 583 0
-2175 -383 -321 -326 0
-2175 -383 -307 0
-2175 -383 -424 0
-2175 -383 -481 0
-2175 -384 0
-2176 327 0
-2176 579 0
-2176 -376 0
-2176 -377 0
-2176 -378 0
-2176 -379 0
-2176 -381 581 0
-2176 -381 -322 -324 0
-2176 -381 -311 0
-2176 -381 -428 0
-2176 -381 -485 0
-2176 -382 582 0
-2176 -382 -322 -325 0
-2176 -382 -313 0
-2176 -382 -430 0
-2176 -382 -487 0
-2176 -383 583 0
-2176 -383 -322 -326 0
-2176 -383 -315 0
-2176 -383 -432 0
-2176 -383 -489 0
-2176 -384 0
-2177 327 0
-2177 574 0
-2177 -435 0
-2177 -436 0
-2177 -437 0
-2177 -438 581 0
-2177 -438 -317 -324 0
-2177 -438 -271 0
-2177 -438 -388 0
-2177 -438 -445 0
-2177 -439 582 0
-2177 -439 -317 -325 0
-2177 -439 -273 0
-2177 -439 -390 0
-2177 -439 -447 0
-2177 -440 583 0
-2177 -440 -317 -326 0
-2177 -440 -275 0
-2177 -440 -392 0
-2177 -440 -449 0
-2177 -441 0
-2178 327 0
-2178 575 0
-2178 -436 0
-2178 -437 0
-2178 -438 581 0
-2178 -438 -318 -324 0
-2178 -438 -279 0
-2178 -438 -396 0
-2178 -438 -453 0
-2178 -439 582 0
-2178 -439 -318 -325 0
-2178 -439 -281 0
-2178 -439 -398 0
-2178 -439 -455 0
-2178 -440 583 0
-2178 -440 -318 -326 0
-2178 -440 -283 0
-2178 -440 -400 0
-2178 -440 -457 0
-2178 -441 0
-2179 327 0
-2179 576 0
-2179 -437 0
-2179 -438 581 0
-2179 -438 -319 -324 0
-2179 -438 -287 0
-2179 -438 -404 0
-2179 -438 -461 0
-2179 -439 582 0
-2179 -439 -319 -325 0
-2179 -439 -289 0
-2179 -439 -406 0
-2179 -439 -463 0
-2179 -440 583 0
-2179 -440 -319 -326 0
-2179 -440 -291 0
-2179 -440 -408 0
-2179 -440 -465 0
-2179 -441 0
-2180 327 0
-2180 577 0
-2180 -434 0
-2180 -438 581 0
-2180 -438 -320 -324 0
-2180 -438 -295 0
-2180 -438 -412 0
-2180 -438 -469 0
-2180 -439 582 0
-2180 -439 -320 -325 0
-2180 -439 -297 0
-2180 -439 -414 0
-2180 -439 -471 0
-2180 -440 583 0
-2180 -440 -320 -326 0
-2180 -440 -299 0
-2180 -440 -416 0
-2180 -440 -473 0
-2180 -441 0
-2181 327 0
-2181 578 0
-2181 -434 0
-2181 -435 0
-2181 -438 581 0
-2181 -438 -321 -324 0
-2181 -438 -303 0
-2181 -438 -420 0
-2181 -438 -477 0
-2181 -439 582 0
-2181 -439 -321 -325 0
-2181 -439 -305 0
-2181 -439 -422 0
-2181 -439 -479 0
-2181 -440 583 0
-2181 -440 -321 -326 0
-2181 -440 -307 0
-2181 -440 -424 0
-2181 -440 -481 0
-2181 -441 0
-2182 327 0
-2182 579 0
-2182 -434 0
-2182 -435 0
-2182 -436 0
-2182 -438 581 0
-2182 -438 -322 -324 0
-2182 -438 -311 0
-2182 -438 -428 0
-2182 -438 -485 0
-2182 -439 582 0
-2182 -439 -322 -325 0
-2182 -439 -313 0
-2182 -439 -430 0
-2182 -439 -487 0
-2182 -440 583 0
-2182 -440 -322 -326 0
-2182 -440 -315 0
-2182 -440 -432 0
-2182 -440 -489 0
-2182 -441 0
-2183 327 0
-2183 574 0
-2183 580 0
-2183 -317 -323 0
-2183 -269 0
-2183 -386 0
-2183 -443 0
-2184 327 0
-2184 575 0
-2184 580 0
-2184 -318 -323 0
-2184 -277 0
-2184 -394 0
-2184 -451 0
-2185 327 0
-2185 576 0
-2185 580 0
-2185 -319 -323 0
-2185 -285 0
-2185 -402 0
-2185 -459 0
-2186 327 0
-2186 577 0
-2186 580 0
-2186 -320 -323 0
-2186 -293 0
-2186 -410 0
-2186 -467 0
-2187 327 0
-2187 578 0
-2187 580 0
-2187 -321 -323 0
-2187 -301 0
-2187 -418 0
-2187 -475 0
-2188 327 0
-2188 579 0
-2188 580 0
-2188 -322 -323 0
-2188 -309 0
-2188 -426 0
-2188 -483 0
-2189 385 0
-2189 633 0
-2189 -260 0
-2189 -261 0
-2189 -262 0
-2189 -263 0
-2189 -264 639 0
-2189 -264 -376 -382 0
-2189 -264 -271 0
-2189 -264 -279 0
-2189 -264 -330 0
-2189 -264 -338 0
-2189 -264 -445 0
-2189 -264 -453 0
-2189 -265 640 0
-2189 -265 -376 -383 0
-2189 -265 -273 0
-2189 -265 -281 0
-2189 -265 -332 0
-2189 -265 -340 0
-2189 -265 -447 0
-2189 -265 -455 0
-2189 -266 641 0
-2189 -266 -376 -384 0
-2189 -266 -275 0
-2189 -266 -283 0
-2189 -266 -334 0
-2189 -266 -342 0
-2189 -266 -449 0
-2189 -266 -457 0
-2189 -267 0
-2190 385 0
-2190 634 0
-2190 -258 0
-2190 -261 0
-2190 -262 0
-2190 -263 0
-2190 -264 639 0
-2190 -264 -377 -382 0
-2190 -264 -279 0
-2190 -264 -287 0
-2190 -264 -338 0
-2190 -264 -346 0
-2190 -264 -453 0
-2190 -264 -461 0
-2190 -265 640 0
-2190 -265 -377 -383 0
-2190 -265 -281 0
-2190 -265 -289 0
-2190 -265 -340 0
-2190 -265 -348 0
-2190 -265 -455 0
-2190 -265 -463 0
-2190 -266 641 0
-2190 -266 -377 -384 0
-2190 -266 -283 0
-2190 -266 -291 0
-2190 -266 -342 0
-2190 -266 -350 0
-2190 -266 -457 0
-2190 -266 -465 0
-2190 -267 0
-2191 385 0
-2191 635 0
-2191 -258 0
-2191 -259 0
-2191 -262 0
-2191 -263 0
-2191 -264 639 0
-2191 -264 -378 -382 0
-2191 -264 -287 0
-2191 -264 -295 0
-2191 -264 -346 0
-2191 -264 -354 0
-2191 -264 -461 0
-2191 -264 -469 0
-2191 -265 640 0
-2191 -265 -378 -383 0
-2191 -265 -289 0
-2191 -265 -297 0
-2191 -265 -348 0
-2191 -265 -356 0
-2191 -265 -463 0
-2191 -265 -471 0
-2191 -266 641 0
-2191 -266 -378 -384 0
-2191 -266 -291 0
-2191 -266 -299 0
-2191 -266 -350 0
-2191 -266 -358 0
-2191 -266 -465 0
-2191 -266 -473 0
-2191 -267 0
-2192 385 0
-2192 636 0
-2192 -258 0
-2192 -259 0
-2192 -260 0
-2192 -263 0
-2192 -264 639 0
-2192 -264 -379 -382 0
-2192 -264 -295 0
-2192 -264 -303 0
-2192 -264 -354 0
-2192 -264 -362 0
-2192 -264 -469 0
-2192 -264 -477 0
-2192 -265 640 0
-2192 -265 -379 -383 0
-2192 -265 -297 0
-2192 -265 -305 0
-2192 -265 -356 0
-2192 -265 -364 0
-2192 -265 -471 0
-2192 -265 -479 0
-2192 -266 641 0
-2192 -266 -379 -384 0
-2192 -266 -299 0
-2192 -266 -307 0
-2192 -266 -358 0
-2192 -266 -366 0
-2192 -266 -473 0
-2192 -266 -481 0
-2192 -267 0
-2193 385 0
-2193 637 0
-2193 -258 0
-2193 -259 0
-2193 -260 0
-2193 -261 0
-2193 -264 639 0
-2193 -264 -380 -382 0
-2193 -264 -303 0
-2193 -264 -311 0
-2193 -264 -362 0
-2193 -264 -370 0
-2193 -264 -477 0
-2193 -264 -485 0
-2193 -265 640 0
-2193 -265 -380 -383 0
-2193 -265 -305 0
-2193 -265 -313 0
-2193 -265 -364 0
-2193 -265 -372 0
-2193 -265 -479 0
-2193 -265 -487 0
-2193 -266 641 0
-2193 -266 -380 -384 0
-2193 -266 -307 0
-2193 -266 -315 0
-2193 -266 -366 0
-2193 -266 -374 0
-2193 -266 -481 0
-2193 -266 -489 0
-2193 -267 0
-2194 385 0
-2194 633 0
-2194 -319 0
-2194 -320 0
-2194 -321 0
-2194 -322 0
-2194 -323 639 0
-2194 -323 -376 -382 0
-2194 -323 -271 0
-2194 -323 -279 0
-2194 -323 -330 0
-2194 -323 -338 0
-2194 -323 -445 0
-2194 -323 -453 0
-2194 -324 640 0
-2194 -324 -376 -383 0
-2194 -324 -273 0
-2194 -324 -281 0
-2194 -324 -332 0
-2194 -324 -340 0
-2194 -324 -447 0
-2194 -324 -455 0
-2194 -325 641 0
-2194 -325 -376 -384 0
-2194 -325 -275 0
-2194 -325 -283 0
-2194 -325 -334 0
-2194 -325 -342 0
-2194 -325 -449 0
-2194 -325 -457 0
-2194 -326 0
-2195 385 0
-2195 634 0
-2195 -317 0
-2195 -320 0
-2195 -321 0
-2195 -322 0
-2195 -323 639 0
-2195 -323 -377 -382 0
-2195 -323 -279 0
-2195 -323 -287 0
-2195 -323 -338 0
-2195 -323 -346 0
-2195 -323 -453 0
-2195 -323 -461 0
-2195 -324 640 0
-2195 -324 -377 -383 0
-2195 -324 -281 0
-2195 -324 -289 0
-2195 -324 -340 0
-2195 -324 -348 0
-2195 -324 -455 0
-2195 -324 -463 0
-2195 -325 641 0
-2195 -325 -377 -384 0
-2195 -325 -283 0
-2195 -325 -291 0
-2195 -325 -342 0
-2195 -325 -350 0
-2195 -325 -457 0
-2195 -325 -465 0
-2195 -326 0
-2196 385 0
-2196 635 0
-2196 -317 0
-2196 -318 0
-2196 -321 0
-2196 -322 0
-2196 -323 639 0
-2196 -323 -378 -382 0
-2196 -323 -287 0
-2196 -323 -295 0
-2196 -323 -346 0
-2196 -323 -354 0
-2196 -323 -461 0
-2196 -323 -469 0
-2196 -324 640 0
-2196 -324 -378 -383 0
-2196 -324 -289 0
-2196 -324 -297 0
-2196 -324 -348 0
-2196 -324 -356 0
-2196 -324 -463 0
-2196 -324 -471 0
-2196 -325 641 0
-2196 -325 -378 -384 0
-2196 -325 -291 0
-2196 -325 -299 0
-2196 -325 -350 0
-2196 -325 -358 0
-2196 -325 -465 0
-2196 -325 -473 0
-2196 -326 0
-2197 385 0
-2197 636 0
-2197 -317 0
-2197 -318 0
-2197 -319 0
-2197 -322 0
-2197 -323 639 0
-2197 -323 -379 -382 0
-2197 -323 -295 0
-2197 -323 -303 0
-2197 -323 -354 0
-2197 -323 -362 0
-2197 -323 -469 0
-2197 -323 -477 0
-2197 -324 640 0
-2197 -324 -379 -383 0
-2197 -324 -297 0
-2197 -324 -305 0
-2197 -324 -356 0
-2197 -324 -364 0
-2197 -324 -471 0
-2197 -324 -479 0
-2197 -325 641 0
-2197 -325 -379 -384 0
-2197 -325 -299 0
-2197 -325 -307 0
-2197 -325 -358 0
-2197 -325 -366 0
-2197 -325 -473 0
-2197 -325 -481 0
-2197 -326 0
-2198 385 0
-2198 637 0
-2198 -317 0
-2198 -318 0
-2198 -319 0
-2198 -320 0
-2198 -323 639 0
-2198 -323 -380 -382 0
-2198 -323 -303 0
-2198 -323 -311 0
-2198 -323 -362 0
-2198 -323 -370 0
-2198 -323 -477 0
-2198 -323 -485 0
-2198 -324 640 0
-2198 -324 -380 -383 0
-2198 -324 -305 0
-2198 -324 -313 0
-2198 -324 -364 0
-2198 -324 -372 0
-2198 -324 -479 0
-2198 -324 -487 0
-2198 -325 641 0
-2198 -325 -380 -384 0
-2198 -325 -307 0
-2198 -325 -315 0
-2198 -325 -366 0
-2198 -325 -374 0
-2198 -325 -481 0
-2198 -325 -489 0
-2198 -326 0
-2199 385 0
-2199 633 0
-2199 -436 0
-2199 -437 0
-2199 -438 639 0
-2199 -438 -376 -382 0
-2199 -438 -271 0
-2199 -438 -279 0
-2199 -438 -330 0
-2199 -438 -338 0
-2199 -438 -445 0
-2199 -438 -453 0
-2199 -439 640 0
-2199 -439 -376 -383 0
-2199 -439 -273 0
-2199 -439 -281 0
-2199 -439 -332 0
-2199 -439 -340 0
-2199 -439 -447 0
-2199 -439 -455 0
-2199 -440 641 0
-2199 -440 -376 -384 0
-2199 -440 -275 0
-2199 -440 -283 0
-2199 -440 -334 0
-2199 -440 -342 0
-2199 -440 -449 0
-2199 -440 -457 0
-2199 -441 0
-2200 385 0
-2200 634 0
-2200 -437 0
-2200 -438 639 0
-2200 -438 -377 -382 0
-2200 -438 -279 0
-2200 -438 -287 0
-2200 -438 -338 0
-2200 -438 -346 0
-2200 -438 -453 0
-2200 -438 -461 0
-2200 -439 640 0
-2200 -439 -377 -383 0
-2200 -439 -281 0
-2200 -439 -289 0
-2200 -439 -340 0
-2200 -439 -348 0
-2200 -439 -455 0
-2200 -439 -463 0
-2200 -440 641 0
-2200 -440 -377 -384 0
-2200 -440 -283 0
-2200 -440 -291 0
-2200 -440 -342 0
-2200 -440 -350 0
-2200 -440 -457 0
-2200 -440 -465 0
-2200 -441 0
-2201 385 0
-2201 635 0
-2201 -438 639 0
-2201 -438 -378 -382 0
-2201 -438 -287 0
-2201 -438 -295 0
-2201 -438 -346 0
-2201 -438 -354 0
-2201 -438 -461 0
-2201 -438 -469 0
-2201 -439 640 0
-2201 -439 -378 -383 0
-2201 -439 -289 0
-2201 -439 -297 0
-2201 -439 -348 0
-2201 -439 -356 0
-2201 -439 -463 0
-2201 -439 -471 0
-2201 -440 641 0
-2201 -440 -378 -384 0
-2201 -440 -291 0
-2201 -440 -299 0
-2201 -440 -350 0
-2201 -440 -358 0
-2201 -440 -465 0
-2201 -440 -473 0
-2201 -441 0
-2202 385 0
-2202 636 0
-2202 -434 0
-2202 -438 639 0
-2202 -438 -379 -382 0
-2202 -438 -295 0
-2202 -438 -303 0
-2202 -438 -354 0
-2202 -438 -362 0
-2202 -438 -469 0
-2202 -438 -477 0
-2202 -439 640 0
-2202 -439 -379 -383 0
-2202 -439 -297 0
-2202 -439 -305 0
-2202 -439 -356 0
-2202 -439 -364 0
-2202 -439 -471 0
-2202 -439 -479 0
-2202 -440 641 0
-2202 -440 -379 -384 0
-2202 -440 -299 0
-2202 -440 -307 0
-2202 -440 -358 0
-2202 -440 -366 0
-2202 -440 -473 0
-2202 -440 -481 0
-2202 -441 0
-2203 385 0
-2203 637 0
-2203 -434 0
-2203 -435 0
-2203 -438 639 0
-2203 -438 -380 -382 0
-2203 -438 -303 0
-2203 -438 -311 0
-2203 -438 -362 0
-2203 -438 -370 0
-2203 -438 -477 0
-2203 -438 -485 0
-2203 -439 640 0
-2203 -439 -380 -383 0
-2203 -439 -305 0
-2203 -439 -313 0
-2203 -439 -364 0
-2203 -439 -372 0
-2203 -439 -479 0
-2203 -439 -487 0
-2203 -440 641 0
-2203 -440 -380 -384 0
-2203 -440 -307 0
-2203 -440 -315 0
-2203 -440 -366 0
-2203 -440 -374 0
-2203 -440 -481 0
-2203 -440 -489 0
-2203 -441 0
-2204 385 0
-2204 633 0
-2204 638 0
-2204 -376 -381 0
-2204 -269 0
-2204 -277 0
-2204 -328 0
-2204 -336 0
-2204 -443 0
-2204 -451 0
-2205 385 0
-2205 634 0
-2205 638 0
-2205 -377 -381 0
-2205 -277 0
-2205 -285 0
-2205 -336 0
-2205 -344 0
-2205 -451 0
-2205 -459 0
-2206 385 0
-2206 635 0
-2206 638 0
-2206 -378 -381 0
-2206 -285 0
-2206 -293 0
-2206 -344 0
-2206 -352 0
-2206 -459 0
-2206 -467 0
-2207 385 0
-2207 636 0
-2207 638 0
-2207 -379 -381 0
-2207 -293 0
-2207 -301 0
-2207 -352 0
-2207 -360 0
-2207 -467 0
-2207 -475 0
-2208 385 0
-2208 637 0
-2208 638 0
-2208 -380 -381 0
-2208 -301 0
-2208 -309 0
-2208 -360 0
-2208 -368 0
-2208 -475 0
-2208 -483 0
-2209 442 0
-2209 691 0
-2209 -261 0
-2209 -262 0
-2209 -263 0
-2209 -264 696 0
-2209 -264 -434 -439 0
-2209 -264 -271 0
-2209 -264 -279 0
-2209 -264 -287 0
-2209 -264 -330 0
-2209 -264 -338 0
-2209 -264 -346 0
-2209 -264 -388 0
-2209 -264 -396 0
-2209 -264 -404 0
-2209 -265 697 0
-2209 -265 -434 -440 0
-2209 -265 -273 0
-2209 -265 -281 0
-2209 -265 -289 0
-2209 -265 -332 0
-2209 -265 -340 0
-2209 -265 -348 0
-2209 -265 -390 0
-2209 -265 -398 0
-2209 -265 -406 0
-2209 -266 698 0
-2209 -266 -434 -441 0
-2209 -266 -275 0
-2209 -266 -283 0
-2209 -266 -291 0
-2209 -266 -334 0
-2209 -266 -342 0
-2209 -266 -350 0
-2209 -266 -392 0
-2209 -266 -400 0
-2209 -266 -408 0
-2209 -267 0
-2210 442 0
-2210 692 0
-2210 -258 0
-2210 -262 0
-2210 -263 0
-2210 -264 696 0
-2210 -264 -435 -439 0
-2210 -264 -279 0
-2210 -264 -287 0
-2210 -264 -295 0
-2210 -264 -338 0
-2210 -264 -346 0
-2210 -264 -354 0
-2210 -264 -396 0
-2210 -264 -404 0
-2210 -264 -412 0
-2210 -265 697 0
-2210 -265 -435 -440 0
-2210 -265 -281 0
-2210 -265 -289 0
-2210 -265 -297 0
-2210 -265 -340 0
-2210 -265 -348 0
-2210 -265 -356 0
-2210 -265 -398 0
-2210 -265 -406 0
-2210 -265 -414 0
-2210 -266 698 0
-2210 -266 -435 -441 0
-2210 -266 -283 0
-2210 -266 -291 0
-2210 -266 -299 0
-2210 -266 -342 0
-2210 -266 -350 0
-2210 -266 -358 0
-2210 -266 -400 0
-2210 -266 -408 0
-2210 -266 -416 0
-2210 -267 0
-2211 442 0
-2211 693 0
-2211 -258 0
-2211 -259 0
-2211 -263 0
-2211 -264 696 0
-2211 -264 -436 -439 0
-2211 -264 -287 0
-2211 -264 -295 0
-2211 -264 -303 0
-2211 -264 -346 0
-2211 -264 -354 0
-2211 -264 -362 0
-2211 -264 -404 0
-2211 -264 -412 0
-2211 -264 -420 0
-2211 -265 697 0
-2211 -265 -436 -440 0
-2211 -265 -289 0
-2211 -265 -297 0
-2211 -265 -305 0
-2211 -265 -348 0
-2211 -265 -356 0
-2211 -265 -364 0
-2211 -265 -406 0
-2211 -265 -414 0
-2211 -265 -422 0
-2211 -266 698 0
-2211 -266 -436 -441 0
-2211 -266 -291 0
-2211 -266 -299 0
-2211 -266 -307 0
-2211 -266 -350 0
-2211 -266 -358 0
-2211 -266 -366 0
-2211 -266 -408 0
-2211 -266 -416 0
-2211 -266 -424 0
-2211 -267 0
-2212 442 0
-2212 694 0
-2212 -258 0
-2212 -259 0
-2212 -260 0
-2212 -264 696 0
-2212 -264 -437 -439 0
-2212 -264 -295 0
-2212 -264 -303 0
-2212 -264 -311 0
-2212 -264 -354 0
-2212 -264 -362 0
-2212 -264 -370 0
-2212 -264 -412 0
-2212 -264 -420 0
-2212 -264 -428 0
-2212 -265 697 0
-2212 -265 -437 -440 0
-2212 -265 -297 0
-2212 -265 -305 0
-2212 -265 -313 0
-2212 -265 -356 0
-2212 -265 -364 0
-2212 -265 -372 0
-2212 -265 -414 0
-2212 -265 -422 0
-2212 -265 -430 0
-2212 -266 698 0
-2212 -266 -437 -441 0
-2212 -266 -299 0
-2212 -266 -307 0
-2212 -266 -315 0
-2212 -266 -358 0
-2212 -266 -366 0
-2212 -266 -374 0
-2212 -266 -416 0
-2212 -266 -424 0
-2212 -266 -432 0
-2212 -267 0
-2213 442 0
-2213 691 0
-2213 -320 0
-2213 -321 0
-2213 -322 0
-2213 -323 696 0
-2213 -323 -434 -439 0
-2213 -323 -271 0
-2213 -323 -279 0
-2213 -323 -287 0
-2213 -323 -330 0
-2213 -323 -338 0
-2213 -323 -346 0
-2213 -323 -388 0
-2213 -323 -396 0
-2213 -323 -404 0
-2213 -324 697 0
-2213 -324 -434 -440 0
-2213 -324 -273 0
-2213 -324 -281 0
-2213 -324 -289 0
-2213 -324 -332 0
-2213 -324 -340 0
-2213 -324 -348 0
-2213 -324 -390 0
-2213 -324 -398 0
-2213 -324 -406 0
-2213 -325 698 0
-2213 -325 -434 -441 0
-2213 -325 -275 0
-2213 -325 -283 0
-2213 -325 -291 0
-2213 -325 -334 0
-2213 -325 -342 0
-2213 -325 -350 0
-2213 -325 -392 0
-2213 -325 -400 0
-2213 -325 -408 0
-2213 -326 0
-2214 442 0
-2214 692 0
-2214 -317 0
-2214 -321 0
-2214 -322 0
-2214 -323 696 0
-2214 -323 -435 -439 0
-2214 -323 -279 0
-2214 -323 -287 0
-2214 -323 -295 0
-2214 -323 -338 0
-2214 -323 -346 0
-2214 -323 -354 0
-2214 -323 -396 0
-2214 -323 -404 0
-2214 -323 -412 0
-2214 -324 697 0
-2214 -324 -435 -440 0
-2214 -324 -281 0
-2214 -324 -289 0
-2214 -324 -297 0
-2214 -324 -340 0
-2214 -324 -348 0
-2214 -324 -356 0
-2214 -324 -398 0
-2214 -324 -406 0
-2214 -324 -414 0
-2214 -325 698 0
-2214 -325 -435 -441 0
-2214 -325 -283 0
-2214 -325 -291 0
-2214 -325 -299 0
-2214 -325 -342 0
-2214 -325 -350 0
-2214 -325 -358 0
-2214 -325 -400 0
-2214 -325 -408 0
-2214 -325 -416 0
-2214 -326 0
-2215 442 0
-2215 693 0
-2215 -317 0
-2215 -318 0
-2215 -322 0
-2215 -323 696 0
-2215 -323 -436 -439 0
-2215 -323 -287 0
-2215 -323 -295 0
-2215 -323 -303 0
-2215 -323 -346 0
-2215 -323 -354 0
-2215 -323 -362 0
-2215 -323 -404 0
-2215 -323 -412 0
-2215 -323 -420 0
-2215 -324 697 0
-2215 -324 -436 -440 0
-2215 -324 -289 0
-2215 -324 -297 0
-2215 -324 -305 0
-2215 -324 -348 0
-2215 -324 -356 0
-2215 -324 -364 0
-2215 -324 -406 0
-2215 -324 -414 0
-2215 -324 -422 0
-2215 -325 698 0
-2215 -325 -436 -441 0
-2215 -325 -291 0
-2215 -325 -299 0
-2215 -325 -307 0
-2215 -325 -350 0
-2215 -325 -358 0
-2215 -325 -366 0
-2215 -325 -408 0
-2215 -325 -416 0
-2215 -325 -424 0
-2215 -326 0
-2216 442 0
-2216 694 0
-2216 -317 0
-2216 -318 0
-2216 -319 0
-2216 -323 696 0
-2216 -323 -437 -439 0
-2216 -323 -295 0
-2216 -323 -303 0
-2216 -323 -311 0
-2216 -323 -354 0
-2216 -323 -362 0
-2216 -323 -370 0
-2216 -323 -412 0
-2216 -323 -420 0
-2216 -323 -428 0
-2216 -324 697 0
-2216 -324 -437 -440 0
-2216 -324 -297 0
-2216 -324 -305 0
-2216 -324 -313 0
-2216 -324 -356 0
-2216 -324 -364 0
-2216 -324 -372 0
-2216 -324 -414 0
-2216 -324 -422 0
-2216 -324 -430 0
-2216 -325 698 0
-2216 -325 -437 -441 0
-2216 -325 -299 0
-2216 -325 -307 0
-2216 -325 -315 0
-2216 -325 -358 0
-2216 -325 -366 0
-2216 -325 -374 0
-2216 -325 -416 0
-2216 -325 -424 0
-2216 -325 -432 0
-2216 -326 0
-2217 442 0
-2217 691 0
-2217 -379 0
-2217 -380 0
-2217 -381 696 0
-2217 -381 -434 -439 0
-2217 -381 -271 0
-2217 -381 -279 0
-2217 -381 -287 0
-2217 -381 -330 0
-2217 -381 -338 0
-2217 -381 -346 0
-2217 -381 -388 0
-2217 -381 -396 0
-2217 -381 -404 0
-2217 -382 697 0
-2217 -382 -434 -440 0
-2217 -382 -273 0
-2217 -382 -281 0
-2217 -382 -289 0
-2217 -382 -332 0
-2217 -382 -340 0
-2217 -382 -348 0
-2217 -382 -390 0
-2217 -382 -398 0
-2217 -382 -406 0
-2217 -383 698 0
-2217 -383 -434 -441 0
-2217 -383 -275 0
-2217 -383 -283 0
-2217 -383 -291 0
-2217 -383 -334 0
-2217 -383 -342 0
-2217 -383 -350 0
-2217 -383 -392 0
-2217 -383 -400 0
-2217 -383 -408 0
-2217 -384 0
-2218 442 0
-2218 692 0
-2218 -380 0
-2218 -381 696 0
-2218 -381 -435 -439 0
-2218 -381 -279 0
-2218 -381 -287 0
-2218 -381 -295 0
-2218 -381 -338 0
-2218 -381 -346 0
-2218 -381 -354 0
-2218 -381 -396 0
-2218 -381 -404 0
-2218 -381 -412 0
-2218 -382 697 0
-2218 -382 -435 -440 0
-2218 -382 -281 0
-2218 -382 -289 0
-2218 -382 -297 0
-2218 -382 -340 0
-2218 -382 -348 0
-2218 -382 -356 0
-2218 -382 -398 0
-2218 -382 -406 0
-2218 -382 -414 0
-2218 -383 698 0
-2218 -383 -435 -441 0
-2218 -383 -283 0
-2218 -383 -291 0
-2218 -383 -299 0
-2218 -383 -342 0
-2218 -383 -350 0
-2218 -383 -358 0
-2218 -383 -400 0
-2218 -383 -408 0
-2218 -383 -416 0
-2218 -384 0
-2219 442 0
-2219 693 0
-2219 -376 0
-2219 -381 696 0
-2219 -381 -436 -439 0
-2219 -381 -287 0
-2219 -381 -295 0
-2219 -381 -303 0
-2219 -381 -346 0
-2219 -381 -354 0
-2219 -381 -362 0
-2219 -381 -404 0
-2219 -381 -412 0
-2219 -381 -420 0
-2219 -382 697 0
-2219 -382 -436 -440 0
-2219 -382 -289 0
-2219 -382 -297 0
-2219 -382 -305 0
-2219 -382 -348 0
-2219 -382 -356 0
-2219 -382 -364 0
-2219 -382 -406 0
-2219 -382 -414 0
-2219 -382 -422 0
-2219 -383 698 0
-2219 -383 -436 -441 0
-2219 -383 -291 0
-2219 -383 -299 0
-2219 -383 -307 0
-2219 -383 -350 0
-2219 -383 -358 0
-2219 -383 -366 0
-2219 -383 -408 0
-2219 -383 -416 0
-2219 -383 -424 0
-2219 -384 0
-2220 442 0
-2220 694 0
-2220 -376 0
-2220 -377 0
-2220 -381 696 0
-2220 -381 -437 -439 0
-2220 -381 -295 0
-2220 -381 -303 0
-2220 -381 -311 0
-2220 -381 -354 0
-2220 -381 -362 0
-2220 -381 -370 0
-2220 -381 -412 0
-2220 -381 -420 0
-2220 -381 -428 0
-2220 -382 697 0
-2220 -382 -437 -440 0
-2220 -382 -297 0
-2220 -382 -305 0
-2220 -382 -313 0
-2220 -382 -356 0
-2220 -382 -364 0
-2220 -382 -372 0
-2220 -382 -414 0
-2220 -382 -422 0
-2220 -382 -430 0
-2220 -383 698 0
-2220 -383 -437 -441 0
-2220 -383 -299 0
-2220 -383 -307 0
-2220 -383 -315 0
-2220 -383 -358 0
-2220 -383 -366 0
-2220 -383 -374 0
-2220 -383 -416 0
-2220 -383 -424 0
-2220 -383 -432 0
-2220 -384 0
-2221 442 0
-2221 691 0
-2221 695 0
-2221 -434 -438 0
-2221 -269 0
-2221 -277 0
-2221 -285 0
-2221 -328 0
-2221 -336 0
-2221 -344 0
-2221 -386 0
-2221 -394 0
-2221 -402 0
-2222 442 0
-2222 692 0
-2222 695 0
-2222 -435 -438 0
-2222 -277 0
-2222 -285 0
-2222 -293 0
-2222 -336 0
-2222 -344 0
-2222 -352 0
-2222 -394 0
-2222 -402 0
-2222 -410 0
-2223 442 0
-2223 693 0
-2223 695 0
-2223 -436 -438 0
-2223 -285 0
-2223 -293 0
-2223 -301 0
-2223 -344 0
-2223 -352 0
-2223 -360 0
-2223 -402 0
-2223 -410 0
-2223 -418 0
-2224 442 0
-2224 694 0
-2224 695 0
-2224 -437 -438 0
-2224 -293 0
-2224 -301 0
-2224 -309 0
-2224 -352 0
-2224 -360 0
-2224 -368 0
-2224 -410 0
-2224 -418 0
-2224 -426 0
-258 515 2141 2142 2143 2144 2145 2146 2147 2148 2149 2150 2151 2152 2153 2154 2155 2156 2157 2158 2159 2160 2161 2162 2163 2164 0
-259 516 2141 2142 2143 2144 2145 2146 2147 2148 2149 2150 2151 2152 2153 2154 2155 2156 2157 2158 2159 2160 2161 2162 2163 2164 0
-260 517 2141 2142 2143 2144 2145 2146 2147 2148 2149 2150 2151 2152 2153 2154 2155 2156 2157 2158 2159 2160 2161 2162 2163 2164 0
-261 518 2141 2142 2143 2144 2145 2146 2147 2148 2149 2150 2151 2152 2153 2154 2155 2156 2157 2158 2159 2160 2161 2162 2163 2164 0
-262 519 2141 2142 2143 2144 2145 2146 2147 2148 2149 2150 2151 2152 2153 2154 2155 2156 2157 2158 2159 2160 2161 2162 2163 2164 0
-263 520 2141 2142 2143 2144 2145 2146 2147 2148 2149 2150 2151 2152 2153 2154 2155 2156 2157 2158 2159 2160 2161 2162 2163 2164 0
-264 521 2141 2142 2143 2144 2145 2146 2147 2148 2149 2150 2151 2152 2153 2154 2155 2156 2157 2158 2159 2160 2161 2162 2163 2164 0
-265 522 2141 2142 2143 2144 2145 2146 2147 2148 2149 2150 2151 2152 2153 2154 2155 2156 2157 2158 2159 2160 2161 2162 2163 2164 0
-266 523 2141 2142 2143 2144 2145 2146 2147 2148 2149 2150 2151 2152 2153 2154 2155 2156 2157 2158 2159 2160 2161 2162 2163 2164 0
-267 524 2141 2142 2143 2144 2145 2146 2147 2148 2149 2150 2151 2152 2153 2154 2155 2156 2157 2158 2159 2160 2161 2162 2163 2164 0
-317 574 2165 2166 2167 2168 2169 2170 2171 2172 2173 2174 2175 2176 2177 2178 2179 2180 2181 2182 2183 2184 2185 2186 2187 2188 0
-318 575 2165 2166 2167 2168 2169 2170 2171 2172 2173 2174 2175 2176 2177 2178 2179 2180 2181 2182 2183 2184 2185 2186 2187 2188 0
-319 576 2165 2166 2167 2168 2169 2170 2171 2172 2173 2174 2175 2176 2177 2178 2179 2180 2181 2182 2183 2184 2185 2186 2187 2188 0
-320 577 2165 2166 2167 2168 2169 2170 2171 2172 2173 2174 2175 2176 2177 2178 2179 2180 2181 2182 2183 2184 2185 2186 2187 2188 0
-321 578 2165 2166 2167 2168 2169 2170 2171 2172 2173 2174 2175 2176 2177 2178 2179 2180 2181 2182 2183 2184 2185 2186 2187 2188 0
-322 579 2165 2166 2167 2168 2169 2170 2171 2172 2173 2174 2175 2176 2177 2178 2179 2180 2181 2182 2183 2184 2185 2186 2187 2188 0
-323 580 2165 2166 2167 2168 2169 2170 2171 2172 2173 2174 2175 2176 2177 2178 2179 2180 2181 2182 2183 2184 2185 2186 2187 2188 0
-324 581 2165 2166 2167 2168 2169 2170 2171 2172 2173 2174 2175 2176 2177 2178 2179 2180 2181 2182 2183 2184 2185 2186 2187 2188 0
-325 582 2165 2166 2167 2168 2169 2170 2171 2172 2173 2174 2175 2176 2177 2178 2179 2180 2181 2182 2183 2184 2185 2186 2187 2188 0
-326 583 2165 2166 2167 2168 2169 2170 2171 2172 2173 2174 2175 2176 2177 2178 2179 2180 2181 2182 2183 2184 2185 2186 2187 2188 0
-376 633 2189 2190 2191 2192 2193 2194 2195 2196 2197 2198 2199 2200 2201 2202 2203 2204 2205 2206 2207 2208 0
-377 634 2189 2190 2191 2192 2193 2194 2195 2196 2197 2198 2199 2200 2201 2202 2203 2204 2205 2206 2207 2208 0
-378 635 2189 2190 2191 2192 2193 2194 2195 2196 2197 2198 2199 2200 2201 2202 2203 2204 2205 2206 2207 2208 0
-379 636 2189 2190 2191 2192 2193 2194 2195 2196 2197 2198 2199 2200 2201 2202 2203 2204 2205 2206 2207 2208 0
-380 637 2189 2190 2191 2192 2193 2194 2195 2196 2197 2198 2199 2200 2201 2202 2203 2204 2205 2206 2207 2208 0
-381 638 2189 2190 2191 2192 2193 2194 2195 2196 2197 2198 2199 2200 2201 2202 2203 2204 2205 2206 2207 2208 0
-382 639 2189 2190 2191 2192 2193 2194 2195 2196 2197 2198 2199 2200 2201 2202 2203 2204 2205 2206 2207 2208 0
-383 640 2189 2190 2191 2192 2193 2194 2195 2196 2197 2198 2199 2200 2201 2202 2203 2204 2205 2206 2207 2208 0
-384 641 2189 2190 2191 2192 2193 2194 2195 2196 2197 2198 2199 2200 2201 2202 2203 2204 2205 2206 2207 2208 0
-434 691 2209 2210 2211 2212 2213 2214 2215 2216 2217 2218 2219 2220 2221 2222 2223 2224 0
-435 692 2209 2210 2211 2212 2213 2214 2215 2216 2217 2218 2219 2220 2221 2222 2223 2224 0
-436 693 2209 2210 2211 2212 2213 2214 2215 2216 2217 2218 2219 2220 2221 2222 2223 2224 0
-437 694 2209 2210 2211 2212 2213 2214 2215 2216 2217 2218 2219 2220 2221 2222 2223 2224 0
-438 695 2209 2210 2211 2212 2213 2214 2215 2216 2217 2218 2219 2220 2221 2222 2223 2224 0
-439 696 2209 2210 2211 2212 2213 2214 2215 2216 2217 2218 2219 2220 2221 2222 2223 2224 0
-440 697 2209 2210 2211 2212 2213 2214 2215 2216 2217 2218 2219 2220 2221 2222 2223 2224 0
-441 698 2209 2210 2211 2212 2213 2214 2215 2216 2217 2218 2219 2220 2221 2222 2223 2224 0
-2225 -2226 0
-2225 -2227 0
-2225 -2228 0
-2225 -2229 0
-2225 -2230 0
-2225 -2231 0
-2225 -2232 0
-2225 -2233 0
-2225 -2234 0
-2225 -2235 0
-2225 -2236 0
-2225 -2237 0
-2225 -2238 0
-2225 -2239 0
-2225 -2240 0
-2225 -2241 0
-2225 -2242 0
-2225 -2243 0
-2225 -2244 0
-2225 -2245 0
-2225 -2246 0
-2225 -2247 0
-2225 -2248 0
-2225 -2249 0
-2225 -2250 0
-2225 -2251 0
-2225 -2252 0
-2225 -2253 0
-2225 -2254 0
-2225 -2255 0
-2225 -2256 0
-2225 -2257 0
-2225 -2258 0
-2225 -2259 0
-2225 -2260 0
-2225 -2261 0
-2225 -2262 0
-2225 -2263 0
-2225 -2264 0
-2225 -2265 0
-2225 -2266 0
-2225 -2267 0
-2225 -2268 0
-2225 -2269 0
-2225 -2270 0
-2225 -2271 0
-2225 -2272 0
-2225 -2273 0
-2225 -2274 0
-2225 -2275 0
-2225 -2276 0
-2225 -2277 0
-2225 -2278 0
-2225 -2279 0
-2225 -2280 0
-2225 -2281 0
-2225 -2282 0
-2225 -2283 0
-2225 -2284 0
-2225 -2285 0
-2225 -2286 0
-2225 -2287 0
-2225 -2288 0
-2225 -2289 0
-2225 -2290 0
-2225 -2291 0
-2225 -2292 0
-2225 -2293 0
-2225 -2294 0
-2225 -2295 0
-2225 -2296 0
-2225 -2297 0
-2225 -2298 0
-2225 -2299 0
-2225 -2300 0
-2225 -2301 0
-2225 -2302 0
-2225 -2303 0
-2225 -2304 0
-2225 -2305 0
-2225 -2306 0
-2225 -2307 0
-2225 -2308 0
-2226 -2227 0
-2226 -2228 0
-2226 -2229 0
-2226 -2230 0
-2226 -2231 0
-2226 -2232 0
-2226 -2233 0
-2226 -2234 0
-2226 -2235 0
-2226 -2236 0
-2226 -2237 0
-2226 -2238 0
-2226 -2239 0
-2226 -2240 0
-2226 -2241 0
-2226 -2242 0
-2226 -2243 0
-2226 -2244 0
-2226 -2245 0
-2226 -2246 0
-2226 -2247 0
-2226 -2248 0
-2226 -2249 0
-2226 -2250 0
-2226 -2251 0
-2226 -2252 0
-2226 -2253 0
-2226 -2254 0
-2226 -2255 0
-2226 -2256 0
-2226 -2257 0
-2226 -2258 0
-2226 -2259 0
-2226 -2260 0
-2226 -2261 0
-2226 -2262 0
-2226 -2263 0
-2226 -2264 0
-2226 -2265 0
-2226 -2266 0
-2226 -2267 0
-2226 -2268 0
-2226 -2269 0
-2226 -2270 0
-2226 -2271 0
-2226 -2272 0
-2226 -2273 0
-2226 -2274 0
-2226 -2275 0
-2226 -2276 0
-2226 -2277 0
-2226 -2278 0
-2226 -2279 0
-2226 -2280 0
-2226 -2281 0
-2226 -2282 0
-2226 -2283 0
-2226 -2284 0
-2226 -2285 0
-2226 -2286 0
-2226 -2287 0
-2226 -2288 0
-2226 -2289 0
-2226 -2290 0
-2226 -2291 0
-2226 -2292 0
-2226 -2293 0
-2226 -2294 0
-2226 -2295 0
-2226 -2296 0
-2226 -2297 0
-2226 -2298 0
-2226 -2299 0
-2226 -2300 0
-2226 -2301 0
-2226 -2302 0
-2226 -2303 0
-2226 -2304 0
-2226 -2305 0
-2226 -2306 0
-2226 -2307 0
-2226 -2308 0
-2227 -2228 0
-2227 -2229 0
-2227 -2230 0
-2227 -2231 0
-2227 -2232 0
-2227 -2233 0
-2227 -2234 0
-2227 -2235 0
-2227 -2236 0
-2227 -2237 0
-2227 -2238 0
-2227 -2239 0
-2227 -2240 0
-2227 -2241 0
-2227 -2242 0
-2227 -2243 0
-2227 -2244 0
-2227 -2245 0
-2227 -2246 0
-2227 -2247 0
-2227 -2248 0
-2227 -2249 0
-2227 -2250 0
-2227 -2251 0
-2227 -2252 0
-2227 -2253 0
-2227 -2254 0
-2227 -2255 0
-2227 -2256 0
-2227 -2257 0
-2227 -2258 0
-2227 -2259 0
-2227 -2260 0
-2227 -2261 0
-2227 -2262 0
-2227 -2263 0
-2227 -2264 0
-2227 -2265 0
-2227 -2266 0
-2227 -2267 0
-2227 -2268 0
-2227 -2269 0
-2227 -2270 0
-2227 -2271 0
-2227 -2272 0
-2227 -2273 0
-2227 -2274 0
-2227 -2275 0
-2227 -2276 0
-2227 -2277 0
-2227 -2278 0
-2227 -2279 0
-2227 -2280 0
-2227 -2281 0
-2227 -2282 0
-2227 -2283 0
-2227 -2284 0
-2227 -2285 0
-2227 -2286 0
-2227 -2287 0
-2227 -2288 0
-2227 -2289 0
-2227 -2290 0
-2227 -2291 0
-2227 -2292 0
-2227 -2293 0
-2227 -2294 0
-2227 -2295 0
-2227 -2296 0
-2227 -2297 0
-2227 -2298 0
-2227 -2299 0
-2227 -2300 0
-2227 -2301 0
-2227 -2302 0
-2227 -2303 0
-2227 -2304 0
-2227 -2305 0
-2227 -2306 0
-2227 -2307 0
-2227 -2308 0
-2228 -2229 0
-2228 -2230 0
-2228 -2231 0
-2228 -2232 0
-2228 -2233 0
-2228 -2234 0
-2228 -2235 0
-2228 -2236 0
-2228 -2237 0
-2228 -2238 0
-2228 -2239 0
-2228 -2240 0
-2228 -2241 0
-2228 -2242 0
-2228 -2243 0
-2228 -2244 0
-2228 -2245 0
-2228 -2246 0
-2228 -2247 0
-2228 -2248 0
-2228 -2249 0
-2228 -2250 0
-2228 -2251 0
-2228 -2252 0
-2228 -2253 0
-2228 -2254 0
-2228 -2255 0
-2228 -2256 0
-2228 -2257 0
-2228 -2258 0
-2228 -2259 0
-2228 -2260 0
-2228 -2261 0
-2228 -2262 0
-2228 -2263 0
-2228 -2264 0
-2228 -2265 0
-2228 -2266 0
-2228 -2267 0
-2228 -2268 0
-2228 -2269 0
-2228 -2270 0
-2228 -2271 0
-2228 -2272 0
-2228 -2273 0
-2228 -2274 0
-2228 -2275 0
-2228 -2276 0
-2228 -2277 0
-2228 -2278 0
-2228 -2279 0
-2228 -2280 0
-2228 -2281 0
-2228 -2282 0
-2228 -2283 0
-2228 -2284 0
-2228 -2285 0
-2228 -2286 0
-2228 -2287 0
-2228 -2288 0
-2228 -2289 0
-2228 -2290 0
-2228 -2291 0
-2228 -2292 0
-2228 -2293 0
-2228 -2294 0
-2228 -2295 0
-2228 -2296 0
-2228 -2297 0
-2228 -2298 0
-2228 -2299 0
-2228 -2300 0
-2228 -2301 0
-2228 -2302 0
-2228 -2303 0
-2228 -2304 0
-2228 -2305 0
-2228 -2306 0
-2228 -2307 0
-2228 -2308 0
-2229 -2230 0
-2229 -2231 0
-2229 -2232 0
-2229 -2233 0
-2229 -2234 0
-2229 -2235 0
-2229 -2236 0
-2229 -2237 0
-2229 -2238 0
-2229 -2239 0
-2229 -2240 0
-2229 -2241 0
-2229 -2242 0
-2229 -2243 0
-2229 -2244 0
-2229 -2245 0
-2229 -2246 0
-2229 -2247 0
-2229 -2248 0
-2229 -2249 0
-2229 -2250 0
-2229 -2251 0
-2229 -2252 0
-2229 -2253 0
-2229 -2254 0
-2229 -2255 0
-2229 -2256 0
-2229 -2257 0
-2229 -2258 0
-2229 -2259 0
-2229 -2260 0
-2229 -2261 0
-2229 -2262 0
-2229 -2263 0
-2229 -2264 0
-2229 -2265 0
-2229 -2266 0
-2229 -2267 0
-2229 -2268 0
-2229 -2269 0
-2229 -2270 0
-2229 -2271 0
-2229 -2272 0
-2229 -2273 0
-2229 -2274 0
-2229 -2275 0
-2229 -2276 0
-2229 -2277 0
-2229 -2278 0
-2229 -2279 0
-2229 -2280 0
-2229 -2281 0
-2229 -2282 0
-2229 -2283 0
-2229 -2284 0
-2229 -2285 0
-2229 -2286 0
-2229 -2287 0
-2229 -2288 0
-2229 -2289 0
-2229 -2290 0
-2229 -2291 0
-2229 -2292 0
-2229 -2293 0
-2229 -2294 0
-2229 -2295 0
-2229 -2296 0
-2229 -2297 0
-2229 -2298 0
-2229 -2299 0
-2229 -2300 0
-2229 -2301 0
-2229 -2302 0
-2229 -2303 0
-2229 -2304 0
-2229 -2305 0
-2229 -2306 0
-2229 -2307 0
-2229 -2308 0
-2230 -2231 0
-2230 -2232 0
-2230 -2233 0
-2230 -2234 0
-2230 -2235 0
-2230 -2236 0
-2230 -2237 0
-2230 -2238 0
-2230 -2239 0
-2230 -2240 0
-2230 -2241 0
-2230 -2242 0
-2230 -2243 0
-2230 -2244 0
-2230 -2245 0
-2230 -2246 0
-2230 -2247 0
-2230 -2248 0
-2230 -2249 0
-2230 -2250 0
-2230 -2251 0
-2230 -2252 0
-2230 -2253 0
-2230 -2254 0
-2230 -2255 0
-2230 -2256 0
-2230 -2257 0
-2230 -2258 0
-2230 -2259 0
-2230 -2260 0
-2230 -2261 0
-2230 -2262 0
-2230 -2263 0
-2230 -2264 0
-2230 -2265 0
-2230 -2266 0
-2230 -2267 0
-2230 -2268 0
-2230 -2269 0
-2230 -2270 0
-2230 -2271 0
-2230 -2272 0
-2230 -2273 0
-2230 -2274 0
-2230 -2275 0
-2230 -2276 0
-2230 -2277 0
-2230 -2278 0
-2230 -2279 0
-2230 -2280 0
-2230 -2281 0
-2230 -2282 0
-2230 -2283 0
-2230 -2284 0
-2230 -2285 0
-2230 -2286 0
-2230 -2287 0
-2230 -2288 0
-2230 -2289 0
-2230 -2290 0
-2230 -2291 0
-2230 -2292 0
-2230 -2293 0
-2230 -2294 0
-2230 -2295 0
-2230 -2296 0
-2230 -2297 0
-2230 -2298 0
-2230 -2299 0
-2230 -2300 0
-2230 -2301 0
-2230 -2302 0
-2230 -2303 0
-2230 -2304 0
-2230 -2305 0
-2230 -2306 0
-2230 -2307 0
-2230 -2308 0
-2231 -2232 0
-2231 -2233 0
-2231 -2234 0
-2231 -2235 0
-2231 -2236 0
-2231 -2237 0
-2231 -2238 0
-2231 -2239 0
-2231 -2240 0
-2231 -2241 0
-2231 -2242 0
-2231 -2243 0
-2231 -2244 0
-2231 -2245 0
-2231 -2246 0
-2231 -2247 0
-2231 -2248 0
-2231 -2249 0
-2231 -2250 0
-2231 -2251 0
-2231 -2252 0
-2231 -2253 0
-2231 -2254 0
-2231 -2255 0
-2231 -2256 0
-2231 -2257 0
-2231 -2258 0
-2231 -2259 0
-2231 -2260 0
-2231 -2261 0
-2231 -2262 0
-2231 -2263 0
-2231 -2264 0
-2231 -2265 0
-2231 -2266 0
-2231 -2267 0
-2231 -2268 0
-2231 -2269 0
-2231 -2270 0
-2231 -2271 0
-2231 -2272 0
-2231 -2273 0
-2231 -2274 0
-2231 -2275 0
-2231 -2276 0
-2231 -2277 0
-2231 -2278 0
-2231 -2279 0
-2231 -2280 0
-2231 -2281 0
-2231 -2282 0
-2231 -2283 0
-2231 -2284 0
-2231 -2285 0
-2231 -2286 0
-2231 -2287 0
-2231 -2288 0
-2231 -2289 0
-2231 -2290 0
-2231 -2291 0
-2231 -2292 0
-2231 -2293 0
-2231 -2294 0
-2231 -2295 0
-2231 -2296 0
-2231 -2297 0
-2231 -2298 0
-2231 -2299 0
-2231 -2300 0
-2231 -2301 0
-2231 -2302 0
-2231 -2303 0
-2231 -2304 0
-2231 -2305 0
-2231 -2306 0
-2231 -2307 0
-2231 -2308 0
-2232 -2233 0
-2232 -2234 0
-2232 -2235 0
-2232 -2236 0
-2232 -2237 0
-2232 -2238 0
-2232 -2239 0
-2232 -2240 0
-2232 -2241 0
-2232 -2242 0
-2232 -2243 0
-2232 -2244 0
-2232 -2245 0
-2232 -2246 0
-2232 -2247 0
-2232 -2248 0
-2232 -2249 0
-2232 -2250 0
-2232 -2251 0
-2232 -2252 0
-2232 -2253 0
-2232 -2254 0
-2232 -2255 0
-2232 -2256 0
-2232 -2257 0
-2232 -2258 0
-2232 -2259 0
-2232 -2260 0
-2232 -2261 0
-2232 -2262 0
-2232 -2263 0
-2232 -2264 0
-2232 -2265 0
-2232 -2266 0
-2232 -2267 0
-2232 -2268 0
-2232 -2269 0
-2232 -2270 0
-2232 -2271 0
-2232 -2272 0
-2232 -2273 0
-2232 -2274 0
-2232 -2275 0
-2232 -2276 0
-2232 -2277 0
-2232 -2278 0
-2232 -2279 0
-2232 -2280 0
-2232 -2281 0
-2232 -2282 0
-2232 -2283 0
-2232 -2284 0
-2232 -2285 0
-2232 -2286 0
-2232 -2287 0
-2232 -2288 0
-2232 -2289 0
-2232 -2290 0
-2232 -2291 0
-2232 -2292 0
-2232 -2293 0
-2232 -2294 0
-2232 -2295 0
-2232 -2296 0
-2232 -2297 0
-2232 -2298 0
-2232 -2299 0
-2232 -2300 0
-2232 -2301 0
-2232 -2302 0
-2232 -2303 0
-2232 -2304 0
-2232 -2305 0
-2232 -2306 0
-2232 -2307 0
-2232 -2308 0
-2233 -2234 0
-2233 -2235 0
-2233 -2236 0
-2233 -2237 0
-2233 -2238 0
-2233 -2239 0
-2233 -2240 0
-2233 -2241 0
-2233 -2242 0
-2233 -2243 0
-2233 -2244 0
-2233 -2245 0
-2233 -2246 0
-2233 -2247 0
-2233 -2248 0
-2233 -2249 0
-2233 -2250 0
-2233 -2251 0
-2233 -2252 0
-2233 -2253 0
-2233 -2254 0
-2233 -2255 0
-2233 -2256 0
-2233 -2257 0
-2233 -2258 0
-2233 -2259 0
-2233 -2260 0
-2233 -2261 0
-2233 -2262 0
-2233 -2263 0
-2233 -2264 0
-2233 -2265 0
-2233 -2266 0
-2233 -2267 0
-2233 -2268 0
-2233 -2269 0
-2233 -2270 0
-2233 -2271 0
-2233 -2272 0
-2233 -2273 0
-2233 -2274 0
-2233 -2275 0
-2233 -2276 0
-2233 -2277 0
-2233 -2278 0
-2233 -2279 0
-2233 -2280 0
-2233 -2281 0
-2233 -2282 0
-2233 -2283 0
-2233 -2284 0
-2233 -2285 0
-2233 -2286 0
-2233 -2287 0
-2233 -2288 0
-2233 -2289 0
-2233 -2290 0
-2233 -2291 0
-2233 -2292 0
-2233 -2293 0
-2233 -2294 0
-2233 -2295 0
-2233 -2296 0
-2233 -2297 0
-2233 -2298 0
-2233 -2299 0
-2233 -2300 0
-2233 -2301 0
-2233 -2302 0
-2233 -2303 0
-2233 -2304 0
-2233 -2305 0
-2233 -2306 0
-2233 -2307 0
-2233 -2308 0
-2234 -2235 0
-2234 -2236 0
-2234 -2237 0
-2234 -2238 0
-2234 -2239 0
-2234 -2240 0
-2234 -2241 0
-2234 -2242 0
-2234 -2243 0
-2234 -2244 0
-2234 -2245 0
-2234 -2246 0
-2234 -2247 0
-2234 -2248 0
-2234 -2249 0
-2234 -2250 0
-2234 -2251 0
-2234 -2252 0
-2234 -2253 0
-2234 -2254 0
-2234 -2255 0
-2234 -2256 0
-2234 -2257 0
-2234 -2258 0
-2234 -2259 0
-2234 -2260 0
-2234 -2261 0
-2234 -2262 0
-2234 -2263 0
-2234 -2264 0
-2234 -2265 0
-2234 -2266 0
-2234 -2267 0
-2234 -2268 0
-2234 -2269 0
-2234 -2270 0
-2234 -2271 0
-2234 -2272 0
-2234 -2273 0
-2234 -2274 0
-2234 -2275 0
-2234 -2276 0
-2234 -2277 0
-2234 -2278 0
-2234 -2279 0
-2234 -2280 0
-2234 -2281 0
-2234 -2282 0
-2234 -2283 0
-2234 -2284 0
-2234 -2285 0
-2234 -2286 0
-2234 -2287 0
-2234 -2288 0
-2234 -2289 0
-2234 -2290 0
-2234 -2291 0
-2234 -2292 0
-2234 -2293 0
-2234 -2294 0
-2234 -2295 0
-2234 -2296 0
-2234 -2297 0
-2234 -2298 0
-2234 -2299 0
-2234 -2300 0
-2234 -2301 0
-2234 -2302 0
-2234 -2303 0
-2234 -2304 0
-2234 -2305 0
-2234 -2306 0
-2234 -2307 0
-2234 -2308 0
-2235 -2236 0
-2235 -2237 0
-2235 -2238 0
-2235 -2239 0
-2235 -2240 0
-2235 -2241 0
-2235 -2242 0
-2235 -2243 0
-2235 -2244 0
-2235 -2245 0
-2235 -2246 0
-2235 -2247 0
-2235 -2248 0
-2235 -2249 0
-2235 -2250 0
-2235 -2251 0
-2235 -2252 0
-2235 -2253 0
-2235 -2254 0
-2235 -2255 0
-2235 -2256 0
-2235 -2257 0
-2235 -2258 0
-2235 -2259 0
-2235 -2260 0
-2235 -2261 0
-2235 -2262 0
-2235 -2263 0
-2235 -2264 0
-2235 -2265 0
-2235 -2266 0
-2235 -2267 0
-2235 -2268 0
-2235 -2269 0
-2235 -2270 0
-2235 -2271 0
-2235 -2272 0
-2235 -2273 0
-2235 -2274 0
-2235 -2275 0
-2235 -2276 0
-2235 -2277 0
-2235 -2278 0
-2235 -2279 0
-2235 -2280 0
-2235 -2281 0
-2235 -2282 0
-2235 -2283 0
-2235 -2284 0
-2235 -2285 0
-2235 -2286 0
-2235 -2287 0
-2235 -2288 0
-2235 -2289 0
-2235 -2290 0
-2235 -2291 0
-2235 -2292 0
-2235 -2293 0
-2235 -2294 0
-2235 -2295 0
-2235 -2296 0
-2235 -2297 0
-2235 -2298 0
-2235 -2299 0
-2235 -2300 0
-2235 -2301 0
-2235 -2302 0
-2235 -2303 0
-2235 -2304 0
-2235 -2305 0
-2235 -2306 0
-2235 -2307 0
-2235 -2308 0
-2236 -2237 0
-2236 -2238 0
-2236 -2239 0
-2236 -2240 0
-2236 -2241 0
-2236 -2242 0
-2236 -2243 0
-2236 -2244 0
-2236 -2245 0
-2236 -2246 0
-2236 -2247 0
-2236 -2248 0
-2236 -2249 0
-2236 -2250 0
-2236 -2251 0
-2236 -2252 0
-2236 -2253 0
-2236 -2254 0
-2236 -2255 0
-2236 -2256 0
-2236 -2257 0
-2236 -2258 0
-2236 -2259 0
-2236 -2260 0
-2236 -2261 0
-2236 -2262 0
-2236 -2263 0
-2236 -2264 0
-2236 -2265 0
-2236 -2266 0
-2236 -2267 0
-2236 -2268 0
-2236 -2269 0
-2236 -2270 0
-2236 -2271 0
-2236 -2272 0
-2236 -2273 0
-2236 -2274 0
-2236 -2275 0
-2236 -2276 0
-2236 -2277 0
-2236 -2278 0
-2236 -2279 0
-2236 -2280 0
-2236 -2281 0
-2236 -2282 0
-2236 -2283 0
-2236 -2284 0
-2236 -2285 0
-2236 -2286 0
-2236 -2287 0
-2236 -2288 0
-2236 -2289 0
-2236 -2290 0
-2236 -2291 0
-2236 -2292 0
-2236 -2293 0
-2236 -2294 0
-2236 -2295 0
-2236 -2296 0
-2236 -2297 0
-2236 -2298 0
-2236 -2299 0
-2236 -2300 0
-2236 -2301 0
-2236 -2302 0
-2236 -2303 0
-2236 -2304 0
-2236 -2305 0
-2236 -2306 0
-2236 -2307 0
-2236 -2308 0
-2237 -2238 0
-2237 -2239 0
-2237 -2240 0
-2237 -2241 0
-2237 -2242 0
-2237 -2243 0
-2237 -2244 0
-2237 -2245 0
-2237 -2246 0
-2237 -2247 0
-2237 -2248 0
-2237 -2249 0
-2237 -2250 0
-2237 -2251 0
-2237 -2252 0
-2237 -2253 0
-2237 -2254 0
-2237 -2255 0
-2237 -2256 0
-2237 -2257 0
-2237 -2258 0
-2237 -2259 0
-2237 -2260 0
-2237 -2261 0
-2237 -2262 0
-2237 -2263 0
-2237 -2264 0
-2237 -2265 0
-2237 -2266 0
-2237 -2267 0
-2237 -2268 0
-2237 -2269 0
-2237 -2270 0
-2237 -2271 0
-2237 -2272 0
-2237 -2273 0
-2237 -2274 0
-2237 -2275 0
-2237 -2276 0
-2237 -2277 0
-2237 -2278 0
-2237 -2279 0
-2237 -2280 0
-2237 -2281 0
-2237 -2282 0
-2237 -2283 0
-2237 -2284 0
-2237 -2285 0
-2237 -2286 0
-2237 -2287 0
-2237 -2288 0
-2237 -2289 0
-2237 -2290 0
-2237 -2291 0
-2237 -2292 0
-2237 -2293 0
-2237 -2294 0
-2237 -2295 0
-2237 -2296 0
-2237 -2297 0
-2237 -2298 0
-2237 -2299 0
-2237 -2300 0
-2237 -2301 0
-2237 -2302 0
-2237 -2303 0
-2237 -2304 0
-2237 -2305 0
-2237 -2306 0
-2237 -2307 0
-2237 -2308 0
-2238 -2239 0
-2238 -2240 0
-2238 -2241 0
-2238 -2242 0
-2238 -2243 0
-2238 -2244 0
-2238 -2245 0
-2238 -2246 0
-2238 -2247 0
-2238 -2248 0
-2238 -2249 0
-2238 -2250 0
-2238 -2251 0
-2238 -2252 0
-2238 -2253 0
-2238 -2254 0
-2238 -2255 0
-2238 -2256 0
-2238 -2257 0
-2238 -2258 0
-2238 -2259 0
-2238 -2260 0
-2238 -2261 0
-2238 -2262 0
-2238 -2263 0
-2238 -2264 0
-2238 -2265 0
-2238 -2266 0
-2238 -2267 0
-2238 -2268 0
-2238 -2269 0
-2238 -2270 0
-2238 -2271 0
-2238 -2272 0
-2238 -2273 0
-2238 -2274 0
-2238 -2275 0
-2238 -2276 0
-2238 -2277 0
-2238 -2278 0
-2238 -2279 0
-2238 -2280 0
-2238 -2281 0
-2238 -2282 0
-2238 -2283 0
-2238 -2284 0
-2238 -2285 0
-2238 -2286 0
-2238 -2287 0
-2238 -2288 0
-2238 -2289 0
-2238 -2290 0
-2238 -2291 0
-2238 -2292 0
-2238 -2293 0
-2238 -2294 0
-2238 -2295 0
-2238 -2296 0
-2238 -2297 0
-2238 -2298 0
-2238 -2299 0
-2238 -2300 0
-2238 -2301 0
-2238 -2302 0
-2238 -2303 0
-2238 -2304 0
-2238 -2305 0
-2238 -2306 0
-2238 -2307 0
-2238 -2308 0
-2239 -2240 0
-2239 -2241 0
-2239 -2242 0
-2239 -2243 0
-2239 -2244 0
-2239 -2245 0
-2239 -2246 0
-2239 -2247 0
-2239 -2248 0
-2239 -2249 0
-2239 -2250 0
-2239 -2251 0
-2239 -2252 0
-2239 -2253 0
-2239 -2254 0
-2239 -2255 0
-2239 -2256 0
-2239 -2257 0
-2239 -2258 0
-2239 -2259 0
-2239 -2260 0
-2239 -2261 0
-2239 -2262 0
-2239 -2263 0
-2239 -2264 0
-2239 -2265 0
-2239 -2266 0
-2239 -2267 0
-2239 -2268 0
-2239 -2269 0
-2239 -2270 0
-2239 -2271 0
-2239 -2272 0
-2239 -2273 0
-2239 -2274 0
-2239 -2275 0
-2239 -2276 0
-2239 -2277 0
-2239 -2278 0
-2239 -2279 0
-2239 -2280 0
-2239 -2281 0
-2239 -2282 0
-2239 -2283 0
-2239 -2284 0
-2239 -2285 0
-2239 -2286 0
-2239 -2287 0
-2239 -2288 0
-2239 -2289 0
-2239 -2290 0
-2239 -2291 0
-2239 -2292 0
-2239 -2293 0
-2239 -2294 0
-2239 -2295 0
-2239 -2296 0
-2239 -2297 0
-2239 -2298 0
-2239 -2299 0
-2239 -2300 0
-2239 -2301 0
-2239 -2302 0
-2239 -2303 0
-2239 -2304 0
-2239 -2305 0
-2239 -2306 0
-2239 -2307 0
-2239 -2308 0
-2240 -2241 0
-2240 -2242 0
-2240 -2243 0
-2240 -2244 0
-2240 -2245 0
-2240 -2246 0
-2240 -2247 0
-2240 -2248 0
-2240 -2249 0
-2240 -2250 0
-2240 -2251 0
-2240 -2252 0
-2240 -2253 0
-2240 -2254 0
-2240 -2255 0
-2240 -2256 0
-2240 -2257 0
-2240 -2258 0
-2240 -2259 0
-2240 -2260 0
-2240 -2261 0
-2240 -2262 0
-2240 -2263 0
-2240 -2264 0
-2240 -2265 0
-2240 -2266 0
-2240 -2267 0
-2240 -2268 0
-2240 -2269 0
-2240 -2270 0
-2240 -2271 0
-2240 -2272 0
-2240 -2273 0
-2240 -2274 0
-2240 -2275 0
-2240 -2276 0
-2240 -2277 0
-2240 -2278 0
-2240 -2279 0
-2240 -2280 0
-2240 -2281 0
-2240 -2282 0
-2240 -2283 0
-2240 -2284 0
-2240 -2285 0
-2240 -2286 0
-2240 -2287 0
-2240 -2288 0
-2240 -2289 0
-2240 -2290 0
-2240 -2291 0
-2240 -2292 0
-2240 -2293 0
-2240 -2294 0
-2240 -2295 0
-2240 -2296 0
-2240 -2297 0
-2240 -2298 0
-2240 -2299 0
-2240 -2300 0
-2240 -2301 0
-2240 -2302 0
-2240 -2303 0
-2240 -2304 0
-2240 -2305 0
-2240 -2306 0
-2240 -2307 0
-2240 -2308 0
-2241 -2242 0
-2241 -2243 0
-2241 -2244 0
-2241 -2245 0
-2241 -2246 0
-2241 -2247 0
-2241 -2248 0
-2241 -2249 0
-2241 -2250 0
-2241 -2251 0
-2241 -2252 0
-2241 -2253 0
-2241 -2254 0
-2241 -2255 0
-2241 -2256 0
-2241 -2257 0
-2241 -2258 0
-2241 -2259 0
-2241 -2260 0
-2241 -2261 0
-2241 -2262 0
-2241 -2263 0
-2241 -2264 0
-2241 -2265 0
-2241 -2266 0
-2241 -2267 0
-2241 -2268 0
-2241 -2269 0
-2241 -2270 0
-2241 -2271 0
-2241 -2272 0
-2241 -2273 0
-2241 -2274 0
-2241 -2275 0
-2241 -2276 0
-2241 -2277 0
-2241 -2278 0
-2241 -2279 0
-2241 -2280 0
-2241 -2281 0
-2241 -2282 0
-2241 -2283 0
-2241 -2284 0
-2241 -2285 0
-2241 -2286 0
-2241 -2287 0
-2241 -2288 0
-2241 -2289 0
-2241 -2290 0
-2241 -2291 0
-2241 -2292 0
-2241 -2293 0
-2241 -2294 0
-2241 -2295 0
-2241 -2296 0
-2241 -2297 0
-2241 -2298 0
-2241 -2299 0
-2241 -2300 0
-2241 -2301 0
-2241 -2302 0
-2241 -2303 0
-2241 -2304 0
-2241 -2305 0
-2241 -2306 0
-2241 -2307 0
-2241 -2308 0
-2242 -2243 0
-2242 -2244 0
-2242 -2245 0
-2242 -2246 0
-2242 -2247 0
-2242 -2248 0
-2242 -2249 0
-2242 -2250 0
-2242 -2251 0
-2242 -2252 0
-2242 -2253 0
-2242 -2254 0
-2242 -2255 0
-2242 -2256 0
-2242 -2257 0
-2242 -2258 0
-2242 -2259 0
-2242 -2260 0
-2242 -2261 0
-2242 -2262 0
-2242 -2263 0
-2242 -2264 0
-2242 -2265 0
-2242 -2266 0
-2242 -2267 0
-2242 -2268 0
-2242 -2269 0
-2242 -2270 0
-2242 -2271 0
-2242 -2272 0
-2242 -2273 0
-2242 -2274 0
-2242 -2275 0
-2242 -2276 0
-2242 -2277 0
-2242 -2278 0
-2242 -2279 0
-2242 -2280 0
-2242 -2281 0
-2242 -2282 0
-2242 -2283 0
-2242 -2284 0
-2242 -2285 0
-2242 -2286 0
-2242 -2287 0
-2242 -2288 0
-2242 -2289 0
-2242 -2290 0
-2242 -2291 0
-2242 -2292 0
-2242 -2293 0
-2242 -2294 0
-2242 -2295 0
-2242 -2296 0
-2242 -2297 0
-2242 -2298 0
-2242 -2299 0
-2242 -2300 0
-2242 -2301 0
-2242 -2302 0
-2242 -2303 0
-2242 -2304 0
-2242 -2305 0
-2242 -2306 0
-2242 -2307 0
-2242 -2308 0
-2243 -2244 0
-2243 -2245 0
-2243 -2246 0
-2243 -2247 0
-2243 -2248 0
-2243 -2249 0
-2243 -2250 0
-2243 -2251 0
-2243 -2252 0
-2243 -2253 0
-2243 -2254 0
-2243 -2255 0
-2243 -2256 0
-2243 -2257 0
-2243 -2258 0
-2243 -2259 0
-2243 -2260 0
-2243 -2261 0
-2243 -2262 0
-2243 -2263 0
-2243 -2264 0
-2243 -2265 0
-2243 -2266 0
-2243 -2267 0
-2243 -2268 0
-2243 -2269 0
-2243 -2270 0
-2243 -2271 0
-2243 -2272 0
-2243 -2273 0
-2243 -2274 0
-2243 -2275 0
-2243 -2276 0
-2243 -2277 0
-2243 -2278 0
-2243 -2279 0
-2243 -2280 0
-2243 -2281 0
-2243 -2282 0
-2243 -2283 0
-2243 -2284 0
-2243 -2285 0
-2243 -2286 0
-2243 -2287 0
-2243 -2288 0
-2243 -2289 0
-2243 -2290 0
-2243 -2291 0
-2243 -2292 0
-2243 -2293 0
-2243 -2294 0
-2243 -2295 0
-2243 -2296 0
-2243 -2297 0
-2243 -2298 0
-2243 -2299 0
-2243 -2300 0
-2243 -2301 0
-2243 -2302 0
-2243 -2303 0
-2243 -2304 0
-2243 -2305 0
-2243 -2306 0
-2243 -2307 0
-2243 -2308 0
-2244 -2245 0
-2244 -2246 0
-2244 -2247 0
-2244 -2248 0
-2244 -2249 0
-2244 -2250 0
-2244 -2251 0
-2244 -2252 0
-2244 -2253 0
-2244 -2254 0
-2244 -2255 0
-2244 -2256 0
-2244 -2257 0
-2244 -2258 0
-2244 -2259 0
-2244 -2260 0
-2244 -2261 0
-2244 -2262 0
-2244 -2263 0
-2244 -2264 0
-2244 -2265 0
-2244 -2266 0
-2244 -2267 0
-2244 -2268 0
-2244 -2269 0
-2244 -2270 0
-2244 -2271 0
-2244 -2272 0
-2244 -2273 0
-2244 -2274 0
-2244 -2275 0
-2244 -2276 0
-2244 -2277 0
-2244 -2278 0
-2244 -2279 0
-2244 -2280 0
-2244 -2281 0
-2244 -2282 0
-2244 -2283 0
-2244 -2284 0
-2244 -2285 0
-2244 -2286 0
-2244 -2287 0
-2244 -2288 0
-2244 -2289 0
-2244 -2290 0
-2244 -2291 0
-2244 -2292 0
-2244 -2293 0
-2244 -2294 0
-2244 -2295 0
-2244 -2296 0
-2244 -2297 0
-2244 -2298 0
-2244 -2299 0
-2244 -2300 0
-2244 -2301 0
-2244 -2302 0
-2244 -2303 0
-2244 -2304 0
-2244 -2305 0
-2244 -2306 0
-2244 -2307 0
-2244 -2308 0
-2245 -2246 0
-2245 -2247 0
-2245 -2248 0
-2245 -2249 0
-2245 -2250 0
-2245 -2251 0
-2245 -2252 0
-2245 -2253 0
-2245 -2254 0
-2245 -2255 0
-2245 -2256 0
-2245 -2257 0
-2245 -2258 0
-2245 -2259 0
-2245 -2260 0
-2245 -2261 0
-2245 -2262 0
-2245 -2263 0
-2245 -2264 0
-2245 -2265 0
-2245 -2266 0
-2245 -2267 0
-2245 -2268 0
-2245 -2269 0
-2245 -2270 0
-2245 -2271 0
-2245 -2272 0
-2245 -2273 0
-2245 -2274 0
-2245 -2275 0
-2245 -2276 0
-2245 -2277 0
-2245 -2278 0
-2245 -2279 0
-2245 -2280 0
-2245 -2281 0
-2245 -2282 0
-2245 -2283 0
-2245 -2284 0
-2245 -2285 0
-2245 -2286 0
-2245 -2287 0
-2245 -2288 0
-2245 -2289 0
-2245 -2290 0
-2245 -2291 0
-2245 -2292 0
-2245 -2293 0
-2245 -2294 0
-2245 -2295 0
-2245 -2296 0
-2245 -2297 0
-2245 -2298 0
-2245 -2299 0
-2245 -2300 0
-2245 -2301 0
-2245 -2302 0
-2245 -2303 0
-2245 -2304 0
-2245 -2305 0
-2245 -2306 0
-2245 -2307 0
-2245 -2308 0
-2246 -2247 0
-2246 -2248 0
-2246 -2249 0
-2246 -2250 0
-2246 -2251 0
-2246 -2252 0
-2246 -2253 0
-2246 -2254 0
-2246 -2255 0
-2246 -2256 0
-2246 -2257 0
-2246 -2258 0
-2246 -2259 0
-2246 -2260 0
-2246 -2261 0
-2246 -2262 0
-2246 -2263 0
-2246 -2264 0
-2246 -2265 0
-2246 -2266 0
-2246 -2267 0
-2246 -2268 0
-2246 -2269 0
-2246 -2270 0
-2246 -2271 0
-2246 -2272 0
-2246 -2273 0
-2246 -2274 0
-2246 -2275 0
-2246 -2276 0
-2246 -2277 0
-2246 -2278 0
-2246 -2279 0
-2246 -2280 0
-2246 -2281 0
-2246 -2282 0
-2246 -2283 0
-2246 -2284 0
-2246 -2285 0
-2246 -2286 0
-2246 -2287 0
-2246 -2288 0
-2246 -2289 0
-2246 -2290 0
-2246 -2291 0
-2246 -2292 0
-2246 -2293 0
-2246 -2294 0
-2246 -2295 0
-2246 -2296 0
-2246 -2297 0
-2246 -2298 0
-2246 -2299 0
-2246 -2300 0
-2246 -2301 0
-2246 -2302 0
-2246 -2303 0
-2246 -2304 0
-2246 -2305 0
-2246 -2306 0
-2246 -2307 0
-2246 -2308 0
-2247 -2248 0
-2247 -2249 0
-2247 -2250 0
-2247 -2251 0
-2247 -2252 0
-2247 -2253 0
-2247 -2254 0
-2247 -2255 0
-2247 -2256 0
-2247 -2257 0
-2247 -2258 0
-2247 -2259 0
-2247 -2260 0
-2247 -2261 0
-2247 -2262 0
-2247 -2263 0
-2247 -2264 0
-2247 -2265 0
-2247 -2266 0
-2247 -2267 0
-2247 -2268 0
-2247 -2269 0
-2247 -2270 0
-2247 -2271 0
-2247 -2272 0
-2247 -2273 0
-2247 -2274 0
-2247 -2275 0
-2247 -2276 0
-2247 -2277 0
-2247 -2278 0
-2247 -2279 0
-2247 -2280 0
-2247 -2281 0
-2247 -2282 0
-2247 -2283 0
-2247 -2284 0
-2247 -2285 0
-2247 -2286 0
-2247 -2287 0
-2247 -2288 0
-2247 -2289 0
-2247 -2290 0
-2247 -2291 0
-2247 -2292 0
-2247 -2293 0
-2247 -2294 0
-2247 -2295 0
-2247 -2296 0
-2247 -2297 0
-2247 -2298 0
-2247 -2299 0
-2247 -2300 0
-2247 -2301 0
-2247 -2302 0
-2247 -2303 0
-2247 -2304 0
-2247 -2305 0
-2247 -2306 0
-2247 -2307 0
-2247 -2308 0
-2248 -2249 0
-2248 -2250 0
-2248 -2251 0
-2248 -2252 0
-2248 -2253 0
-2248 -2254 0
-2248 -2255 0
-2248 -2256 0
-2248 -2257 0
-2248 -2258 0
-2248 -2259 0
-2248 -2260 0
-2248 -2261 0
-2248 -2262 0
-2248 -2263 0
-2248 -2264 0
-2248 -2265 0
-2248 -2266 0
-2248 -2267 0
-2248 -2268 0
-2248 -2269 0
-2248 -2270 0
-2248 -2271 0
-2248 -2272 0
-2248 -2273 0
-2248 -2274 0
-2248 -2275 0
-2248 -2276 0
-2248 -2277 0
-2248 -2278 0
-2248 -2279 0
-2248 -2280 0
-2248 -2281 0
-2248 -2282 0
-2248 -2283 0
-2248 -2284 0
-2248 -2285 0
-2248 -2286 0
-2248 -2287 0
-2248 -2288 0
-2248 -2289 0
-2248 -2290 0
-2248 -2291 0
-2248 -2292 0
-2248 -2293 0
-2248 -2294 0
-2248 -2295 0
-2248 -2296 0
-2248 -2297 0
-2248 -2298 0
-2248 -2299 0
-2248 -2300 0
-2248 -2301 0
-2248 -2302 0
-2248 -2303 0
-2248 -2304 0
-2248 -2305 0
-2248 -2306 0
-2248 -2307 0
-2248 -2308 0
-2249 -2250 0
-2249 -2251 0
-2249 -2252 0
-2249 -2253 0
-2249 -2254 0
-2249 -2255 0
-2249 -2256 0
-2249 -2257 0
-2249 -2258 0
-2249 -2259 0
-2249 -2260 0
-2249 -2261 0
-2249 -2262 0
-2249 -2263 0
-2249 -2264 0
-2249 -2265 0
-2249 -2266 0
-2249 -2267 0
-2249 -2268 0
-2249 -2269 0
-2249 -2270 0
-2249 -2271 0
-2249 -2272 0
-2249 -2273 0
-2249 -2274 0
-2249 -2275 0
-2249 -2276 0
-2249 -2277 0
-2249 -2278 0
-2249 -2279 0
-2249 -2280 0
-2249 -2281 0
-2249 -2282 0
-2249 -2283 0
-2249 -2284 0
-2249 -2285 0
-2249 -2286 0
-2249 -2287 0
-2249 -2288 0
-2249 -2289 0
-2249 -2290 0
-2249 -2291 0
-2249 -2292 0
-2249 -2293 0
-2249 -2294 0
-2249 -2295 0
-2249 -2296 0
-2249 -2297 0
-2249 -2298 0
-2249 -2299 0
-2249 -2300 0
-2249 -2301 0
-2249 -2302 0
-2249 -2303 0
-2249 -2304 0
-2249 -2305 0
-2249 -2306 0
-2249 -2307 0
-2249 -2308 0
-2250 -2251 0
-2250 -2252 0
-2250 -2253 0
-2250 -2254 0
-2250 -2255 0
-2250 -2256 0
-2250 -2257 0
-2250 -2258 0
-2250 -2259 0
-2250 -2260 0
-2250 -2261 0
-2250 -2262 0
-2250 -2263 0
-2250 -2264 0
-2250 -2265 0
-2250 -2266 0
-2250 -2267 0
-2250 -2268 0
-2250 -2269 0
-2250 -2270 0
-2250 -2271 0
-2250 -2272 0
-2250 -2273 0
-2250 -2274 0
-2250 -2275 0
-2250 -2276 0
-2250 -2277 0
-2250 -2278 0
-2250 -2279 0
-2250 -2280 0
-2250 -2281 0
-2250 -2282 0
-2250 -2283 0
-2250 -2284 0
-2250 -2285 0
-2250 -2286 0
-2250 -2287 0
-2250 -2288 0
-2250 -2289 0
-2250 -2290 0
-2250 -2291 0
-2250 -2292 0
-2250 -2293 0
-2250 -2294 0
-2250 -2295 0
-2250 -2296 0
-2250 -2297 0
-2250 -2298 0
-2250 -2299 0
-2250 -2300 0
-2250 -2301 0
-2250 -2302 0
-2250 -2303 0
-2250 -2304 0
-2250 -2305 0
-2250 -2306 0
-2250 -2307 0
-2250 -2308 0
-2251 -2252 0
-2251 -2253 0
-2251 -2254 0
-2251 -2255 0
-2251 -2256 0
-2251 -2257 0
-2251 -2258 0
-2251 -2259 0
-2251 -2260 0
-2251 -2261 0
-2251 -2262 0
-2251 -2263 0
-2251 -2264 0
-2251 -2265 0
-2251 -2266 0
-2251 -2267 0
-2251 -2268 0
-2251 -2269 0
-2251 -2270 0
-2251 -2271 0
-2251 -2272 0
-2251 -2273 0
-2251 -2274 0
-2251 -2275 0
-2251 -2276 0
-2251 -2277 0
-2251 -2278 0
-2251 -2279 0
-2251 -2280 0
-2251 -2281 0
-2251 -2282 0
-2251 -2283 0
-2251 -2284 0
-2251 -2285 0
-2251 -2286 0
-2251 -2287 0
-2251 -2288 0
-2251 -2289 0
-2251 -2290 0
-2251 -2291 0
-2251 -2292 0
-2251 -2293 0
-2251 -2294 0
-2251 -2295 0
-2251 -2296 0
-2251 -2297 0
-2251 -2298 0
-2251 -2299 0
-2251 -2300 0
-2251 -2301 0
-2251 -2302 0
-2251 -2303 0
-2251 -2304 0
-2251 -2305 0
-2251 -2306 0
-2251 -2307 0
-2251 -2308 0
-2252 -2253 0
-2252 -2254 0
-2252 -2255 0
-2252 -2256 0
-2252 -2257 0
-2252 -2258 0
-2252 -2259 0
-2252 -2260 0
-2252 -2261 0
-2252 -2262 0
-2252 -2263 0
-2252 -2264 0
-2252 -2265 0
-2252 -2266 0
-2252 -2267 0
-2252 -2268 0
-2252 -2269 0
-2252 -2270 0
-2252 -2271 0
-2252 -2272 0
-2252 -2273 0
-2252 -2274 0
-2252 -2275 0
-2252 -2276 0
-2252 -2277 0
-2252 -2278 0
-2252 -2279 0
-2252 -2280 0
-2252 -2281 0
-2252 -2282 0
-2252 -2283 0
-2252 -2284 0
-2252 -2285 0
-2252 -2286 0
-2252 -2287 0
-2252 -2288 0
-2252 -2289 0
-2252 -2290 0
-2252 -2291 0
-2252 -2292 0
-2252 -2293 0
-2252 -2294 0
-2252 -2295 0
-2252 -2296 0
-2252 -2297 0
-2252 -2298 0
-2252 -2299 0
-2252 -2300 0
-2252 -2301 0
-2252 -2302 0
-2252 -2303 0
-2252 -2304 0
-2252 -2305 0
-2252 -2306 0
-2252 -2307 0
-2252 -2308 0
-2253 -2254 0
-2253 -2255 0
-2253 -2256 0
-2253 -2257 0
-2253 -2258 0
-2253 -2259 0
-2253 -2260 0
-2253 -2261 0
-2253 -2262 0
-2253 -2263 0
-2253 -2264 0
-2253 -2265 0
-2253 -2266 0
-2253 -2267 0
-2253 -2268 0
-2253 -2269 0
-2253 -2270 0
-2253 -2271 0
-2253 -2272 0
-2253 -2273 0
-2253 -2274 0
-2253 -2275 0
-2253 -2276 0
-2253 -2277 0
-2253 -2278 0
-2253 -2279 0
-2253 -2280 0
-2253 -2281 0
-2253 -2282 0
-2253 -2283 0
-2253 -2284 0
-2253 -2285 0
-2253 -2286 0
-2253 -2287 0
-2253 -2288 0
-2253 -2289 0
-2253 -2290 0
-2253 -2291 0
-2253 -2292 0
-2253 -2293 0
-2253 -2294 0
-2253 -2295 0
-2253 -2296 0
-2253 -2297 0
-2253 -2298 0
-2253 -2299 0
-2253 -2300 0
-2253 -2301 0
-2253 -2302 0
-2253 -2303 0
-2253 -2304 0
-2253 -2305 0
-2253 -2306 0
-2253 -2307 0
-2253 -2308 0
-2254 -2255 0
-2254 -2256 0
-2254 -2257 0
-2254 -2258 0
-2254 -2259 0
-2254 -2260 0
-2254 -2261 0
-2254 -2262 0
-2254 -2263 0
-2254 -2264 0
-2254 -2265 0
-2254 -2266 0
-2254 -2267 0
-2254 -2268 0
-2254 -2269 0
-2254 -2270 0
-2254 -2271 0
-2254 -2272 0
-2254 -2273 0
-2254 -2274 0
-2254 -2275 0
-2254 -2276 0
-2254 -2277 0
-2254 -2278 0
-2254 -2279 0
-2254 -2280 0
-2254 -2281 0
-2254 -2282 0
-2254 -2283 0
-2254 -2284 0
-2254 -2285 0
-2254 -2286 0
-2254 -2287 0
-2254 -2288 0
-2254 -2289 0
-2254 -2290 0
-2254 -2291 0
-2254 -2292 0
-2254 -2293 0
-2254 -2294 0
-2254 -2295 0
-2254 -2296 0
-2254 -2297 0
-2254 -2298 0
-2254 -2299 0
-2254 -2300 0
-2254 -2301 0
-2254 -2302 0
-2254 -2303 0
-2254 -2304 0
-2254 -2305 0
-2254 -2306 0
-2254 -2307 0
-2254 -2308 0
-2255 -2256 0
-2255 -2257 0
-2255 -2258 0
-2255 -2259 0
-2255 -2260 0
-2255 -2261 0
-2255 -2262 0
-2255 -2263 0
-2255 -2264 0
-2255 -2265 0
-2255 -2266 0
-2255 -2267 0
-2255 -2268 0
-2255 -2269 0
-2255 -2270 0
-2255 -2271 0
-2255 -2272 0
-2255 -2273 0
-2255 -2274 0
-2255 -2275 0
-2255 -2276 0
-2255 -2277 0
-2255 -2278 0
-2255 -2279 0
-2255 -2280 0
-2255 -2281 0
-2255 -2282 0
-2255 -2283 0
-2255 -2284 0
-2255 -2285 0
-2255 -2286 0
-2255 -2287 0
-2255 -2288 0
-2255 -2289 0
-2255 -2290 0
-2255 -2291 0
-2255 -2292 0
-2255 -2293 0
-2255 -2294 0
-2255 -2295 0
-2255 -2296 0
-2255 -2297 0
-2255 -2298 0
-2255 -2299 0
-2255 -2300 0
-2255 -2301 0
-2255 -2302 0
-2255 -2303 0
-2255 -2304 0
-2255 -2305 0
-2255 -2306 0
-2255 -2307 0
-2255 -2308 0
-2256 -2257 0
-2256 -2258 0
-2256 -2259 0
-2256 -2260 0
-2256 -2261 0
-2256 -2262 0
-2256 -2263 0
-2256 -2264 0
-2256 -2265 0
-2256 -2266 0
-2256 -2267 0
-2256 -2268 0
-2256 -2269 0
-2256 -2270 0
-2256 -2271 0
-2256 -2272 0
-2256 -2273 0
-2256 -2274 0
-2256 -2275 0
-2256 -2276 0
-2256 -2277 0
-2256 -2278 0
-2256 -2279 0
-2256 -2280 0
-2256 -2281 0
-2256 -2282 0
-2256 -2283 0
-2256 -2284 0
-2256 -2285 0
-2256 -2286 0
-2256 -2287 0
-2256 -2288 0
-2256 -2289 0
-2256 -2290 0
-2256 -2291 0
-2256 -2292 0
-2256 -2293 0
-2256 -2294 0
-2256 -2295 0
-2256 -2296 0
-2256 -2297 0
-2256 -2298 0
-2256 -2299 0
-2256 -2300 0
-2256 -2301 0
-2256 -2302 0
-2256 -2303 0
-2256 -2304 0
-2256 -2305 0
-2256 -2306 0
-2256 -2307 0
-2256 -2308 0
-2257 -2258 0
-2257 -2259 0
-2257 -2260 0
-2257 -2261 0
-2257 -2262 0
-2257 -2263 0
-2257 -2264 0
-2257 -2265 0
-2257 -2266 0
-2257 -2267 0
-2257 -2268 0
-2257 -2269 0
-2257 -2270 0
-2257 -2271 0
-2257 -2272 0
-2257 -2273 0
-2257 -2274 0
-2257 -2275 0
-2257 -2276 0
-2257 -2277 0
-2257 -2278 0
-2257 -2279 0
-2257 -2280 0
-2257 -2281 0
-2257 -2282 0
-2257 -2283 0
-2257 -2284 0
-2257 -2285 0
-2257 -2286 0
-2257 -2287 0
-2257 -2288 0
-2257 -2289 0
-2257 -2290 0
-2257 -2291 0
-2257 -2292 0
-2257 -2293 0
-2257 -2294 0
-2257 -2295 0
-2257 -2296 0
-2257 -2297 0
-2257 -2298 0
-2257 -2299 0
-2257 -2300 0
-2257 -2301 0
-2257 -2302 0
-2257 -2303 0
-2257 -2304 0
-2257 -2305 0
-2257 -2306 0
-2257 -2307 0
-2257 -2308 0
-2258 -2259 0
-2258 -2260 0
-2258 -2261 0
-2258 -2262 0
-2258 -2263 0
-2258 -2264 0
-2258 -2265 0
-2258 -2266 0
-2258 -2267 0
-2258 -2268 0
-2258 -2269 0
-2258 -2270 0
-2258 -2271 0
-2258 -2272 0
-2258 -2273 0
-2258 -2274 0
-2258 -2275 0
-2258 -2276 0
-2258 -2277 0
-2258 -2278 0
-2258 -2279 0
-2258 -2280 0
-2258 -2281 0
-2258 -2282 0
-2258 -2283 0
-2258 -2284 0
-2258 -2285 0
-2258 -2286 0
-2258 -2287 0
-2258 -2288 0
-2258 -2289 0
-2258 -2290 0
-2258 -2291 0
-2258 -2292 0
-2258 -2293 0
-2258 -2294 0
-2258 -2295 0
-2258 -2296 0
-2258 -2297 0
-2258 -2298 0
-2258 -2299 0
-2258 -2300 0
-2258 -2301 0
-2258 -2302 0
-2258 -2303 0
-2258 -2304 0
-2258 -2305 0
-2258 -2306 0
-2258 -2307 0
-2258 -2308 0
-2259 -2260 0
-2259 -2261 0
-2259 -2262 0
-2259 -2263 0
-2259 -2264 0
-2259 -2265 0
-2259 -2266 0
-2259 -2267 0
-2259 -2268 0
-2259 -2269 0
-2259 -2270 0
-2259 -2271 0
-2259 -2272 0
-2259 -2273 0
-2259 -2274 0
-2259 -2275 0
-2259 -2276 0
-2259 -2277 0
-2259 -2278 0
-2259 -2279 0
-2259 -2280 0
-2259 -2281 0
-2259 -2282 0
-2259 -2283 0
-2259 -2284 0
-2259 -2285 0
-2259 -2286 0
-2259 -2287 0
-2259 -2288 0
-2259 -2289 0
-2259 -2290 0
-2259 -2291 0
-2259 -2292 0
-2259 -2293 0
-2259 -2294 0
-2259 -2295 0
-2259 -2296 0
-2259 -2297 0
-2259 -2298 0
-2259 -2299 0
-2259 -2300 0
-2259 -2301 0
-2259 -2302 0
-2259 -2303 0
-2259 -2304 0
-2259 -2305 0
-2259 -2306 0
-2259 -2307 0
-2259 -2308 0
-2260 -2261 0
-2260 -2262 0
-2260 -2263 0
-2260 -2264 0
-2260 -2265 0
-2260 -2266 0
-2260 -2267 0
-2260 -2268 0
-2260 -2269 0
-2260 -2270 0
-2260 -2271 0
-2260 -2272 0
-2260 -2273 0
-2260 -2274 0
-2260 -2275 0
-2260 -2276 0
-2260 -2277 0
-2260 -2278 0
-2260 -2279 0
-2260 -2280 0
-2260 -2281 0
-2260 -2282 0
-2260 -2283 0
-2260 -2284 0
-2260 -2285 0
-2260 -2286 0
-2260 -2287 0
-2260 -2288 0
-2260 -2289 0
-2260 -2290 0
-2260 -2291 0
-2260 -2292 0
-2260 -2293 0
-2260 -2294 0
-2260 -2295 0
-2260 -2296 0
-2260 -2297 0
-2260 -2298 0
-2260 -2299 0
-2260 -2300 0
-2260 -2301 0
-2260 -2302 0
-2260 -2303 0
-2260 -2304 0
-2260 -2305 0
-2260 -2306 0
-2260 -2307 0
-2260 -2308 0
-2261 -2262 0
-2261 -2263 0
-2261 -2264 0
-2261 -2265 0
-2261 -2266 0
-2261 -2267 0
-2261 -2268 0
-2261 -2269 0
-2261 -2270 0
-2261 -2271 0
-2261 -2272 0
-2261 -2273 0
-2261 -2274 0
-2261 -2275 0
-2261 -2276 0
-2261 -2277 0
-2261 -2278 0
-2261 -2279 0
-2261 -2280 0
-2261 -2281 0
-2261 -2282 0
-2261 -2283 0
-2261 -2284 0
-2261 -2285 0
-2261 -2286 0
-2261 -2287 0
-2261 -2288 0
-2261 -2289 0
-2261 -2290 0
-2261 -2291 0
-2261 -2292 0
-2261 -2293 0
-2261 -2294 0
-2261 -2295 0
-2261 -2296 0
-2261 -2297 0
-2261 -2298 0
-2261 -2299 0
-2261 -2300 0
-2261 -2301 0
-2261 -2302 0
-2261 -2303 0
-2261 -2304 0
-2261 -2305 0
-2261 -2306 0
-2261 -2307 0
-2261 -2308 0
-2262 -2263 0
-2262 -2264 0
-2262 -2265 0
-2262 -2266 0
-2262 -2267 0
-2262 -2268 0
-2262 -2269 0
-2262 -2270 0
-2262 -2271 0
-2262 -2272 0
-2262 -2273 0
-2262 -2274 0
-2262 -2275 0
-2262 -2276 0
-2262 -2277 0
-2262 -2278 0
-2262 -2279 0
-2262 -2280 0
-2262 -2281 0
-2262 -2282 0
-2262 -2283 0
-2262 -2284 0
-2262 -2285 0
-2262 -2286 0
-2262 -2287 0
-2262 -2288 0
-2262 -2289 0
-2262 -2290 0
-2262 -2291 0
-2262 -2292 0
-2262 -2293 0
-2262 -2294 0
-2262 -2295 0
-2262 -2296 0
-2262 -2297 0
-2262 -2298 0
-2262 -2299 0
-2262 -2300 0
-2262 -2301 0
-2262 -2302 0
-2262 -2303 0
-2262 -2304 0
-2262 -2305 0
-2262 -2306 0
-2262 -2307 0
-2262 -2308 0
-2263 -2264 0
-2263 -2265 0
-2263 -2266 0
-2263 -2267 0
-2263 -2268 0
-2263 -2269 0
-2263 -2270 0
-2263 -2271 0
-2263 -2272 0
-2263 -2273 0
-2263 -2274 0
-2263 -2275 0
-2263 -2276 0
-2263 -2277 0
-2263 -2278 0
-2263 -2279 0
-2263 -2280 0
-2263 -2281 0
-2263 -2282 0
-2263 -2283 0
-2263 -2284 0
-2263 -2285 0
-2263 -2286 0
-2263 -2287 0
-2263 -2288 0
-2263 -2289 0
-2263 -2290 0
-2263 -2291 0
-2263 -2292 0
-2263 -2293 0
-2263 -2294 0
-2263 -2295 0
-2263 -2296 0
-2263 -2297 0
-2263 -2298 0
-2263 -2299 0
-2263 -2300 0
-2263 -2301 0
-2263 -2302 0
-2263 -2303 0
-2263 -2304 0
-2263 -2305 0
-2263 -2306 0
-2263 -2307 0
-2263 -2308 0
-2264 -2265 0
-2264 -2266 0
-2264 -2267 0
-2264 -2268 0
-2264 -2269 0
-2264 -2270 0
-2264 -2271 0
-2264 -2272 0
-2264 -2273 0
-2264 -2274 0
-2264 -2275 0
-2264 -2276 0
-2264 -2277 0
-2264 -2278 0
-2264 -2279 0
-2264 -2280 0
-2264 -2281 0
-2264 -2282 0
-2264 -2283 0
-2264 -2284 0
-2264 -2285 0
-2264 -2286 0
-2264 -2287 0
-2264 -2288 0
-2264 -2289 0
-2264 -2290 0
-2264 -2291 0
-2264 -2292 0
-2264 -2293 0
-2264 -2294 0
-2264 -2295 0
-2264 -2296 0
-2264 -2297 0
-2264 -2298 0
-2264 -2299 0
-2264 -2300 0
-2264 -2301 0
-2264 -2302 0
-2264 -2303 0
-2264 -2304 0
-2264 -2305 0
-2264 -2306 0
-2264 -2307 0
-2264 -2308 0
-2265 -2266 0
-2265 -2267 0
-2265 -2268 0
-2265 -2269 0
-2265 -2270 0
-2265 -2271 0
-2265 -2272 0
-2265 -2273 0
-2265 -2274 0
-2265 -2275 0
-2265 -2276 0
-2265 -2277 0
-2265 -2278 0
-2265 -2279 0
-2265 -2280 0
-2265 -2281 0
-2265 -2282 0
-2265 -2283 0
-2265 -2284 0
-2265 -2285 0
-2265 -2286 0
-2265 -2287 0
-2265 -2288 0
-2265 -2289 0
-2265 -2290 0
-2265 -2291 0
-2265 -2292 0
-2265 -2293 0
-2265 -2294 0
-2265 -2295 0
-2265 -2296 0
-2265 -2297 0
-2265 -2298 0
-2265 -2299 0
-2265 -2300 0
-2265 -2301 0
-2265 -2302 0
-2265 -2303 0
-2265 -2304 0
-2265 -2305 0
-2265 -2306 0
-2265 -2307 0
-2265 -2308 0
-2266 -2267 0
-2266 -2268 0
-2266 -2269 0
-2266 -2270 0
-2266 -2271 0
-2266 -2272 0
-2266 -2273 0
-2266 -2274 0
-2266 -2275 0
-2266 -2276 0
-2266 -2277 0
-2266 -2278 0
-2266 -2279 0
-2266 -2280 0
-2266 -2281 0
-2266 -2282 0
-2266 -2283 0
-2266 -2284 0
-2266 -2285 0
-2266 -2286 0
-2266 -2287 0
-2266 -2288 0
-2266 -2289 0
-2266 -2290 0
-2266 -2291 0
-2266 -2292 0
-2266 -2293 0
-2266 -2294 0
-2266 -2295 0
-2266 -2296 0
-2266 -2297 0
-2266 -2298 0
-2266 -2299 0
-2266 -2300 0
-2266 -2301 0
-2266 -2302 0
-2266 -2303 0
-2266 -2304 0
-2266 -2305 0
-2266 -2306 0
-2266 -2307 0
-2266 -2308 0
-2267 -2268 0
-2267 -2269 0
-2267 -2270 0
-2267 -2271 0
-2267 -2272 0
-2267 -2273 0
-2267 -2274 0
-2267 -2275 0
-2267 -2276 0
-2267 -2277 0
-2267 -2278 0
-2267 -2279 0
-2267 -2280 0
-2267 -2281 0
-2267 -2282 0
-2267 -2283 0
-2267 -2284 0
-2267 -2285 0
-2267 -2286 0
-2267 -2287 0
-2267 -2288 0
-2267 -2289 0
-2267 -2290 0
-2267 -2291 0
-2267 -2292 0
-2267 -2293 0
-2267 -2294 0
-2267 -2295 0
-2267 -2296 0
-2267 -2297 0
-2267 -2298 0
-2267 -2299 0
-2267 -2300 0
-2267 -2301 0
-2267 -2302 0
-2267 -2303 0
-2267 -2304 0
-2267 -2305 0
-2267 -2306 0
-2267 -2307 0
-2267 -2308 0
-2268 -2269 0
-2268 -2270 0
-2268 -2271 0
-2268 -2272 0
-2268 -2273 0
-2268 -2274 0
-2268 -2275 0
-2268 -2276 0
-2268 -2277 0
-2268 -2278 0
-2268 -2279 0
-2268 -2280 0
-2268 -2281 0
-2268 -2282 0
-2268 -2283 0
-2268 -2284 0
-2268 -2285 0
-2268 -2286 0
-2268 -2287 0
-2268 -2288 0
-2268 -2289 0
-2268 -2290 0
-2268 -2291 0
-2268 -2292 0
-2268 -2293 0
-2268 -2294 0
-2268 -2295 0
-2268 -2296 0
-2268 -2297 0
-2268 -2298 0
-2268 -2299 0
-2268 -2300 0
-2268 -2301 0
-2268 -2302 0
-2268 -2303 0
-2268 -2304 0
-2268 -2305 0
-2268 -2306 0
-2268 -2307 0
-2268 -2308 0
-2269 -2270 0
-2269 -2271 0
-2269 -2272 0
-2269 -2273 0
-2269 -2274 0
-2269 -2275 0
-2269 -2276 0
-2269 -2277 0
-2269 -2278 0
-2269 -2279 0
-2269 -2280 0
-2269 -2281 0
-2269 -2282 0
-2269 -2283 0
-2269 -2284 0
-2269 -2285 0
-2269 -2286 0
-2269 -2287 0
-2269 -2288 0
-2269 -2289 0
-2269 -2290 0
-2269 -2291 0
-2269 -2292 0
-2269 -2293 0
-2269 -2294 0
-2269 -2295 0
-2269 -2296 0
-2269 -2297 0
-2269 -2298 0
-2269 -2299 0
-2269 -2300 0
-2269 -2301 0
-2269 -2302 0
-2269 -2303 0
-2269 -2304 0
-2269 -2305 0
-2269 -2306 0
-2269 -2307 0
-2269 -2308 0
-2270 -2271 0
-2270 -2272 0
-2270 -2273 0
-2270 -2274 0
-2270 -2275 0
-2270 -2276 0
-2270 -2277 0
-2270 -2278 0
-2270 -2279 0
-2270 -2280 0
-2270 -2281 0
-2270 -2282 0
-2270 -2283 0
-2270 -2284 0
-2270 -2285 0
-2270 -2286 0
-2270 -2287 0
-2270 -2288 0
-2270 -2289 0
-2270 -2290 0
-2270 -2291 0
-2270 -2292 0
-2270 -2293 0
-2270 -2294 0
-2270 -2295 0
-2270 -2296 0
-2270 -2297 0
-2270 -2298 0
-2270 -2299 0
-2270 -2300 0
-2270 -2301 0
-2270 -2302 0
-2270 -2303 0
-2270 -2304 0
-2270 -2305 0
-2270 -2306 0
-2270 -2307 0
-2270 -2308 0
-2271 -2272 0
-2271 -2273 0
-2271 -2274 0
-2271 -2275 0
-2271 -2276 0
-2271 -2277 0
-2271 -2278 0
-2271 -2279 0
-2271 -2280 0
-2271 -2281 0
-2271 -2282 0
-2271 -2283 0
-2271 -2284 0
-2271 -2285 0
-2271 -2286 0
-2271 -2287 0
-2271 -2288 0
-2271 -2289 0
-2271 -2290 0
-2271 -2291 0
-2271 -2292 0
-2271 -2293 0
-2271 -2294 0
-2271 -2295 0
-2271 -2296 0
-2271 -2297 0
-2271 -2298 0
-2271 -2299 0
-2271 -2300 0
-2271 -2301 0
-2271 -2302 0
-2271 -2303 0
-2271 -2304 0
-2271 -2305 0
-2271 -2306 0
-2271 -2307 0
-2271 -2308 0
-2272 -2273 0
-2272 -2274 0
-2272 -2275 0
-2272 -2276 0
-2272 -2277 0
-2272 -2278 0
-2272 -2279 0
-2272 -2280 0
-2272 -2281 0
-2272 -2282 0
-2272 -2283 0
-2272 -2284 0
-2272 -2285 0
-2272 -2286 0
-2272 -2287 0
-2272 -2288 0
-2272 -2289 0
-2272 -2290 0
-2272 -2291 0
-2272 -2292 0
-2272 -2293 0
-2272 -2294 0
-2272 -2295 0
-2272 -2296 0
-2272 -2297 0
-2272 -2298 0
-2272 -2299 0
-2272 -2300 0
-2272 -2301 0
-2272 -2302 0
-2272 -2303 0
-2272 -2304 0
-2272 -2305 0
-2272 -2306 0
-2272 -2307 0
-2272 -2308 0
-2273 -2274 0
-2273 -2275 0
-2273 -2276 0
-2273 -2277 0
-2273 -2278 0
-2273 -2279 0
-2273 -2280 0
-2273 -2281 0
-2273 -2282 0
-2273 -2283 0
-2273 -2284 0
-2273 -2285 0
-2273 -2286 0
-2273 -2287 0
-2273 -2288 0
-2273 -2289 0
-2273 -2290 0
-2273 -2291 0
-2273 -2292 0
-2273 -2293 0
-2273 -2294 0
-2273 -2295 0
-2273 -2296 0
-2273 -2297 0
-2273 -2298 0
-2273 -2299 0
-2273 -2300 0
-2273 -2301 0
-2273 -2302 0
-2273 -2303 0
-2273 -2304 0
-2273 -2305 0
-2273 -2306 0
-2273 -2307 0
-2273 -2308 0
-2274 -2275 0
-2274 -2276 0
-2274 -2277 0
-2274 -2278 0
-2274 -2279 0
-2274 -2280 0
-2274 -2281 0
-2274 -2282 0
-2274 -2283 0
-2274 -2284 0
-2274 -2285 0
-2274 -2286 0
-2274 -2287 0
-2274 -2288 0
-2274 -2289 0
-2274 -2290 0
-2274 -2291 0
-2274 -2292 0
-2274 -2293 0
-2274 -2294 0
-2274 -2295 0
-2274 -2296 0
-2274 -2297 0
-2274 -2298 0
-2274 -2299 0
-2274 -2300 0
-2274 -2301 0
-2274 -2302 0
-2274 -2303 0
-2274 -2304 0
-2274 -2305 0
-2274 -2306 0
-2274 -2307 0
-2274 -2308 0
-2275 -2276 0
-2275 -2277 0
-2275 -2278 0
-2275 -2279 0
-2275 -2280 0
-2275 -2281 0
-2275 -2282 0
-2275 -2283 0
-2275 -2284 0
-2275 -2285 0
-2275 -2286 0
-2275 -2287 0
-2275 -2288 0
-2275 -2289 0
-2275 -2290 0
-2275 -2291 0
-2275 -2292 0
-2275 -2293 0
-2275 -2294 0
-2275 -2295 0
-2275 -2296 0
-2275 -2297 0
-2275 -2298 0
-2275 -2299 0
-2275 -2300 0
-2275 -2301 0
-2275 -2302 0
-2275 -2303 0
-2275 -2304 0
-2275 -2305 0
-2275 -2306 0
-2275 -2307 0
-2275 -2308 0
-2276 -2277 0
-2276 -2278 0
-2276 -2279 0
-2276 -2280 0
-2276 -2281 0
-2276 -2282 0
-2276 -2283 0
-2276 -2284 0
-2276 -2285 0
-2276 -2286 0
-2276 -2287 0
-2276 -2288 0
-2276 -2289 0
-2276 -2290 0
-2276 -2291 0
-2276 -2292 0
-2276 -2293 0
-2276 -2294 0
-2276 -2295 0
-2276 -2296 0
-2276 -2297 0
-2276 -2298 0
-2276 -2299 0
-2276 -2300 0
-2276 -2301 0
-2276 -2302 0
-2276 -2303 0
-2276 -2304 0
-2276 -2305 0
-2276 -2306 0
-2276 -2307 0
-2276 -2308 0
-2277 -2278 0
-2277 -2279 0
-2277 -2280 0
-2277 -2281 0
-2277 -2282 0
-2277 -2283 0
-2277 -2284 0
-2277 -2285 0
-2277 -2286 0
-2277 -2287 0
-2277 -2288 0
-2277 -2289 0
-2277 -2290 0
-2277 -2291 0
-2277 -2292 0
-2277 -2293 0
-2277 -2294 0
-2277 -2295 0
-2277 -2296 0
-2277 -2297 0
-2277 -2298 0
-2277 -2299 0
-2277 -2300 0
-2277 -2301 0
-2277 -2302 0
-2277 -2303 0
-2277 -2304 0
-2277 -2305 0
-2277 -2306 0
-2277 -2307 0
-2277 -2308 0
-2278 -2279 0
-2278 -2280 0
-2278 -2281 0
-2278 -2282 0
-2278 -2283 0
-2278 -2284 0
-2278 -2285 0
-2278 -2286 0
-2278 -2287 0
-2278 -2288 0
-2278 -2289 0
-2278 -2290 0
-2278 -2291 0
-2278 -2292 0
-2278 -2293 0
-2278 -2294 0
-2278 -2295 0
-2278 -2296 0
-2278 -2297 0
-2278 -2298 0
-2278 -2299 0
-2278 -2300 0
-2278 -2301 0
-2278 -2302 0
-2278 -2303 0
-2278 -2304 0
-2278 -2305 0
-2278 -2306 0
-2278 -2307 0
-2278 -2308 0
-2279 -2280 0
-2279 -2281 0
-2279 -2282 0
-2279 -2283 0
-2279 -2284 0
-2279 -2285 0
-2279 -2286 0
-2279 -2287 0
-2279 -2288 0
-2279 -2289 0
-2279 -2290 0
-2279 -2291 0
-2279 -2292 0
-2279 -2293 0
-2279 -2294 0
-2279 -2295 0
-2279 -2296 0
-2279 -2297 0
-2279 -2298 0
-2279 -2299 0
-2279 -2300 0
-2279 -2301 0
-2279 -2302 0
-2279 -2303 0
-2279 -2304 0
-2279 -2305 0
-2279 -2306 0
-2279 -2307 0
-2279 -2308 0
-2280 -2281 0
-2280 -2282 0
-2280 -2283 0
-2280 -2284 0
-2280 -2285 0
-2280 -2286 0
-2280 -2287 0
-2280 -2288 0
-2280 -2289 0
-2280 -2290 0
-2280 -2291 0
-2280 -2292 0
-2280 -2293 0
-2280 -2294 0
-2280 -2295 0
-2280 -2296 0
-2280 -2297 0
-2280 -2298 0
-2280 -2299 0
-2280 -2300 0
-2280 -2301 0
-2280 -2302 0
-2280 -2303 0
-2280 -2304 0
-2280 -2305 0
-2280 -2306 0
-2280 -2307 0
-2280 -2308 0
-2281 -2282 0
-2281 -2283 0
-2281 -2284 0
-2281 -2285 0
-2281 -2286 0
-2281 -2287 0
-2281 -2288 0
-2281 -2289 0
-2281 -2290 0
-2281 -2291 0
-2281 -2292 0
-2281 -2293 0
-2281 -2294 0
-2281 -2295 0
-2281 -2296 0
-2281 -2297 0
-2281 -2298 0
-2281 -2299 0
-2281 -2300 0
-2281 -2301 0
-2281 -2302 0
-2281 -2303 0
-2281 -2304 0
-2281 -2305 0
-2281 -2306 0
-2281 -2307 0
-2281 -2308 0
-2282 -2283 0
-2282 -2284 0
-2282 -2285 0
-2282 -2286 0
-2282 -2287 0
-2282 -2288 0
-2282 -2289 0
-2282 -2290 0
-2282 -2291 0
-2282 -2292 0
-2282 -2293 0
-2282 -2294 0
-2282 -2295 0
-2282 -2296 0
-2282 -2297 0
-2282 -2298 0
-2282 -2299 0
-2282 -2300 0
-2282 -2301 0
-2282 -2302 0
-2282 -2303 0
-2282 -2304 0
-2282 -2305 0
-2282 -2306 0
-2282 -2307 0
-2282 -2308 0
-2283 -2284 0
-2283 -2285 0
-2283 -2286 0
-2283 -2287 0
-2283 -2288 0
-2283 -2289 0
-2283 -2290 0
-2283 -2291 0
-2283 -2292 0
-2283 -2293 0
-2283 -2294 0
-2283 -2295 0
-2283 -2296 0
-2283 -2297 0
-2283 -2298 0
-2283 -2299 0
-2283 -2300 0
-2283 -2301 0
-2283 -2302 0
-2283 -2303 0
-2283 -2304 0
-2283 -2305 0
-2283 -2306 0
-2283 -2307 0
-2283 -2308 0
-2284 -2285 0
-2284 -2286 0
-2284 -2287 0
-2284 -2288 0
-2284 -2289 0
-2284 -2290 0
-2284 -2291 0
-2284 -2292 0
-2284 -2293 0
-2284 -2294 0
-2284 -2295 0
-2284 -2296 0
-2284 -2297 0
-2284 -2298 0
-2284 -2299 0
-2284 -2300 0
-2284 -2301 0
-2284 -2302 0
-2284 -2303 0
-2284 -2304 0
-2284 -2305 0
-2284 -2306 0
-2284 -2307 0
-2284 -2308 0
-2285 -2286 0
-2285 -2287 0
-2285 -2288 0
-2285 -2289 0
-2285 -2290 0
-2285 -2291 0
-2285 -2292 0
-2285 -2293 0
-2285 -2294 0
-2285 -2295 0
-2285 -2296 0
-2285 -2297 0
-2285 -2298 0
-2285 -2299 0
-2285 -2300 0
-2285 -2301 0
-2285 -2302 0
-2285 -2303 0
-2285 -2304 0
-2285 -2305 0
-2285 -2306 0
-2285 -2307 0
-2285 -2308 0
-2286 -2287 0
-2286 -2288 0
-2286 -2289 0
-2286 -2290 0
-2286 -2291 0
-2286 -2292 0
-2286 -2293 0
-2286 -2294 0
-2286 -2295 0
-2286 -2296 0
-2286 -2297 0
-2286 -2298 0
-2286 -2299 0
-2286 -2300 0
-2286 -2301 0
-2286 -2302 0
-2286 -2303 0
-2286 -2304 0
-2286 -2305 0
-2286 -2306 0
-2286 -2307 0
-2286 -2308 0
-2287 -2288 0
-2287 -2289 0
-2287 -2290 0
-2287 -2291 0
-2287 -2292 0
-2287 -2293 0
-2287 -2294 0
-2287 -2295 0
-2287 -2296 0
-2287 -2297 0
-2287 -2298 0
-2287 -2299 0
-2287 -2300 0
-2287 -2301 0
-2287 -2302 0
-2287 -2303 0
-2287 -2304 0
-2287 -2305 0
-2287 -2306 0
-2287 -2307 0
-2287 -2308 0
-2288 -2289 0
-2288 -2290 0
-2288 -2291 0
-2288 -2292 0
-2288 -2293 0
-2288 -2294 0
-2288 -2295 0
-2288 -2296 0
-2288 -2297 0
-2288 -2298 0
-2288 -2299 0
-2288 -2300 0
-2288 -2301 0
-2288 -2302 0
-2288 -2303 0
-2288 -2304 0
-2288 -2305 0
-2288 -2306 0
-2288 -2307 0
-2288 -2308 0
-2289 -2290 0
-2289 -2291 0
-2289 -2292 0
-2289 -2293 0
-2289 -2294 0
-2289 -2295 0
-2289 -2296 0
-2289 -2297 0
-2289 -2298 0
-2289 -2299 0
-2289 -2300 0
-2289 -2301 0
-2289 -2302 0
-2289 -2303 0
-2289 -2304 0
-2289 -2305 0
-2289 -2306 0
-2289 -2307 0
-2289 -2308 0
-2290 -2291 0
-2290 -2292 0
-2290 -2293 0
-2290 -2294 0
-2290 -2295 0
-2290 -2296 0
-2290 -2297 0
-2290 -2298 0
-2290 -2299 0
-2290 -2300 0
-2290 -2301 0
-2290 -2302 0
-2290 -2303 0
-2290 -2304 0
-2290 -2305 0
-2290 -2306 0
-2290 -2307 0
-2290 -2308 0
-2291 -2292 0
-2291 -2293 0
-2291 -2294 0
-2291 -2295 0
-2291 -2296 0
-2291 -2297 0
-2291 -2298 0
-2291 -2299 0
-2291 -2300 0
-2291 -2301 0
-2291 -2302 0
-2291 -2303 0
-2291 -2304 0
-2291 -2305 0
-2291 -2306 0
-2291 -2307 0
-2291 -2308 0
-2292 -2293 0
-2292 -2294 0
-2292 -2295 0
-2292 -2296 0
-2292 -2297 0
-2292 -2298 0
-2292 -2299 0
-2292 -2300 0
-2292 -2301 0
-2292 -2302 0
-2292 -2303 0
-2292 -2304 0
-2292 -2305 0
-2292 -2306 0
-2292 -2307 0
-2292 -2308 0
-2293 -2294 0
-2293 -2295 0
-2293 -2296 0
-2293 -2297 0
-2293 -2298 0
-2293 -2299 0
-2293 -2300 0
-2293 -2301 0
-2293 -2302 0
-2293 -2303 0
-2293 -2304 0
-2293 -2305 0
-2293 -2306 0
-2293 -2307 0
-2293 -2308 0
-2294 -2295 0
-2294 -2296 0
-2294 -2297 0
-2294 -2298 0
-2294 -2299 0
-2294 -2300 0
-2294 -2301 0
-2294 -2302 0
-2294 -2303 0
-2294 -2304 0
-2294 -2305 0
-2294 -2306 0
-2294 -2307 0
-2294 -2308 0
-2295 -2296 0
-2295 -2297 0
-2295 -2298 0
-2295 -2299 0
-2295 -2300 0
-2295 -2301 0
-2295 -2302 0
-2295 -2303 0
-2295 -2304 0
-2295 -2305 0
-2295 -2306 0
-2295 -2307 0
-2295 -2308 0
-2296 -2297 0
-2296 -2298 0
-2296 -2299 0
-2296 -2300 0
-2296 -2301 0
-2296 -2302 0
-2296 -2303 0
-2296 -2304 0
-2296 -2305 0
-2296 -2306 0
-2296 -2307 0
-2296 -2308 0
-2297 -2298 0
-2297 -2299 0
-2297 -2300 0
-2297 -2301 0
-2297 -2302 0
-2297 -2303 0
-2297 -2304 0
-2297 -2305 0
-2297 -2306 0
-2297 -2307 0
-2297 -2308 0
-2298 -2299 0
-2298 -2300 0
-2298 -2301 0
-2298 -2302 0
-2298 -2303 0
-2298 -2304 0
-2298 -2305 0
-2298 -2306 0
-2298 -2307 0
-2298 -2308 0
-2299 -2300 0
-2299 -2301 0
-2299 -2302 0
-2299 -2303 0
-2299 -2304 0
-2299 -2305 0
-2299 -2306 0
-2299 -2307 0
-2299 -2308 0
-2300 -2301 0
-2300 -2302 0
-2300 -2303 0
-2300 -2304 0
-2300 -2305 0
-2300 -2306 0
-2300 -2307 0
-2300 -2308 0
-2301 -2302 0
-2301 -2303 0
-2301 -2304 0
-2301 -2305 0
-2301 -2306 0
-2301 -2307 0
-2301 -2308 0
-2302 -2303 0
-2302 -2304 0
-2302 -2305 0
-2302 -2306 0
-2302 -2307 0
-2302 -2308 0
-2303 -2304 0
-2303 -2305 0
-2303 -2306 0
-2303 -2307 0
-2303 -2308 0
-2304 -2305 0
-2304 -2306 0
-2304 -2307 0
-2304 -2308 0
-2305 -2306 0
-2305 -2307 0
-2305 -2308 0
-2306 -2307 0
-2306 -2308 0
-2307 -2308 0
-2225 525 0
-2225 772 0
-2225 -575 0
-2225 -576 0
-2225 -577 0
-2225 -578 0
-2225 -579 0
-2225 -580 779 0
-2225 -580 -515 -522 0
-2225 -580 -587 0
-2225 -580 -645 0
-2225 -580 -702 0
-2225 -581 780 0
-2225 -581 -515 -523 0
-2225 -581 -589 0
-2225 -581 -647 0
-2225 -581 -704 0
-2225 -582 781 0
-2225 -582 -515 -524 0
-2225 -582 -591 0
-2225 -582 -649 0
-2225 -582 -706 0
-2225 -583 0
-2226 525 0
-2226 773 0
-2226 -574 0
-2226 -576 0
-2226 -577 0
-2226 -578 0
-2226 -579 0
-2226 -580 779 0
-2226 -580 -516 -522 0
-2226 -580 -595 0
-2226 -580 -653 0
-2226 -580 -710 0
-2226 -581 780 0
-2226 -581 -516 -523 0
-2226 -581 -597 0
-2226 -581 -655 0
-2226 -581 -712 0
-2226 -582 781 0
-2226 -582 -516 -524 0
-2226 -582 -599 0
-2226 -582 -657 0
-2226 -582 -714 0
-2226 -583 0
-2227 525 0
-2227 774 0
-2227 -574 0
-2227 -575 0
-2227 -577 0
-2227 -578 0
-2227 -579 0
-2227 -580 779 0
-2227 -580 -517 -522 0
-2227 -580 -603 0
-2227 -580 -661 0
-2227 -580 -718 0
-2227 -581 780 0
-2227 -581 -517 -523 0
-2227 -581 -605 0
-2227 -581 -663 0
-2227 -581 -720 0
-2227 -582 781 0
-2227 -582 -517 -524 0
-2227 -582 -607 0
-2227 -582 -665 0
-2227 -582 -722 0
-2227 -583 0
-2228 525 0
-2228 775 0
-2228 -574 0
-2228 -575 0
-2228 -576 0
-2228 -578 0
-2228 -579 0
-2228 -580 779 0
-2228 -580 -518 -522 0
-2228 -580 -611 0
-2228 -580 -669 0
-2228 -580 -726 0
-2228 -581 780 0
-2228 -581 -518 -523 0
-2228 -581 -613 0
-2228 -581 -671 0
-2228 -581 -728 0
-2228 -582 781 0
-2228 -582 -518 -524 0
-2228 -582 -615 0
-2228 -582 -673 0
-2228 -582 -730 0
-2228 -583 0
-2229 525 0
-2229 776 0
-2229 -574 0
-2229 -575 0
-2229 -576 0
-2229 -577 0
-2229 -579 0
-2229 -580 779 0
-2229 -580 -519 -522 0
-2229 -580 -619 0
-2229 -580 -677 0
-2229 -580 -734 0
-2229 -581 780 0
-2229 -581 -519 -523 0
-2229 -581 -621 0
-2229 -581 -679 0
-2229 -581 -736 0
-2229 -582 781 0
-2229 -582 -519 -524 0
-2229 -582 -623 0
-2229 -582 -681 0
-2229 -582 -738 0
-2229 -583 0
-2230 525 0
-2230 777 0
-2230 -574 0
-2230 -575 0
-2230 -576 0
-2230 -577 0
-2230 -578 0
-2230 -580 779 0
-2230 -580 -520 -522 0
-2230 -580 -627 0
-2230 -580 -685 0
-2230 -580 -742 0
-2230 -581 780 0
-2230 -581 -520 -523 0
-2230 -581 -629 0
-2230 -581 -687 0
-2230 -581 -744 0
-2230 -582 781 0
-2230 -582 -520 -524 0
-2230 -582 -631 0
-2230 -582 -689 0
-2230 -582 -746 0
-2230 -583 0
-2231 525 0
-2231 772 0
-2231 -634 0
-2231 -635 0
-2231 -636 0
-2231 -637 0
-2231 -638 779 0
-2231 -638 -515 -522 0
-2231 -638 -587 0
-2231 -638 -645 0
-2231 -638 -702 0
-2231 -639 780 0
-2231 -639 -515 -523 0
-2231 -639 -589 0
-2231 -639 -647 0
-2231 -639 -704 0
-2231 -640 781 0
-2231 -640 -515 -524 0
-2231 -640 -591 0
-2231 -640 -649 0
-2231 -640 -706 0
-2231 -641 0
-2232 525 0
-2232 773 0
-2232 -635 0
-2232 -636 0
-2232 -637 0
-2232 -638 779 0
-2232 -638 -516 -522 0
-2232 -638 -595 0
-2232 -638 -653 0
-2232 -638 -710 0
-2232 -639 780 0
-2232 -639 -516 -523 0
-2232 -639 -597 0
-2232 -639 -655 0
-2232 -639 -712 0
-2232 -640 781 0
-2232 -640 -516 -524 0
-2232 -640 -599 0
-2232 -640 -657 0
-2232 -640 -714 0
-2232 -641 0
-2233 525 0
-2233 774 0
-2233 -633 0
-2233 -636 0
-2233 -637 0
-2233 -638 779 0
-2233 -638 -517 -522 0
-2233 -638 -603 0
-2233 -638 -661 0
-2233 -638 -718 0
-2233 -639 780 0
-2233 -639 -517 -523 0
-2233 -639 -605 0
-2233 -639 -663 0
-2233 -639 -720 0
-2233 -640 781 0
-2233 -640 -517 -524 0
-2233 -640 -607 0
-2233 -640 -665 0
-2233 -640 -722 0
-2233 -641 0
-2234 525 0
-2234 775 0
-2234 -633 0
-2234 -634 0
-2234 -637 0
-2234 -638 779 0
-2234 -638 -518 -522 0
-2234 -638 -611 0
-2234 -638 -669 0
-2234 -638 -726 0
-2234 -639 780 0
-2234 -639 -518 -523 0
-2234 -639 -613 0
-2234 -639 -671 0
-2234 -639 -728 0
-2234 -640 781 0
-2234 -640 -518 -524 0
-2234 -640 -615 0
-2234 -640 -673 0
-2234 -640 -730 0
-2234 -641 0
-2235 525 0
-2235 776 0
-2235 -633 0
-2235 -634 0
-2235 -635 0
-2235 -638 779 0
-2235 -638 -519 -522 0
-2235 -638 -619 0
-2235 -638 -677 0
-2235 -638 -734 0
-2235 -639 780 0
-2235 -639 -519 -523 0
-2235 -639 -621 0
-2235 -639 -679 0
-2235 -639 -736 0
-2235 -640 781 0
-2235 -640 -519 -524 0
-2235 -640 -623 0
-2235 -640 -681 0
-2235 -640 -738 0
-2235 -641 0
-2236 525 0
-2236 777 0
-2236 -633 0
-2236 -634 0
-2236 -635 0
-2236 -636 0
-2236 -638 779 0
-2236 -638 -520 -522 0
-2236 -638 -627 0
-2236 -638 -685 0
-2236 -638 -742 0
-2236 -639 780 0
-2236 -639 -520 -523 0
-2236 -639 -629 0
-2236 -639 -687 0
-2236 -639 -744 0
-2236 -640 781 0
-2236 -640 -520 -524 0
-2236 -640 -631 0
-2236 -640 -689 0
-2236 -640 -746 0
-2236 -641 0
-2237 525 0
-2237 772 0
-2237 -692 0
-2237 -693 0
-2237 -694 0
-2237 -695 779 0
-2237 -695 -515 -522 0
-2237 -695 -587 0
-2237 -695 -645 0
-2237 -695 -702 0
-2237 -696 780 0
-2237 -696 -515 -523 0
-2237 -696 -589 0
-2237 -696 -647 0
-2237 -696 -704 0
-2237 -697 781 0
-2237 -697 -515 -524 0
-2237 -697 -591 0
-2237 -697 -649 0
-2237 -697 -706 0
-2237 -698 0
-2238 525 0
-2238 773 0
-2238 -693 0
-2238 -694 0
-2238 -695 779 0
-2238 -695 -516 -522 0
-2238 -695 -595 0
-2238 -695 -653 0
-2238 -695 -710 0
-2238 -696 780 0
-2238 -696 -516 -523 0
-2238 -696 -597 0
-2238 -696 -655 0
-2238 -696 -712 0
-2238 -697 781 0
-2238 -697 -516 -524 0
-2238 -697 -599 0
-2238 -697 -657 0
-2238 -697 -714 0
-2238 -698 0
-2239 525 0
-2239 774 0
-2239 -694 0
-2239 -695 779 0
-2239 -695 -517 -522 0
-2239 -695 -603 0
-2239 -695 -661 0
-2239 -695 -718 0
-2239 -696 780 0
-2239 -696 -517 -523 0
-2239 -696 -605 0
-2239 -696 -663 0
-2239 -696 -720 0
-2239 -697 781 0
-2239 -697 -517 -524 0
-2239 -697 -607 0
-2239 -697 -665 0
-2239 -697 -722 0
-2239 -698 0
-2240 525 0
-2240 775 0
-2240 -691 0
-2240 -695 779 0
-2240 -695 -518 -522 0
-2240 -695 -611 0
-2240 -695 -669 0
-2240 -695 -726 0
-2240 -696 780 0
-2240 -696 -518 -523 0
-2240 -696 -613 0
-2240 -696 -671 0
-2240 -696 -728 0
-2240 -697 781 0
-2240 -697 -518 -524 0
-2240 -697 -615 0
-2240 -697 -673 0
-2240 -697 -730 0
-2240 -698 0
-2241 525 0
-2241 776 0
-2241 -691 0
-2241 -692 0
-2241 -695 779 0
-2241 -695 -519 -522 0
-2241 -695 -619 0
-2241 -695 -677 0
-2241 -695 -734 0
-2241 -696 780 0
-2241 -696 -519 -523 0
-2241 -696 -621 0
-2241 -696 -679 0
-2241 -696 -736 0
-2241 -697 781 0
-2241 -697 -519 -524 0
-2241 -697 -623 0
-2241 -697 -681 0
-2241 -697 -738 0
-2241 -698 0
-2242 525 0
-2242 777 0
-2242 -691 0
-2242 -692 0
-2242 -693 0
-2242 -695 779 0
-2242 -695 -520 -522 0
-2242 -695 -627 0
-2242 -695 -685 0
-2242 -695 -742 0
-2242 -696 780 0
-2242 -696 -520 -523 0
-2242 -696 -629 0
-2242 -696 -687 0
-2242 -696 -744 0
-2242 -697 781 0
-2242 -697 -520 -524 0
-2242 -697 -631 0
-2242 -697 -689 0
-2242 -697 -746 0
-2242 -698 0
-2243 525 0
-2243 772 0
-2243 778 0
-2243 -515 -521 0
-2243 -585 0
-2243 -643 0
-2243 -700 0
-2244 525 0
-2244 773 0
-2244 778 0
-2244 -516 -521 0
-2244 -593 0
-2244 -651 0
-2244 -708 0
-2245 525 0
-2245 774 0
-2245 778 0
-2245 -517 -521 0
-2245 -601 0
-2245 -659 0
-2245 -716 0
-2246 525 0
-2246 775 0
-2246 778 0
-2246 -518 -521 0
-2246 -609 0
-2246 -667 0
-2246 -724 0
-2247 525 0
-2247 776 0
-2247 778 0
-2247 -519 -521 0
-2247 -617 0
-2247 -675 0
-2247 -732 0
-2248 525 0
-2248 777 0
-2248 778 0
-2248 -520 -521 0
-2248 -625 0
-2248 -683 0
-2248 -740 0
-2249 584 0
-2249 831 0
-2249 -516 0
-2249 -517 0
-2249 -518 0
-2249 -519 0
-2249 -520 0
-2249 -521 838 0
-2249 -521 -574 -581 0
-2249 -521 -528 0
-2249 -521 -645 0
-2249 -521 -702 0
-2249 -522 839 0
-2249 -522 -574 -582 0
-2249 -522 -530 0
-2249 -522 -647 0
-2249 -522 -704 0
-2249 -523 840 0
-2249 -523 -574 -583 0
-2249 -523 -532 0
-2249 -523 -649 0
-2249 -523 -706 0
-2249 -524 0
-2250 584 0
-2250 832 0
-2250 -515 0
-2250 -517 0
-2250 -518 0
-2250 -519 0
-2250 -520 0
-2250 -521 838 0
-2250 -521 -575 -581 0
-2250 -521 -536 0
-2250 -521 -653 0
-2250 -521 -710 0
-2250 -522 839 0
-2250 -522 -575 -582 0
-2250 -522 -538 0
-2250 -522 -655 0
-2250 -522 -712 0
-2250 -523 840 0
-2250 -523 -575 -583 0
-2250 -523 -540 0
-2250 -523 -657 0
-2250 -523 -714 0
-2250 -524 0
-2251 584 0
-2251 833 0
-2251 -515 0
-2251 -516 0
-2251 -518 0
-2251 -519 0
-2251 -520 0
-2251 -521 838 0
-2251 -521 -576 -581 0
-2251 -521 -544 0
-2251 -521 -661 0
-2251 -521 -718 0
-2251 -522 839 0
-2251 -522 -576 -582 0
-2251 -522 -546 0
-2251 -522 -663 0
-2251 -522 -720 0
-2251 -523 840 0
-2251 -523 -576 -583 0
-2251 -523 -548 0
-2251 -523 -665 0
-2251 -523 -722 0
-2251 -524 0
-2252 584 0
-2252 834 0
-2252 -515 0
-2252 -516 0
-2252 -517 0
-2252 -519 0
-2252 -520 0
-2252 -521 838 0
-2252 -521 -577 -581 0
-2252 -521 -552 0
-2252 -521 -669 0
-2252 -521 -726 0
-2252 -522 839 0
-2252 -522 -577 -582 0
-2252 -522 -554 0
-2252 -522 -671 0
-2252 -522 -728 0
-2252 -523 840 0
-2252 -523 -577 -583 0
-2252 -523 -556 0
-2252 -523 -673 0
-2252 -523 -730 0
-2252 -524 0
-2253 584 0
-2253 835 0
-2253 -515 0
-2253 -516 0
-2253 -517 0
-2253 -518 0
-2253 -520 0
-2253 -521 838 0
-2253 -521 -578 -581 0
-2253 -521 -560 0
-2253 -521 -677 0
-2253 -521 -734 0
-2253 -522 839 0
-2253 -522 -578 -582 0
-2253 -522 -562 0
-2253 -522 -679 0
-2253 -522 -736 0
-2253 -523 840 0
-2253 -523 -578 -583 0
-2253 -523 -564 0
-2253 -523 -681 0
-2253 -523 -738 0
-2253 -524 0
-2254 584 0
-2254 836 0
-2254 -515 0
-2254 -516 0
-2254 -517 0
-2254 -518 0
-2254 -519 0
-2254 -521 838 0
-2254 -521 -579 -581 0
-2254 -521 -568 0
-2254 -521 -685 0
-2254 -521 -742 0
-2254 -522 839 0
-2254 -522 -579 -582 0
-2254 -522 -570 0
-2254 -522 -687 0
-2254 -522 -744 0
-2254 -523 840 0
-2254 -523 -579 -583 0
-2254 -523 -572 0
-2254 -523 -689 0
-2254 -523 -746 0
-2254 -524 0
-2255 584 0
-2255 831 0
-2255 -634 0
-2255 -635 0
-2255 -636 0
-2255 -637 0
-2255 -638 838 0
-2255 -638 -574 -581 0
-2255 -638 -528 0
-2255 -638 -645 0
-2255 -638 -702 0
-2255 -639 839 0
-2255 -639 -574 -582 0
-2255 -639 -530 0
-2255 -639 -647 0
-2255 -639 -704 0
-2255 -640 840 0
-2255 -640 -574 -583 0
-2255 -640 -532 0
-2255 -640 -649 0
-2255 -640 -706 0
-2255 -641 0
-2256 584 0
-2256 832 0
-2256 -635 0
-2256 -636 0
-2256 -637 0
-2256 -638 838 0
-2256 -638 -575 -581 0
-2256 -638 -536 0
-2256 -638 -653 0
-2256 -638 -710 0
-2256 -639 839 0
-2256 -639 -575 -582 0
-2256 -639 -538 0
-2256 -639 -655 0
-2256 -639 -712 0
-2256 -640 840 0
-2256 -640 -575 -583 0
-2256 -640 -540 0
-2256 -640 -657 0
-2256 -640 -714 0
-2256 -641 0
-2257 584 0
-2257 833 0
-2257 -633 0
-2257 -636 0
-2257 -637 0
-2257 -638 838 0
-2257 -638 -576 -581 0
-2257 -638 -544 0
-2257 -638 -661 0
-2257 -638 -718 0
-2257 -639 839 0
-2257 -639 -576 -582 0
-2257 -639 -546 0
-2257 -639 -663 0
-2257 -639 -720 0
-2257 -640 840 0
-2257 -640 -576 -583 0
-2257 -640 -548 0
-2257 -640 -665 0
-2257 -640 -722 0
-2257 -641 0
-2258 584 0
-2258 834 0
-2258 -633 0
-2258 -634 0
-2258 -637 0
-2258 -638 838 0
-2258 -638 -577 -581 0
-2258 -638 -552 0
-2258 -638 -669 0
-2258 -638 -726 0
-2258 -639 839 0
-2258 -639 -577 -582 0
-2258 -639 -554 0
-2258 -639 -671 0
-2258 -639 -728 0
-2258 -640 840 0
-2258 -640 -577 -583 0
-2258 -640 -556 0
-2258 -640 -673 0
-2258 -640 -730 0
-2258 -641 0
-2259 584 0
-2259 835 0
-2259 -633 0
-2259 -634 0
-2259 -635 0
-2259 -638 838 0
-2259 -638 -578 -581 0
-2259 -638 -560 0
-2259 -638 -677 0
-2259 -638 -734 0
-2259 -639 839 0
-2259 -639 -578 -582 0
-2259 -639 -562 0
-2259 -639 -679 0
-2259 -639 -736 0
-2259 -640 840 0
-2259 -640 -578 -583 0
-2259 -640 -564 0
-2259 -640 -681 0
-2259 -640 -738 0
-2259 -641 0
-2260 584 0
-2260 836 0
-2260 -633 0
-2260 -634 0
-2260 -635 0
-2260 -636 0
-2260 -638 838 0
-2260 -638 -579 -581 0
-2260 -638 -568 0
-2260 -638 -685 0
-2260 -638 -742 0
-2260 -639 839 0
-2260 -639 -579 -582 0
-2260 -639 -570 0
-2260 -639 -687 0
-2260 -639 -744 0
-2260 -640 840 0
-2260 -640 -579 -583 0
-2260 -640 -572 0
-2260 -640 -689 0
-2260 -640 -746 0
-2260 -641 0
-2261 584 0
-2261 831 0
-2261 -692 0
-2261 -693 0
-2261 -694 0
-2261 -695 838 0
-2261 -695 -574 -581 0
-2261 -695 -528 0
-2261 -695 -645 0
-2261 -695 -702 0
-2261 -696 839 0
-2261 -696 -574 -582 0
-2261 -696 -530 0
-2261 -696 -647 0
-2261 -696 -704 0
-2261 -697 840 0
-2261 -697 -574 -583 0
-2261 -697 -532 0
-2261 -697 -649 0
-2261 -697 -706 0
-2261 -698 0
-2262 584 0
-2262 832 0
-2262 -693 0
-2262 -694 0
-2262 -695 838 0
-2262 -695 -575 -581 0
-2262 -695 -536 0
-2262 -695 -653 0
-2262 -695 -710 0
-2262 -696 839 0
-2262 -696 -575 -582 0
-2262 -696 -538 0
-2262 -696 -655 0
-2262 -696 -712 0
-2262 -697 840 0
-2262 -697 -575 -583 0
-2262 -697 -540 0
-2262 -697 -657 0
-2262 -697 -714 0
-2262 -698 0
-2263 584 0
-2263 833 0
-2263 -694 0
-2263 -695 838 0
-2263 -695 -576 -581 0
-2263 -695 -544 0
-2263 -695 -661 0
-2263 -695 -718 0
-2263 -696 839 0
-2263 -696 -576 -582 0
-2263 -696 -546 0
-2263 -696 -663 0
-2263 -696 -720 0
-2263 -697 840 0
-2263 -697 -576 -583 0
-2263 -697 -548 0
-2263 -697 -665 0
-2263 -697 -722 0
-2263 -698 0
-2264 584 0
-2264 834 0
-2264 -691 0
-2264 -695 838 0
-2264 -695 -577 -581 0
-2264 -695 -552 0
-2264 -695 -669 0
-2264 -695 -726 0
-2264 -696 839 0
-2264 -696 -577 -582 0
-2264 -696 -554 0
-2264 -696 -671 0
-2264 -696 -728 0
-2264 -697 840 0
-2264 -697 -577 -583 0
-2264 -697 -556 0
-2264 -697 -673 0
-2264 -697 -730 0
-2264 -698 0
-2265 584 0
-2265 835 0
-2265 -691 0
-2265 -692 0
-2265 -695 838 0
-2265 -695 -578 -581 0
-2265 -695 -560 0
-2265 -695 -677 0
-2265 -695 -734 0
-2265 -696 839 0
-2265 -696 -578 -582 0
-2265 -696 -562 0
-2265 -696 -679 0
-2265 -696 -736 0
-2265 -697 840 0
-2265 -697 -578 -583 0
-2265 -697 -564 0
-2265 -697 -681 0
-2265 -697 -738 0
-2265 -698 0
-2266 584 0
-2266 836 0
-2266 -691 0
-2266 -692 0
-2266 -693 0
-2266 -695 838 0
-2266 -695 -579 -581 0
-2266 -695 -568 0
-2266 -695 -685 0
-2266 -695 -742 0
-2266 -696 839 0
-2266 -696 -579 -582 0
-2266 -696 -570 0
-2266 -696 -687 0
-2266 -696 -744 0
-2266 -697 840 0
-2266 -697 -579 -583 0
-2266 -697 -572 0
-2266 -697 -689 0
-2266 -697 -746 0
-2266 -698 0
-2267 584 0
-2267 831 0
-2267 837 0
-2267 -574 -580 0
-2267 -526 0
-2267 -643 0
-2267 -700 0
-2268 584 0
-2268 832 0
-2268 837 0
-2268 -575 -580 0
-2268 -534 0
-2268 -651 0
-2268 -708 0
-2269 584 0
-2269 833 0
-2269 837 0
-2269 -576 -580 0
-2269 -542 0
-2269 -659 0
-2269 -716 0
-2270 584 0
-2270 834 0
-2270 837 0
-2270 -577 -580 0
-2270 -550 0
-2270 -667 0
-2270 -724 0
-2271 584 0
-2271 835 0
-2271 837 0
-2271 -578 -580 0
-2271 -558 0
-2271 -675 0
-2271 -732 0
-2272 584 0
-2272 836 0
-2272 837 0
-2272 -579 -580 0
-2272 -566 0
-2272 -683 0
-2272 -740 0
-2273 642 0
-2273 890 0
-2273 -517 0
-2273 -518 0
-2273 -519 0
-2273 -520 0
-2273 -521 896 0
-2273 -521 -633 -639 0
-2273 -521 -528 0
-2273 -521 -536 0
-2273 -521 -587 0
-2273 -521 -595 0
-2273 -521 -702 0
-2273 -521 -710 0
-2273 -522 897 0
-2273 -522 -633 -640 0
-2273 -522 -530 0
-2273 -522 -538 0
-2273 -522 -589 0
-2273 -522 -597 0
-2273 -522 -704 0
-2273 -522 -712 0
-2273 -523 898 0
-2273 -523 -633 -641 0
-2273 -523 -532 0
-2273 -523 -540 0
-2273 -523 -591 0
-2273 -523 -599 0
-2273 -523 -706 0
-2273 -523 -714 0
-2273 -524 0
-2274 642 0
-2274 891 0
-2274 -515 0
-2274 -518 0
-2274 -519 0
-2274 -520 0
-2274 -521 896 0
-2274 -521 -634 -639 0
-2274 -521 -536 0
-2274 -521 -544 0
-2274 -521 -595 0
-2274 -521 -603 0
-2274 -521 -710 0
-2274 -521 -718 0
-2274 -522 897 0
-2274 -522 -634 -640 0
-2274 -522 -538 0
-2274 -522 -546 0
-2274 -522 -597 0
-2274 -522 -605 0
-2274 -522 -712 0
-2274 -522 -720 0
-2274 -523 898 0
-2274 -523 -634 -641 0
-2274 -523 -540 0
-2274 -523 -548 0
-2274 -523 -599 0
-2274 -523 -607 0
-2274 -523 -714 0
-2274 -523 -722 0
-2274 -524 0
-2275 642 0
-2275 892 0
-2275 -515 0
-2275 -516 0
-2275 -519 0
-2275 -520 0
-2275 -521 896 0
-2275 -521 -635 -639 0
-2275 -521 -544 0
-2275 -521 -552 0
-2275 -521 -603 0
-2275 -521 -611 0
-2275 -521 -718 0
-2275 -521 -726 0
-2275 -522 897 0
-2275 -522 -635 -640 0
-2275 -522 -546 0
-2275 -522 -554 0
-2275 -522 -605 0
-2275 -522 -613 0
-2275 -522 -720 0
-2275 -522 -728 0
-2275 -523 898 0
-2275 -523 -635 -641 0
-2275 -523 -548 0
-2275 -523 -556 0
-2275 -523 -607 0
-2275 -523 -615 0
-2275 -523 -722 0
-2275 -523 -730 0
-2275 -524 0
-2276 642 0
-2276 893 0
-2276 -515 0
-2276 -516 0
-2276 -517 0
-2276 -520 0
-2276 -521 896 0
-2276 -521 -636 -639 0
-2276 -521 -552 0
-2276 -521 -560 0
-2276 -521 -611 0
-2276 -521 -619 0
-2276 -521 -726 0
-2276 -521 -734 0
-2276 -522 897 0
-2276 -522 -636 -640 0
-2276 -522 -554 0
-2276 -522 -562 0
-2276 -522 -613 0
-2276 -522 -621 0
-2276 -522 -728 0
-2276 -522 -736 0
-2276 -523 898 0
-2276 -523 -636 -641 0
-2276 -523 -556 0
-2276 -523 -564 0
-2276 -523 -615 0
-2276 -523 -623 0
-2276 -523 -730 0
-2276 -523 -738 0
-2276 -524 0
-2277 642 0
-2277 894 0
-2277 -515 0
-2277 -516 0
-2277 -517 0
-2277 -518 0
-2277 -521 896 0
-2277 -521 -637 -639 0
-2277 -521 -560 0
-2277 -521 -568 0
-2277 -521 -619 0
-2277 -521 -627 0
-2277 -521 -734 0
-2277 -521 -742 0
-2277 -522 897 0
-2277 -522 -637 -640 0
-2277 -522 -562 0
-2277 -522 -570 0
-2277 -522 -621 0
-2277 -522 -629 0
-2277 -522 -736 0
-2277 -522 -744 0
-2277 -523 898 0
-2277 -523 -637 -641 0
-2277 -523 -564 0
-2277 -523 -572 0
-2277 -523 -623 0
-2277 -523 -631 0
-2277 -523 -738 0
-2277 -523 -746 0
-2277 -524 0
-2278 642 0
-2278 890 0
-2278 -576 0
-2278 -577 0
-2278 -578 0
-2278 -579 0
-2278 -580 896 0
-2278 -580 -633 -639 0
-2278 -580 -528 0
-2278 -580 -536 0
-2278 -580 -587 0
-2278 -580 -595 0
-2278 -580 -702 0
-2278 -580 -710 0
-2278 -581 897 0
-2278 -581 -633 -640 0
-2278 -581 -530 0
-2278 -581 -538 0
-2278 -581 -589 0
-2278 -581 -597 0
-2278 -581 -704 0
-2278 -581 -712 0
-2278 -582 898 0
-2278 -582 -633 -641 0
-2278 -582 -532 0
-2278 -582 -540 0
-2278 -582 -591 0
-2278 -582 -599 0
-2278 -582 -706 0
-2278 -582 -714 0
-2278 -583 0
-2279 642 0
-2279 891 0
-2279 -574 0
-2279 -577 0
-2279 -578 0
-2279 -579 0
-2279 -580 896 0
-2279 -580 -634 -639 0
-2279 -580 -536 0
-2279 -580 -544 0
-2279 -580 -595 0
-2279 -580 -603 0
-2279 -580 -710 0
-2279 -580 -718 0
-2279 -581 897 0
-2279 -581 -634 -640 0
-2279 -581 -538 0
-2279 -581 -546 0
-2279 -581 -597 0
-2279 -581 -605 0
-2279 -581 -712 0
-2279 -581 -720 0
-2279 -582 898 0
-2279 -582 -634 -641 0
-2279 -582 -540 0
-2279 -582 -548 0
-2279 -582 -599 0
-2279 -582 -607 0
-2279 -582 -714 0
-2279 -582 -722 0
-2279 -583 0
-2280 642 0
-2280 892 0
-2280 -574 0
-2280 -575 0
-2280 -578 0
-2280 -579 0
-2280 -580 896 0
-2280 -580 -635 -639 0
-2280 -580 -544 0
-2280 -580 -552 0
-2280 -580 -603 0
-2280 -580 -611 0
-2280 -580 -718 0
-2280 -580 -726 0
-2280 -581 897 0
-2280 -581 -635 -640 0
-2280 -581 -546 0
-2280 -581 -554 0
-2280 -581 -605 0
-2280 -581 -613 0
-2280 -581 -720 0
-2280 -581 -728 0
-2280 -582 898 0
-2280 -582 -635 -641 0
-2280 -582 -548 0
-2280 -582 -556 0
-2280 -582 -607 0
-2280 -582 -615 0
-2280 -582 -722 0
-2280 -582 -730 0
-2280 -583 0
-2281 642 0
-2281 893 0
-2281 -574 0
-2281 -575 0
-2281 -576 0
-2281 -579 0
-2281 -580 896 0
-2281 -580 -636 -639 0
-2281 -580 -552 0
-2281 -580 -560 0
-2281 -580 -611 0
-2281 -580 -619 0
-2281 -580 -726 0
-2281 -580 -734 0
-2281 -581 897 0
-2281 -581 -636 -640 0
-2281 -581 -554 0
-2281 -581 -562 0
-2281 -581 -613 0
-2281 -581 -621 0
-2281 -581 -728 0
-2281 -581 -736 0
-2281 -582 898 0
-2281 -582 -636 -641 0
-2281 -582 -556 0
-2281 -582 -564 0
-2281 -582 -615 0
-2281 -582 -623 0
-2281 -582 -730 0
-2281 -582 -738 0
-2281 -583 0
-2282 642 0
-2282 894 0
-2282 -574 0
-2282 -575 0
-2282 -576 0
-2282 -577 0
-2282 -580 896 0
-2282 -580 -637 -639 0
-2282 -580 -560 0
-2282 -580 -568 0
-2282 -580 -619 0
-2282 -580 -627 0
-2282 -580 -734 0
-2282 -580 -742 0
-2282 -581 897 0
-2282 -581 -637 -640 0
-2282 -581 -562 0
-2282 -581 -570 0
-2282 -581 -621 0
-2282 -581 -629 0
-2282 -581 -736 0
-2282 -581 -744 0
-2282 -582 898 0
-2282 -582 -637 -641 0
-2282 -582 -564 0
-2282 -582 -572 0
-2282 -582 -623 0
-2282 -582 -631 0
-2282 -582 -738 0
-2282 -582 -746 0
-2282 -583 0
-2283 642 0
-2283 890 0
-2283 -693 0
-2283 -694 0
-2283 -695 896 0
-2283 -695 -633 -639 0
-2283 -695 -528 0
-2283 -695 -536 0
-2283 -695 -587 0
-2283 -695 -595 0
-2283 -695 -702 0
-2283 -695 -710 0
-2283 -696 897 0
-2283 -696 -633 -640 0
-2283 -696 -530 0
-2283 -696 -538 0
-2283 -696 -589 0
-2283 -696 -597 0
-2283 -696 -704 0
-2283 -696 -712 0
-2283 -697 898 0
-2283 -697 -633 -641 0
-2283 -697 -532 0
-2283 -697 -540 0
-2283 -697 -591 0
-2283 -697 -599 0
-2283 -697 -706 0
-2283 -697 -714 0
-2283 -698 0
-2284 642 0
-2284 891 0
-2284 -694 0
-2284 -695 896 0
-2284 -695 -634 -639 0
-2284 -695 -536 0
-2284 -695 -544 0
-2284 -695 -595 0
-2284 -695 -603 0
-2284 -695 -710 0
-2284 -695 -718 0
-2284 -696 897 0
-2284 -696 -634 -640 0
-2284 -696 -538 0
-2284 -696 -546 0
-2284 -696 -597 0
-2284 -696 -605 0
-2284 -696 -712 0
-2284 -696 -720 0
-2284 -697 898 0
-2284 -697 -634 -641 0
-2284 -697 -540 0
-2284 -697 -548 0
-2284 -697 -599 0
-2284 -697 -607 0
-2284 -697 -714 0
-2284 -697 -722 0
-2284 -698 0
-2285 642 0
-2285 892 0
-2285 -695 896 0
-2285 -695 -635 -639 0
-2285 -695 -544 0
-2285 -695 -552 0
-2285 -695 -603 0
-2285 -695 -611 0
-2285 -695 -718 0
-2285 -695 -726 0
-2285 -696 897 0
-2285 -696 -635 -640 0
-2285 -696 -546 0
-2285 -696 -554 0
-2285 -696 -605 0
-2285 -696 -613 0
-2285 -696 -720 0
-2285 -696 -728 0
-2285 -697 898 0
-2285 -697 -635 -641 0
-2285 -697 -548 0
-2285 -697 -556 0
-2285 -697 -607 0
-2285 -697 -615 0
-2285 -697 -722 0
-2285 -697 -730 0
-2285 -698 0
-2286 642 0
-2286 893 0
-2286 -691 0
-2286 -695 896 0
-2286 -695 -636 -639 0
-2286 -695 -552 0
-2286 -695 -560 0
-2286 -695 -611 0
-2286 -695 -619 0
-2286 -695 -726 0
-2286 -695 -734 0
-2286 -696 897 0
-2286 -696 -636 -640 0
-2286 -696 -554 0
-2286 -696 -562 0
-2286 -696 -613 0
-2286 -696 -621 0
-2286 -696 -728 0
-2286 -696 -736 0
-2286 -697 898 0
-2286 -697 -636 -641 0
-2286 -697 -556 0
-2286 -697 -564 0
-2286 -697 -615 0
-2286 -697 -623 0
-2286 -697 -730 0
-2286 -697 -738 0
-2286 -698 0
-2287 642 0
-2287 894 0
-2287 -691 0
-2287 -692 0
-2287 -695 896 0
-2287 -695 -637 -639 0
-2287 -695 -560 0
-2287 -695 -568 0
-2287 -695 -619 0
-2287 -695 -627 0
-2287 -695 -734 0
-2287 -695 -742 0
-2287 -696 897 0
-2287 -696 -637 -640 0
-2287 -696 -562 0
-2287 -696 -570 0
-2287 -696 -621 0
-2287 -696 -629 0
-2287 -696 -736 0
-2287 -696 -744 0
-2287 -697 898 0
-2287 -697 -637 -641 0
-2287 -697 -564 0
-2287 -697 -572 0
-2287 -697 -623 0
-2287 -697 -631 0
-2287 -697 -738 0
-2287 -697 -746 0
-2287 -698 0
-2288 642 0
-2288 890 0
-2288 895 0
-2288 -633 -638 0
-2288 -526 0
-2288 -534 0
-2288 -585 0
-2288 -593 0
-2288 -700 0
-2288 -708 0
-2289 642 0
-2289 891 0
-2289 895 0
-2289 -634 -638 0
-2289 -534 0
-2289 -542 0
-2289 -593 0
-2289 -601 0
-2289 -708 0
-2289 -716 0
-2290 642 0
-2290 892 0
-2290 895 0
-2290 -635 -638 0
-2290 -542 0
-2290 -550 0
-2290 -601 0
-2290 -609 0
-2290 -716 0
-2290 -724 0
-2291 642 0
-2291 893 0
-2291 895 0
-2291 -636 -638 0
-2291 -550 0
-2291 -558 0
-2291 -609 0
-2291 -617 0
-2291 -724 0
-2291 -732 0
-2292 642 0
-2292 894 0
-2292 895 0
-2292 -637 -638 0
-2292 -558 0
-2292 -566 0
-2292 -617 0
-2292 -625 0
-2292 -732 0
-2292 -740 0
-2293 699 0
-2293 948 0
-2293 -518 0
-2293 -519 0
-2293 -520 0
-2293 -521 953 0
-2293 -521 -691 -696 0
-2293 -521 -528 0
-2293 -521 -536 0
-2293 -521 -544 0
-2293 -521 -587 0
-2293 -521 -595 0
-2293 -521 -603 0
-2293 -521 -645 0
-2293 -521 -653 0
-2293 -521 -661 0
-2293 -522 954 0
-2293 -522 -691 -697 0
-2293 -522 -530 0
-2293 -522 -538 0
-2293 -522 -546 0
-2293 -522 -589 0
-2293 -522 -597 0
-2293 -522 -605 0
-2293 -522 -647 0
-2293 -522 -655 0
-2293 -522 -663 0
-2293 -523 955 0
-2293 -523 -691 -698 0
-2293 -523 -532 0
-2293 -523 -540 0
-2293 -523 -548 0
-2293 -523 -591 0
-2293 -523 -599 0
-2293 -523 -607 0
-2293 -523 -649 0
-2293 -523 -657 0
-2293 -523 -665 0
-2293 -524 0
-2294 699 0
-2294 949 0
-2294 -515 0
-2294 -519 0
-2294 -520 0
-2294 -521 953 0
-2294 -521 -692 -696 0
-2294 -521 -536 0
-2294 -521 -544 0
-2294 -521 -552 0
-2294 -521 -595 0
-2294 -521 -603 0
-2294 -521 -611 0
-2294 -521 -653 0
-2294 -521 -661 0
-2294 -521 -669 0
-2294 -522 954 0
-2294 -522 -692 -697 0
-2294 -522 -538 0
-2294 -522 -546 0
-2294 -522 -554 0
-2294 -522 -597 0
-2294 -522 -605 0
-2294 -522 -613 0
-2294 -522 -655 0
-2294 -522 -663 0
-2294 -522 -671 0
-2294 -523 955 0
-2294 -523 -692 -698 0
-2294 -523 -540 0
-2294 -523 -548 0
-2294 -523 -556 0
-2294 -523 -599 0
-2294 -523 -607 0
-2294 -523 -615 0
-2294 -523 -657 0
-2294 -523 -665 0
-2294 -523 -673 0
-2294 -524 0
-2295 699 0
-2295 950 0
-2295 -515 0
-2295 -516 0
-2295 -520 0
-2295 -521 953 0
-2295 -521 -693 -696 0
-2295 -521 -544 0
-2295 -521 -552 0
-2295 -521 -560 0
-2295 -521 -603 0
-2295 -521 -611 0
-2295 -521 -619 0
-2295 -521 -661 0
-2295 -521 -669 0
-2295 -521 -677 0
-2295 -522 954 0
-2295 -522 -693 -697 0
-2295 -522 -546 0
-2295 -522 -554 0
-2295 -522 -562 0
-2295 -522 -605 0
-2295 -522 -613 0
-2295 -522 -621 0
-2295 -522 -663 0
-2295 -522 -671 0
-2295 -522 -679 0
-2295 -523 955 0
-2295 -523 -693 -698 0
-2295 -523 -548 0
-2295 -523 -556 0
-2295 -523 -564 0
-2295 -523 -607 0
-2295 -523 -615 0
-2295 -523 -623 0
-2295 -523 -665 0
-2295 -523 -673 0
-2295 -523 -681 0
-2295 -524 0
-2296 699 0
-2296 951 0
-2296 -515 0
-2296 -516 0
-2296 -517 0
-2296 -521 953 0
-2296 -521 -694 -696 0
-2296 -521 -552 0
-2296 -521 -560 0
-2296 -521 -568 0
-2296 -521 -611 0
-2296 -521 -619 0
-2296 -521 -627 0
-2296 -521 -669 0
-2296 -521 -677 0
-2296 -521 -685 0
-2296 -522 954 0
-2296 -522 -694 -697 0
-2296 -522 -554 0
-2296 -522 -562 0
-2296 -522 -570 0
-2296 -522 -613 0
-2296 -522 -621 0
-2296 -522 -629 0
-2296 -522 -671 0
-2296 -522 -679 0
-2296 -522 -687 0
-2296 -523 955 0
-2296 -523 -694 -698 0
-2296 -523 -556 0
-2296 -523 -564 0
-2296 -523 -572 0
-2296 -523 -615 0
-2296 -523 -623 0
-2296 -523 -631 0
-2296 -523 -673 0
-2296 -523 -681 0
-2296 -523 -689 0
-2296 -524 0
-2297 699 0
-2297 948 0
-2297 -577 0
-2297 -578 0
-2297 -579 0
-2297 -580 953 0
-2297 -580 -691 -696 0
-2297 -580 -528 0
-2297 -580 -536 0
-2297 -580 -544 0
-2297 -580 -587 0
-2297 -580 -595 0
-2297 -580 -603 0
-2297 -580 -645 0
-2297 -580 -653 0
-2297 -580 -661 0
-2297 -581 954 0
-2297 -581 -691 -697 0
-2297 -581 -530 0
-2297 -581 -538 0
-2297 -581 -546 0
-2297 -581 -589 0
-2297 -581 -597 0
-2297 -581 -605 0
-2297 -581 -647 0
-2297 -581 -655 0
-2297 -581 -663 0
-2297 -582 955 0
-2297 -582 -691 -698 0
-2297 -582 -532 0
-2297 -582 -540 0
-2297 -582 -548 0
-2297 -582 -591 0
-2297 -582 -599 0
-2297 -582 -607 0
-2297 -582 -649 0
-2297 -582 -657 0
-2297 -582 -665 0
-2297 -583 0
-2298 699 0
-2298 949 0
-2298 -574 0
-2298 -578 0
-2298 -579 0
-2298 -580 953 0
-2298 -580 -692 -696 0
-2298 -580 -536 0
-2298 -580 -544 0
-2298 -580 -552 0
-2298 -580 -595 0
-2298 -580 -603 0
-2298 -580 -611 0
-2298 -580 -653 0
-2298 -580 -661 0
-2298 -580 -669 0
-2298 -581 954 0
-2298 -581 -692 -697 0
-2298 -581 -538 0
-2298 -581 -546 0
-2298 -581 -554 0
-2298 -581 -597 0
-2298 -581 -605 0
-2298 -581 -613 0
-2298 -581 -655 0
-2298 -581 -663 0
-2298 -581 -671 0
-2298 -582 955 0
-2298 -582 -692 -698 0
-2298 -582 -540 0
-2298 -582 -548 0
-2298 -582 -556 0
-2298 -582 -599 0
-2298 -582 -607 0
-2298 -582 -615 0
-2298 -582 -657 0
-2298 -582 -665 0
-2298 -582 -673 0
-2298 -583 0
-2299 699 0
-2299 950 0
-2299 -574 0
-2299 -575 0
-2299 -579 0
-2299 -580 953 0
-2299 -580 -693 -696 0
-2299 -580 -544 0
-2299 -580 -552 0
-2299 -580 -560 0
-2299 -580 -603 0
-2299 -580 -611 0
-2299 -580 -619 0
-2299 -580 -661 0
-2299 -580 -669 0
-2299 -580 -677 0
-2299 -581 954 0
-2299 -581 -693 -697 0
-2299 -581 -546 0
-2299 -581 -554 0
-2299 -581 -562 0
-2299 -581 -605 0
-2299 -581 -613 0
-2299 -581 -621 0
-2299 -581 -663 0
-2299 -581 -671 0
-2299 -581 -679 0
-2299 -582 955 0
-2299 -582 -693 -698 0
-2299 -582 -548 0
-2299 -582 -556 0
-2299 -582 -564 0
-2299 -582 -607 0
-2299 -582 -615 0
-2299 -582 -623 0
-2299 -582 -665 0
-2299 -582 -673 0
-2299 -582 -681 0
-2299 -583 0
-2300 699 0
-2300 951 0
-2300 -574 0
-2300 -575 0
-2300 -576 0
-2300 -580 953 0
-2300 -580 -694 -696 0
-2300 -580 -552 0
-2300 -580 -560 0
-2300 -580 -568 0
-2300 -580 -611 0
-2300 -580 -619 0
-2300 -580 -627 0
-2300 -580 -669 0
-2300 -580 -677 0
-2300 -580 -685 0
-2300 -581 954 0
-2300 -581 -694 -697 0
-2300 -581 -554 0
-2300 -581 -562 0
-2300 -581 -570 0
-2300 -581 -613 0
-2300 -581 -621 0
-2300 -581 -629 0
-2300 -581 -671 0
-2300 -581 -679 0
-2300 -581 -687 0
-2300 -582 955 0
-2300 -582 -694 -698 0
-2300 -582 -556 0
-2300 -582 -564 0
-2300 -582 -572 0
-2300 -582 -615 0
-2300 -582 -623 0
-2300 -582 -631 0
-2300 -582 -673 0
-2300 -582 -681 0
-2300 -582 -689 0
-2300 -583 0
-2301 699 0
-2301 948 0
-2301 -636 0
-2301 -637 0
-2301 -638 953 0
-2301 -638 -691 -696 0
-2301 -638 -528 0
-2301 -638 -536 0
-2301 -638 -544 0
-2301 -638 -587 0
-2301 -638 -595 0
-2301 -638 -603 0
-2301 -638 -645 0
-2301 -638 -653 0
-2301 -638 -661 0
-2301 -639 954 0
-2301 -639 -691 -697 0
-2301 -639 -530 0
-2301 -639 -538 0
-2301 -639 -546 0
-2301 -639 -589 0
-2301 -639 -597 0
-2301 -639 -605 0
-2301 -639 -647 0
-2301 -639 -655 0
-2301 -639 -663 0
-2301 -640 955 0
-2301 -640 -691 -698 0
-2301 -640 -532 0
-2301 -640 -540 0
-2301 -640 -548 0
-2301 -640 -591 0
-2301 -640 -599 0
-2301 -640 -607 0
-2301 -640 -649 0
-2301 -640 -657 0
-2301 -640 -665 0
-2301 -641 0
-2302 699 0
-2302 949 0
-2302 -637 0
-2302 -638 953 0
-2302 -638 -692 -696 0
-2302 -638 -536 0
-2302 -638 -544 0
-2302 -638 -552 0
-2302 -638 -595 0
-2302 -638 -603 0
-2302 -638 -611 0
-2302 -638 -653 0
-2302 -638 -661 0
-2302 -638 -669 0
-2302 -639 954 0
-2302 -639 -692 -697 0
-2302 -639 -538 0
-2302 -639 -546 0
-2302 -639 -554 0
-2302 -639 -597 0
-2302 -639 -605 0
-2302 -639 -613 0
-2302 -639 -655 0
-2302 -639 -663 0
-2302 -639 -671 0
-2302 -640 955 0
-2302 -640 -692 -698 0
-2302 -640 -540 0
-2302 -640 -548 0
-2302 -640 -556 0
-2302 -640 -599 0
-2302 -640 -607 0
-2302 -640 -615 0
-2302 -640 -657 0
-2302 -640 -665 0
-2302 -640 -673 0
-2302 -641 0
-2303 699 0
-2303 950 0
-2303 -633 0
-2303 -638 953 0
-2303 -638 -693 -696 0
-2303 -638 -544 0
-2303 -638 -552 0
-2303 -638 -560 0
-2303 -638 -603 0
-2303 -638 -611 0
-2303 -638 -619 0
-2303 -638 -661 0
-2303 -638 -669 0
-2303 -638 -677 0
-2303 -639 954 0
-2303 -639 -693 -697 0
-2303 -639 -546 0
-2303 -639 -554 0
-2303 -639 -562 0
-2303 -639 -605 0
-2303 -639 -613 0
-2303 -639 -621 0
-2303 -639 -663 0
-2303 -639 -671 0
-2303 -639 -679 0
-2303 -640 955 0
-2303 -640 -693 -698 0
-2303 -640 -548 0
-2303 -640 -556 0
-2303 -640 -564 0
-2303 -640 -607 0
-2303 -640 -615 0
-2303 -640 -623 0
-2303 -640 -665 0
-2303 -640 -673 0
-2303 -640 -681 0
-2303 -641 0
-2304 699 0
-2304 951 0
-2304 -633 0
-2304 -634 0
-2304 -638 953 0
-2304 -638 -694 -696 0
-2304 -638 -552 0
-2304 -638 -560 0
-2304 -638 -568 0
-2304 -638 -611 0
-2304 -638 -619 0
-2304 -638 -627 0
-2304 -638 -669 0
-2304 -638 -677 0
-2304 -638 -685 0
-2304 -639 954 0
-2304 -639 -694 -697 0
-2304 -639 -554 0
-2304 -639 -562 0
-2304 -639 -570 0
-2304 -639 -613 0
-2304 -639 -621 0
-2304 -639 -629 0
-2304 -639 -671 0
-2304 -639 -679 0
-2304 -639 -687 0
-2304 -640 955 0
-2304 -640 -694 -698 0
-2304 -640 -556 0
-2304 -640 -564 0
-2304 -640 -572 0
-2304 -640 -615 0
-2304 -640 -623 0
-2304 -640 -631 0
-2304 -640 -673 0
-2304 -640 -681 0
-2304 -640 -689 0
-2304 -641 0
-2305 699 0
-2305 948 0
-2305 952 0
-2305 -691 -695 0
-2305 -526 0
-2305 -534 0
-2305 -542 0
-2305 -585 0
-2305 -593 0
-2305 -601 0
-2305 -643 0
-2305 -651 0
-2305 -659 0
-2306 699 0
-2306 949 0
-2306 952 0
-2306 -692 -695 0
-2306 -534 0
-2306 -542 0
-2306 -550 0
-2306 -593 0
-2306 -601 0
-2306 -609 0
-2306 -651 0
-2306 -659 0
-2306 -667 0
-2307 699 0
-2307 950 0
-2307 952 0
-2307 -693 -695 0
-2307 -542 0
-2307 -550 0
-2307 -558 0
-2307 -601 0
-2307 -609 0
-2307 -617 0
-2307 -659 0
-2307 -667 0
-2307 -675 0
-2308 699 0
-2308 951 0
-2308 952 0
-2308 -694 -695 0
-2308 -550 0
-2308 -558 0
-2308 -566 0
-2308 -609 0
-2308 -617 0
-2308 -625 0
-2308 -667 0
-2308 -675 0
-2308 -683 0
-515 772 2225 2226 2227 2228 2229 2230 2231 2232 2233 2234 2235 2236 2237 2238 2239 2240 2241 2242 2243 2244 2245 2246 2247 2248 0
-516 773 2225 2226 2227 2228 2229 2230 2231 2232 2233 2234 2235 2236 2237 2238 2239 2240 2241 2242 2243 2244 2245 2246 2247 2248 0
-517 774 2225 2226 2227 2228 2229 2230 2231 2232 2233 2234 2235 2236 2237 2238 2239 2240 2241 2242 2243 2244 2245 2246 2247 2248 0
-518 775 2225 2226 2227 2228 2229 2230 2231 2232 2233 2234 2235 2236 2237 2238 2239 2240 2241 2242 2243 2244 2245 2246 2247 2248 0
-519 776 2225 2226 2227 2228 2229 2230 2231 2232 2233 2234 2235 2236 2237 2238 2239 2240 2241 2242 2243 2244 2245 2246 2247 2248 0
-520 777 2225 2226 2227 2228 2229 2230 2231 2232 2233 2234 2235 2236 2237 2238 2239 2240 2241 2242 2243 2244 2245 2246 2247 2248 0
-521 778 2225 2226 2227 2228 2229 2230 2231 2232 2233 2234 2235 2236 2237 2238 2239 2240 2241 2242 2243 2244 2245 2246 2247 2248 0
-522 779 2225 2226 2227 2228 2229 2230 2231 2232 2233 2234 2235 2236 2237 2238 2239 2240 2241 2242 2243 2244 2245 2246 2247 2248 0
-523 780 2225 2226 2227 2228 2229 2230 2231 2232 2233 2234 2235 2236 2237 2238 2239 2240 2241 2242 2243 2244 2245 2246 2247 2248 0
-524 781 2225 2226 2227 2228 2229 2230 2231 2232 2233 2234 2235 2236 2237 2238 2239 2240 2241 2242 2243 2244 2245 2246 2247 2248 0
-574 831 2249 2250 2251 2252 2253 2254 2255 2256 2257 2258 2259 2260 2261 2262 2263 2264 2265 2266 2267 2268 2269 2270 2271 2272 0
-575 832 2249 2250 2251 2252 2253 2254 2255 2256 2257 2258 2259 2260 2261 2262 2263 2264 2265 2266 2267 2268 2269 2270 2271 2272 0
-576 833 2249 2250 2251 2252 2253 2254 2255 2256 2257 2258 2259 2260 2261 2262 2263 2264 2265 2266 2267 2268 2269 2270 2271 2272 0
-577 834 2249 2250 2251 2252 2253 2254 2255 2256 2257 2258 2259 2260 2261 2262 2263 2264 2265 2266 2267 2268 2269 2270 2271 2272 0
-578 835 2249 2250 2251 2252 2253 2254 2255 2256 2257 2258 2259 2260 2261 2262 2263 2264 2265 2266 2267 2268 2269 2270 2271 2272 0
-579 836 2249 2250 2251 2252 2253 2254 2255 2256 2257 2258 2259 2260 2261 2262 2263 2264 2265 2266 2267 2268 2269 2270 2271 2272 0
-580 837 2249 2250 2251 2252 2253 2254 2255 2256 2257 2258 2259 2260 2261 2262 2263 2264 2265 2266 2267 2268 2269 2270 2271 2272 0
-581 838 2249 2250 2251 2252 2253 2254 2255 2256 2257 2258 2259 2260 2261 2262 2263 2264 2265 2266 2267 2268 2269 2270 2271 2272 0
-582 839 2249 2250 2251 2252 2253 2254 2255 2256 2257 2258 2259 2260 2261 2262 2263 2264 2265 2266 2267 2268 2269 2270 2271 2272 0
-583 840 2249 2250 2251 2252 2253 2254 2255 2256 2257 2258 2259 2260 2261 2262 2263 2264 2265 2266 2267 2268 2269 2270 2271 2272 0
-633 890 2273 2274 2275 2276 2277 2278 2279 2280 2281 2282 2283 2284 2285 2286 2287 2288 2289 2290 2291 2292 0
-634 891 2273 2274 2275 2276 2277 2278 2279 2280 2281 2282 2283 2284 2285 2286 2287 2288 2289 2290 2291 2292 0
-635 892 2273 2274 2275 2276 2277 2278 2279 2280 2281 2282 2283 2284 2285 2286 2287 2288 2289 2290 2291 2292 0
-636 893 2273 2274 2275 2276 2277 2278 2279 2280 2281 2282 2283 2284 2285 2286 2287 2288 2289 2290 2291 2292 0
-637 894 2273 2274 2275 2276 2277 2278 2279 2280 2281 2282 2283 2284 2285 2286 2287 2288 2289 2290 2291 2292 0
-638 895 2273 2274 2275 2276 2277 2278 2279 2280 2281 2282 2283 2284 2285 2286 2287 2288 2289 2290 2291 2292 0
-639 896 2273 2274 2275 2276 2277 2278 2279 2280 2281 2282 2283 2284 2285 2286 2287 2288 2289 2290 2291 2292 0
-640 897 2273 2274 2275 2276 2277 2278 2279 2280 2281 2282 2283 2284 2285 2286 2287 2288 2289 2290 2291 2292 0
-641 898 2273 2274 2275 2276 2277 2278 2279 2280 2281 2282 2283 2284 2285 2286 2287 2288 2289 2290 2291 2292 0
-691 948 2293 2294 2295 2296 2297 2298 2299 2300 2301 2302 2303 2304 2305 2306 2307 2308 0
-692 949 2293 2294 2295 2296 2297 2298 2299 2300 2301 2302 2303 2304 2305 2306 2307 2308 0
-693 950 2293 2294 2295 2296 2297 2298 2299 2300 2301 2302 2303 2304 2305 2306 2307 2308 0
-694 951 2293 2294 2295 2296 2297 2298 2299 2300 2301 2302 2303 2304 2305 2306 2307 2308 0
-695 952 2293 2294 2295 2296 2297 2298 2299 2300 2301 2302 2303 2304 2305 2306 2307 2308 0
-696 953 2293 2294 2295 2296 2297 2298 2299 2300 2301 2302 2303 2304 2305 2306 2307 2308 0
-697 954 2293 2294 2295 2296 2297 2298 2299 2300 2301 2302 2303 2304 2305 2306 2307 2308 0
-698 955 2293 2294 2295 2296 2297 2298 2299 2300 2301 2302 2303 2304 2305 2306 2307 2308 0
-2309 -2310 0
-2309 -2311 0
-2309 -2312 0
-2309 -2313 0
-2309 -2314 0
-2309 -2315 0
-2309 -2316 0
-2309 -2317 0
-2309 -2318 0
-2309 -2319 0
-2309 -2320 0
-2309 -2321 0
-2309 -2322 0
-2309 -2323 0
-2309 -2324 0
-2309 -2325 0
-2309 -2326 0
-2309 -2327 0
-2309 -2328 0
-2309 -2329 0
-2309 -2330 0
-2309 -2331 0
-2309 -2332 0
-2309 -2333 0
-2309 -2334 0
-2309 -2335 0
-2309 -2336 0
-2309 -2337 0
-2309 -2338 0
-2309 -2339 0
-2309 -2340 0
-2309 -2341 0
-2309 -2342 0
-2309 -2343 0
-2309 -2344 0
-2309 -2345 0
-2309 -2346 0
-2309 -2347 0
-2309 -2348 0
-2309 -2349 0
-2309 -2350 0
-2309 -2351 0
-2309 -2352 0
-2309 -2353 0
-2309 -2354 0
-2309 -2355 0
-2309 -2356 0
-2309 -2357 0
-2309 -2358 0
-2309 -2359 0
-2309 -2360 0
-2309 -2361 0
-2309 -2362 0
-2309 -2363 0
-2309 -2364 0
-2309 -2365 0
-2309 -2366 0
-2309 -2367 0
-2309 -2368 0
-2309 -2369 0
-2309 -2370 0
-2309 -2371 0
-2309 -2372 0
-2309 -2373 0
-2309 -2374 0
-2309 -2375 0
-2309 -2376 0
-2309 -2377 0
-2309 -2378 0
-2309 -2379 0
-2309 -2380 0
-2309 -2381 0
-2309 -2382 0
-2309 -2383 0
-2309 -2384 0
-2309 -2385 0
-2309 -2386 0
-2309 -2387 0
-2309 -2388 0
-2309 -2389 0
-2309 -2390 0
-2309 -2391 0
-2309 -2392 0
-2310 -2311 0
-2310 -2312 0
-2310 -2313 0
-2310 -2314 0
-2310 -2315 0
-2310 -2316 0
-2310 -2317 0
-2310 -2318 0
-2310 -2319 0
-2310 -2320 0
-2310 -2321 0
-2310 -2322 0
-2310 -2323 0
-2310 -2324 0
-2310 -2325 0
-2310 -2326 0
-2310 -2327 0
-2310 -2328 0
-2310 -2329 0
-2310 -2330 0
-2310 -2331 0
-2310 -2332 0
-2310 -2333 0
-2310 -2334 0
-2310 -2335 0
-2310 -2336 0
-2310 -2337 0
-2310 -2338 0
-2310 -2339 0
-2310 -2340 0
-2310 -2341 0
-2310 -2342 0
-2310 -2343 0
-2310 -2344 0
-2310 -2345 0
-2310 -2346 0
-2310 -2347 0
-2310 -2348 0
-2310 -2349 0
-2310 -2350 0
-2310 -2351 0
-2310 -2352 0
-2310 -2353 0
-2310 -2354 0
-2310 -2355 0
-2310 -2356 0
-2310 -2357 0
-2310 -2358 0
-2310 -2359 0
-2310 -2360 0
-2310 -2361 0
-2310 -2362 0
-2310 -2363 0
-2310 -2364 0
-2310 -2365 0
-2310 -2366 0
-2310 -2367 0
-2310 -2368 0
-2310 -2369 0
-2310 -2370 0
-2310 -2371 0
-2310 -2372 0
-2310 -2373 0
-2310 -2374 0
-2310 -2375 0
-2310 -2376 0
-2310 -2377 0
-2310 -2378 0
-2310 -2379 0
-2310 -2380 0
-2310 -2381 0
-2310 -2382 0
-2310 -2383 0
-2310 -2384 0
-2310 -2385 0
-2310 -2386 0
-2310 -2387 0
-2310 -2388 0
-2310 -2389 0
-2310 -2390 0
-2310 -2391 0
-2310 -2392 0
-2311 -2312 0
-2311 -2313 0
-2311 -2314 0
-2311 -2315 0
-2311 -2316 0
-2311 -2317 0
-2311 -2318 0
-2311 -2319 0
-2311 -2320 0
-2311 -2321 0
-2311 -2322 0
-2311 -2323 0
-2311 -2324 0
-2311 -2325 0
-2311 -2326 0
-2311 -2327 0
-2311 -2328 0
-2311 -2329 0
-2311 -2330 0
-2311 -2331 0
-2311 -2332 0
-2311 -2333 0
-2311 -2334 0
-2311 -2335 0
-2311 -2336 0
-2311 -2337 0
-2311 -2338 0
-2311 -2339 0
-2311 -2340 0
-2311 -2341 0
-2311 -2342 0
-2311 -2343 0
-2311 -2344 0
-2311 -2345 0
-2311 -2346 0
-2311 -2347 0
-2311 -2348 0
-2311 -2349 0
-2311 -2350 0
-2311 -2351 0
-2311 -2352 0
-2311 -2353 0
-2311 -2354 0
-2311 -2355 0
-2311 -2356 0
-2311 -2357 0
-2311 -2358 0
-2311 -2359 0
-2311 -2360 0
-2311 -2361 0
-2311 -2362 0
-2311 -2363 0
-2311 -2364 0
-2311 -2365 0
-2311 -2366 0
-2311 -2367 0
-2311 -2368 0
-2311 -2369 0
-2311 -2370 0
-2311 -2371 0
-2311 -2372 0
-2311 -2373 0
-2311 -2374 0
-2311 -2375 0
-2311 -2376 0
-2311 -2377 0
-2311 -2378 0
-2311 -2379 0
-2311 -2380 0
-2311 -2381 0
-2311 -2382 0
-2311 -2383 0
-2311 -2384 0
-2311 -2385 0
-2311 -2386 0
-2311 -2387 0
-2311 -2388 0
-2311 -2389 0
-2311 -2390 0
-2311 -2391 0
-2311 -2392 0
-2312 -2313 0
-2312 -2314 0
-2312 -2315 0
-2312 -2316 0
-2312 -2317 0
-2312 -2318 0
-2312 -2319 0
-2312 -2320 0
-2312 -2321 0
-2312 -2322 0
-2312 -2323 0
-2312 -2324 0
-2312 -2325 0
-2312 -2326 0
-2312 -2327 0
-2312 -2328 0
-2312 -2329 0
-2312 -2330 0
-2312 -2331 0
-2312 -2332 0
-2312 -2333 0
-2312 -2334 0
-2312 -2335 0
-2312 -2336 0
-2312 -2337 0
-2312 -2338 0
-2312 -2339 0
-2312 -2340 0
-2312 -2341 0
-2312 -2342 0
-2312 -2343 0
-2312 -2344 0
-2312 -2345 0
-2312 -2346 0
-2312 -2347 0
-2312 -2348 0
-2312 -2349 0
-2312 -2350 0
-2312 -2351 0
-2312 -2352 0
-2312 -2353 0
-2312 -2354 0
-2312 -2355 0
-2312 -2356 0
-2312 -2357 0
-2312 -2358 0
-2312 -2359 0
-2312 -2360 0
-2312 -2361 0
-2312 -2362 0
-2312 -2363 0
-2312 -2364 0
-2312 -2365 0
-2312 -2366 0
-2312 -2367 0
-2312 -2368 0
-2312 -2369 0
-2312 -2370 0
-2312 -2371 0
-2312 -2372 0
-2312 -2373 0
-2312 -2374 0
-2312 -2375 0
-2312 -2376 0
-2312 -2377 0
-2312 -2378 0
-2312 -2379 0
-2312 -2380 0
-2312 -2381 0
-2312 -2382 0
-2312 -2383 0
-2312 -2384 0
-2312 -2385 0
-2312 -2386 0
-2312 -2387 0
-2312 -2388 0
-2312 -2389 0
-2312 -2390 0
-2312 -2391 0
-2312 -2392 0
-2313 -2314 0
-2313 -2315 0
-2313 -2316 0
-2313 -2317 0
-2313 -2318 0
-2313 -2319 0
-2313 -2320 0
-2313 -2321 0
-2313 -2322 0
-2313 -2323 0
-2313 -2324 0
-2313 -2325 0
-2313 -2326 0
-2313 -2327 0
-2313 -2328 0
-2313 -2329 0
-2313 -2330 0
-2313 -2331 0
-2313 -2332 0
-2313 -2333 0
-2313 -2334 0
-2313 -2335 0
-2313 -2336 0
-2313 -2337 0
-2313 -2338 0
-2313 -2339 0
-2313 -2340 0
-2313 -2341 0
-2313 -2342 0
-2313 -2343 0
-2313 -2344 0
-2313 -2345 0
-2313 -2346 0
-2313 -2347 0
-2313 -2348 0
-2313 -2349 0
-2313 -2350 0
-2313 -2351 0
-2313 -2352 0
-2313 -2353 0
-2313 -2354 0
-2313 -2355 0
-2313 -2356 0
-2313 -2357 0
-2313 -2358 0
-2313 -2359 0
-2313 -2360 0
-2313 -2361 0
-2313 -2362 0
-2313 -2363 0
-2313 -2364 0
-2313 -2365 0
-2313 -2366 0
-2313 -2367 0
-2313 -2368 0
-2313 -2369 0
-2313 -2370 0
-2313 -2371 0
-2313 -2372 0
-2313 -2373 0
-2313 -2374 0
-2313 -2375 0
-2313 -2376 0
-2313 -2377 0
-2313 -2378 0
-2313 -2379 0
-2313 -2380 0
-2313 -2381 0
-2313 -2382 0
-2313 -2383 0
-2313 -2384 0
-2313 -2385 0
-2313 -2386 0
-2313 -2387 0
-2313 -2388 0
-2313 -2389 0
-2313 -2390 0
-2313 -2391 0
-2313 -2392 0
-2314 -2315 0
-2314 -2316 0
-2314 -2317 0
-2314 -2318 0
-2314 -2319 0
-2314 -2320 0
-2314 -2321 0
-2314 -2322 0
-2314 -2323 0
-2314 -2324 0
-2314 -2325 0
-2314 -2326 0
-2314 -2327 0
-2314 -2328 0
-2314 -2329 0
-2314 -2330 0
-2314 -2331 0
-2314 -2332 0
-2314 -2333 0
-2314 -2334 0
-2314 -2335 0
-2314 -2336 0
-2314 -2337 0
-2314 -2338 0
-2314 -2339 0
-2314 -2340 0
-2314 -2341 0
-2314 -2342 0
-2314 -2343 0
-2314 -2344 0
-2314 -2345 0
-2314 -2346 0
-2314 -2347 0
-2314 -2348 0
-2314 -2349 0
-2314 -2350 0
-2314 -2351 0
-2314 -2352 0
-2314 -2353 0
-2314 -2354 0
-2314 -2355 0
-2314 -2356 0
-2314 -2357 0
-2314 -2358 0
-2314 -2359 0
-2314 -2360 0
-2314 -2361 0
-2314 -2362 0
-2314 -2363 0
-2314 -2364 0
-2314 -2365 0
-2314 -2366 0
-2314 -2367 0
-2314 -2368 0
-2314 -2369 0
-2314 -2370 0
-2314 -2371 0
-2314 -2372 0
-2314 -2373 0
-2314 -2374 0
-2314 -2375 0
-2314 -2376 0
-2314 -2377 0
-2314 -2378 0
-2314 -2379 0
-2314 -2380 0
-2314 -2381 0
-2314 -2382 0
-2314 -2383 0
-2314 -2384 0
-2314 -2385 0
-2314 -2386 0
-2314 -2387 0
-2314 -2388 0
-2314 -2389 0
-2314 -2390 0
-2314 -2391 0
-2314 -2392 0
-2315 -2316 0
-2315 -2317 0
-2315 -2318 0
-2315 -2319 0
-2315 -2320 0
-2315 -2321 0
-2315 -2322 0
-2315 -2323 0
-2315 -2324 0
-2315 -2325 0
-2315 -2326 0
-2315 -2327 0
-2315 -2328 0
-2315 -2329 0
-2315 -2330 0
-2315 -2331 0
-2315 -2332 0
-2315 -2333 0
-2315 -2334 0
-2315 -2335 0
-2315 -2336 0
-2315 -2337 0
-2315 -2338 0
-2315 -2339 0
-2315 -2340 0
-2315 -2341 0
-2315 -2342 0
-2315 -2343 0
-2315 -2344 0
-2315 -2345 0
-2315 -2346 0
-2315 -2347 0
-2315 -2348 0
-2315 -2349 0
-2315 -2350 0
-2315 -2351 0
-2315 -2352 0
-2315 -2353 0
-2315 -2354 0
-2315 -2355 0
-2315 -2356 0
-2315 -2357 0
-2315 -2358 0
-2315 -2359 0
-2315 -2360 0
-2315 -2361 0
-2315 -2362 0
-2315 -2363 0
-2315 -2364 0
-2315 -2365 0
-2315 -2366 0
-2315 -2367 0
-2315 -2368 0
-2315 -2369 0
-2315 -2370 0
-2315 -2371 0
-2315 -2372 0
-2315 -2373 0
-2315 -2374 0
-2315 -2375 0
-2315 -2376 0
-2315 -2377 0
-2315 -2378 0
-2315 -2379 0
-2315 -2380 0
-2315 -2381 0
-2315 -2382 0
-2315 -2383 0
-2315 -2384 0
-2315 -2385 0
-2315 -2386 0
-2315 -2387 0
-2315 -2388 0
-2315 -2389 0
-2315 -2390 0
-2315 -2391 0
-2315 -2392 0
-2316 -2317 0
-2316 -2318 0
-2316 -2319 0
-2316 -2320 0
-2316 -2321 0
-2316 -2322 0
-2316 -2323 0
-2316 -2324 0
-2316 -2325 0
-2316 -2326 0
-2316 -2327 0
-2316 -2328 0
-2316 -2329 0
-2316 -2330 0
-2316 -2331 0
-2316 -2332 0
-2316 -2333 0
-2316 -2334 0
-2316 -2335 0
-2316 -2336 0
-2316 -2337 0
-2316 -2338 0
-2316 -2339 0
-2316 -2340 0
-2316 -2341 0
-2316 -2342 0
-2316 -2343 0
-2316 -2344 0
-2316 -2345 0
-2316 -2346 0
-2316 -2347 0
-2316 -2348 0
-2316 -2349 0
-2316 -2350 0
-2316 -2351 0
-2316 -2352 0
-2316 -2353 0
-2316 -2354 0
-2316 -2355 0
-2316 -2356 0
-2316 -2357 0
-2316 -2358 0
-2316 -2359 0
-2316 -2360 0
-2316 -2361 0
-2316 -2362 0
-2316 -2363 0
-2316 -2364 0
-2316 -2365 0
-2316 -2366 0
-2316 -2367 0
-2316 -2368 0
-2316 -2369 0
-2316 -2370 0
-2316 -2371 0
-2316 -2372 0
-2316 -2373 0
-2316 -2374 0
-2316 -2375 0
-2316 -2376 0
-2316 -2377 0
-2316 -2378 0
-2316 -2379 0
-2316 -2380 0
-2316 -2381 0
-2316 -2382 0
-2316 -2383 0
-2316 -2384 0
-2316 -2385 0
-2316 -2386 0
-2316 -2387 0
-2316 -2388 0
-2316 -2389 0
-2316 -2390 0
-2316 -2391 0
-2316 -2392 0
-2317 -2318 0
-2317 -2319 0
-2317 -2320 0
-2317 -2321 0
-2317 -2322 0
-2317 -2323 0
-2317 -2324 0
-2317 -2325 0
-2317 -2326 0
-2317 -2327 0
-2317 -2328 0
-2317 -2329 0
-2317 -2330 0
-2317 -2331 0
-2317 -2332 0
-2317 -2333 0
-2317 -2334 0
-2317 -2335 0
-2317 -2336 0
-2317 -2337 0
-2317 -2338 0
-2317 -2339 0
-2317 -2340 0
-2317 -2341 0
-2317 -2342 0
-2317 -2343 0
-2317 -2344 0
-2317 -2345 0
-2317 -2346 0
-2317 -2347 0
-2317 -2348 0
-2317 -2349 0
-2317 -2350 0
-2317 -2351 0
-2317 -2352 0
-2317 -2353 0
-2317 -2354 0
-2317 -2355 0
-2317 -2356 0
-2317 -2357 0
-2317 -2358 0
-2317 -2359 0
-2317 -2360 0
-2317 -2361 0
-2317 -2362 0
-2317 -2363 0
-2317 -2364 0
-2317 -2365 0
-2317 -2366 0
-2317 -2367 0
-2317 -2368 0
-2317 -2369 0
-2317 -2370 0
-2317 -2371 0
-2317 -2372 0
-2317 -2373 0
-2317 -2374 0
-2317 -2375 0
-2317 -2376 0
-2317 -2377 0
-2317 -2378 0
-2317 -2379 0
-2317 -2380 0
-2317 -2381 0
-2317 -2382 0
-2317 -2383 0
-2317 -2384 0
-2317 -2385 0
-2317 -2386 0
-2317 -2387 0
-2317 -2388 0
-2317 -2389 0
-2317 -2390 0
-2317 -2391 0
-2317 -2392 0
-2318 -2319 0
-2318 -2320 0
-2318 -2321 0
-2318 -2322 0
-2318 -2323 0
-2318 -2324 0
-2318 -2325 0
-2318 -2326 0
-2318 -2327 0
-2318 -2328 0
-2318 -2329 0
-2318 -2330 0
-2318 -2331 0
-2318 -2332 0
-2318 -2333 0
-2318 -2334 0
-2318 -2335 0
-2318 -2336 0
-2318 -2337 0
-2318 -2338 0
-2318 -2339 0
-2318 -2340 0
-2318 -2341 0
-2318 -2342 0
-2318 -2343 0
-2318 -2344 0
-2318 -2345 0
-2318 -2346 0
-2318 -2347 0
-2318 -2348 0
-2318 -2349 0
-2318 -2350 0
-2318 -2351 0
-2318 -2352 0
-2318 -2353 0
-2318 -2354 0
-2318 -2355 0
-2318 -2356 0
-2318 -2357 0
-2318 -2358 0
-2318 -2359 0
-2318 -2360 0
-2318 -2361 0
-2318 -2362 0
-2318 -2363 0
-2318 -2364 0
-2318 -2365 0
-2318 -2366 0
-2318 -2367 0
-2318 -2368 0
-2318 -2369 0
-2318 -2370 0
-2318 -2371 0
-2318 -2372 0
-2318 -2373 0
-2318 -2374 0
-2318 -2375 0
-2318 -2376 0
-2318 -2377 0
-2318 -2378 0
-2318 -2379 0
-2318 -2380 0
-2318 -2381 0
-2318 -2382 0
-2318 -2383 0
-2318 -2384 0
-2318 -2385 0
-2318 -2386 0
-2318 -2387 0
-2318 -2388 0
-2318 -2389 0
-2318 -2390 0
-2318 -2391 0
-2318 -2392 0
-2319 -2320 0
-2319 -2321 0
-2319 -2322 0
-2319 -2323 0
-2319 -2324 0
-2319 -2325 0
-2319 -2326 0
-2319 -2327 0
-2319 -2328 0
-2319 -2329 0
-2319 -2330 0
-2319 -2331 0
-2319 -2332 0
-2319 -2333 0
-2319 -2334 0
-2319 -2335 0
-2319 -2336 0
-2319 -2337 0
-2319 -2338 0
-2319 -2339 0
-2319 -2340 0
-2319 -2341 0
-2319 -2342 0
-2319 -2343 0
-2319 -2344 0
-2319 -2345 0
-2319 -2346 0
-2319 -2347 0
-2319 -2348 0
-2319 -2349 0
-2319 -2350 0
-2319 -2351 0
-2319 -2352 0
-2319 -2353 0
-2319 -2354 0
-2319 -2355 0
-2319 -2356 0
-2319 -2357 0
-2319 -2358 0
-2319 -2359 0
-2319 -2360 0
-2319 -2361 0
-2319 -2362 0
-2319 -2363 0
-2319 -2364 0
-2319 -2365 0
-2319 -2366 0
-2319 -2367 0
-2319 -2368 0
-2319 -2369 0
-2319 -2370 0
-2319 -2371 0
-2319 -2372 0
-2319 -2373 0
-2319 -2374 0
-2319 -2375 0
-2319 -2376 0
-2319 -2377 0
-2319 -2378 0
-2319 -2379 0
-2319 -2380 0
-2319 -2381 0
-2319 -2382 0
-2319 -2383 0
-2319 -2384 0
-2319 -2385 0
-2319 -2386 0
-2319 -2387 0
-2319 -2388 0
-2319 -2389 0
-2319 -2390 0
-2319 -2391 0
-2319 -2392 0
-2320 -2321 0
-2320 -2322 0
-2320 -2323 0
-2320 -2324 0
-2320 -2325 0
-2320 -2326 0
-2320 -2327 0
-2320 -2328 0
-2320 -2329 0
-2320 -2330 0
-2320 -2331 0
-2320 -2332 0
-2320 -2333 0
-2320 -2334 0
-2320 -2335 0
-2320 -2336 0
-2320 -2337 0
-2320 -2338 0
-2320 -2339 0
-2320 -2340 0
-2320 -2341 0
-2320 -2342 0
-2320 -2343 0
-2320 -2344 0
-2320 -2345 0
-2320 -2346 0
-2320 -2347 0
-2320 -2348 0
-2320 -2349 0
-2320 -2350 0
-2320 -2351 0
-2320 -2352 0
-2320 -2353 0
-2320 -2354 0
-2320 -2355 0
-2320 -2356 0
-2320 -2357 0
-2320 -2358 0
-2320 -2359 0
-2320 -2360 0
-2320 -2361 0
-2320 -2362 0
-2320 -2363 0
-2320 -2364 0
-2320 -2365 0
-2320 -2366 0
-2320 -2367 0
-2320 -2368 0
-2320 -2369 0
-2320 -2370 0
-2320 -2371 0
-2320 -2372 0
-2320 -2373 0
-2320 -2374 0
-2320 -2375 0
-2320 -2376 0
-2320 -2377 0
-2320 -2378 0
-2320 -2379 0
-2320 -2380 0
-2320 -2381 0
-2320 -2382 0
-2320 -2383 0
-2320 -2384 0
-2320 -2385 0
-2320 -2386 0
-2320 -2387 0
-2320 -2388 0
-2320 -2389 0
-2320 -2390 0
-2320 -2391 0
-2320 -2392 0
-2321 -2322 0
-2321 -2323 0
-2321 -2324 0
-2321 -2325 0
-2321 -2326 0
-2321 -2327 0
-2321 -2328 0
-2321 -2329 0
-2321 -2330 0
-2321 -2331 0
-2321 -2332 0
-2321 -2333 0
-2321 -2334 0
-2321 -2335 0
-2321 -2336 0
-2321 -2337 0
-2321 -2338 0
-2321 -2339 0
-2321 -2340 0
-2321 -2341 0
-2321 -2342 0
-2321 -2343 0
-2321 -2344 0
-2321 -2345 0
-2321 -2346 0
-2321 -2347 0
-2321 -2348 0
-2321 -2349 0
-2321 -2350 0
-2321 -2351 0
-2321 -2352 0
-2321 -2353 0
-2321 -2354 0
-2321 -2355 0
-2321 -2356 0
-2321 -2357 0
-2321 -2358 0
-2321 -2359 0
-2321 -2360 0
-2321 -2361 0
-2321 -2362 0
-2321 -2363 0
-2321 -2364 0
-2321 -2365 0
-2321 -2366 0
-2321 -2367 0
-2321 -2368 0
-2321 -2369 0
-2321 -2370 0
-2321 -2371 0
-2321 -2372 0
-2321 -2373 0
-2321 -2374 0
-2321 -2375 0
-2321 -2376 0
-2321 -2377 0
-2321 -2378 0
-2321 -2379 0
-2321 -2380 0
-2321 -2381 0
-2321 -2382 0
-2321 -2383 0
-2321 -2384 0
-2321 -2385 0
-2321 -2386 0
-2321 -2387 0
-2321 -2388 0
-2321 -2389 0
-2321 -2390 0
-2321 -2391 0
-2321 -2392 0
-2322 -2323 0
-2322 -2324 0
-2322 -2325 0
-2322 -2326 0
-2322 -2327 0
-2322 -2328 0
-2322 -2329 0
-2322 -2330 0
-2322 -2331 0
-2322 -2332 0
-2322 -2333 0
-2322 -2334 0
-2322 -2335 0
-2322 -2336 0
-2322 -2337 0
-2322 -2338 0
-2322 -2339 0
-2322 -2340 0
-2322 -2341 0
-2322 -2342 0
-2322 -2343 0
-2322 -2344 0
-2322 -2345 0
-2322 -2346 0
-2322 -2347 0
-2322 -2348 0
-2322 -2349 0
-2322 -2350 0
-2322 -2351 0
-2322 -2352 0
-2322 -2353 0
-2322 -2354 0
-2322 -2355 0
-2322 -2356 0
-2322 -2357 0
-2322 -2358 0
-2322 -2359 0
-2322 -2360 0
-2322 -2361 0
-2322 -2362 0
-2322 -2363 0
-2322 -2364 0
-2322 -2365 0
-2322 -2366 0
-2322 -2367 0
-2322 -2368 0
-2322 -2369 0
-2322 -2370 0
-2322 -2371 0
-2322 -2372 0
-2322 -2373 0
-2322 -2374 0
-2322 -2375 0
-2322 -2376 0
-2322 -2377 0
-2322 -2378 0
-2322 -2379 0
-2322 -2380 0
-2322 -2381 0
-2322 -2382 0
-2322 -2383 0
-2322 -2384 0
-2322 -2385 0
-2322 -2386 0
-2322 -2387 0
-2322 -2388 0
-2322 -2389 0
-2322 -2390 0
-2322 -2391 0
-2322 -2392 0
-2323 -2324 0
-2323 -2325 0
-2323 -2326 0
-2323 -2327 0
-2323 -2328 0
-2323 -2329 0
-2323 -2330 0
-2323 -2331 0
-2323 -2332 0
-2323 -2333 0
-2323 -2334 0
-2323 -2335 0
-2323 -2336 0
-2323 -2337 0
-2323 -2338 0
-2323 -2339 0
-2323 -2340 0
-2323 -2341 0
-2323 -2342 0
-2323 -2343 0
-2323 -2344 0
-2323 -2345 0
-2323 -2346 0
-2323 -2347 0
-2323 -2348 0
-2323 -2349 0
-2323 -2350 0
-2323 -2351 0
-2323 -2352 0
-2323 -2353 0
-2323 -2354 0
-2323 -2355 0
-2323 -2356 0
-2323 -2357 0
-2323 -2358 0
-2323 -2359 0
-2323 -2360 0
-2323 -2361 0
-2323 -2362 0
-2323 -2363 0
-2323 -2364 0
-2323 -2365 0
-2323 -2366 0
-2323 -2367 0
-2323 -2368 0
-2323 -2369 0
-2323 -2370 0
-2323 -2371 0
-2323 -2372 0
-2323 -2373 0
-2323 -2374 0
-2323 -2375 0
-2323 -2376 0
-2323 -2377 0
-2323 -2378 0
-2323 -2379 0
-2323 -2380 0
-2323 -2381 0
-2323 -2382 0
-2323 -2383 0
-2323 -2384 0
-2323 -2385 0
-2323 -2386 0
-2323 -2387 0
-2323 -2388 0
-2323 -2389 0
-2323 -2390 0
-2323 -2391 0
-2323 -2392 0
-2324 -2325 0
-2324 -2326 0
-2324 -2327 0
-2324 -2328 0
-2324 -2329 0
-2324 -2330 0
-2324 -2331 0
-2324 -2332 0
-2324 -2333 0
-2324 -2334 0
-2324 -2335 0
-2324 -2336 0
-2324 -2337 0
-2324 -2338 0
-2324 -2339 0
-2324 -2340 0
-2324 -2341 0
-2324 -2342 0
-2324 -2343 0
-2324 -2344 0
-2324 -2345 0
-2324 -2346 0
-2324 -2347 0
-2324 -2348 0
-2324 -2349 0
-2324 -2350 0
-2324 -2351 0
-2324 -2352 0
-2324 -2353 0
-2324 -2354 0
-2324 -2355 0
-2324 -2356 0
-2324 -2357 0
-2324 -2358 0
-2324 -2359 0
-2324 -2360 0
-2324 -2361 0
-2324 -2362 0
-2324 -2363 0
-2324 -2364 0
-2324 -2365 0
-2324 -2366 0
-2324 -2367 0
-2324 -2368 0
-2324 -2369 0
-2324 -2370 0
-2324 -2371 0
-2324 -2372 0
-2324 -2373 0
-2324 -2374 0
-2324 -2375 0
-2324 -2376 0
-2324 -2377 0
-2324 -2378 0
-2324 -2379 0
-2324 -2380 0
-2324 -2381 0
-2324 -2382 0
-2324 -2383 0
-2324 -2384 0
-2324 -2385 0
-2324 -2386 0
-2324 -2387 0
-2324 -2388 0
-2324 -2389 0
-2324 -2390 0
-2324 -2391 0
-2324 -2392 0
-2325 -2326 0
-2325 -2327 0
-2325 -2328 0
-2325 -2329 0
-2325 -2330 0
-2325 -2331 0
-2325 -2332 0
-2325 -2333 0
-2325 -2334 0
-2325 -2335 0
-2325 -2336 0
-2325 -2337 0
-2325 -2338 0
-2325 -2339 0
-2325 -2340 0
-2325 -2341 0
-2325 -2342 0
-2325 -2343 0
-2325 -2344 0
-2325 -2345 0
-2325 -2346 0
-2325 -2347 0
-2325 -2348 0
-2325 -2349 0
-2325 -2350 0
-2325 -2351 0
-2325 -2352 0
-2325 -2353 0
-2325 -2354 0
-2325 -2355 0
-2325 -2356 0
-2325 -2357 0
-2325 -2358 0
-2325 -2359 0
-2325 -2360 0
-2325 -2361 0
-2325 -2362 0
-2325 -2363 0
-2325 -2364 0
-2325 -2365 0
-2325 -2366 0
-2325 -2367 0
-2325 -2368 0
-2325 -2369 0
-2325 -2370 0
-2325 -2371 0
-2325 -2372 0
-2325 -2373 0
-2325 -2374 0
-2325 -2375 0
-2325 -2376 0
-2325 -2377 0
-2325 -2378 0
-2325 -2379 0
-2325 -2380 0
-2325 -2381 0
-2325 -2382 0
-2325 -2383 0
-2325 -2384 0
-2325 -2385 0
-2325 -2386 0
-2325 -2387 0
-2325 -2388 0
-2325 -2389 0
-2325 -2390 0
-2325 -2391 0
-2325 -2392 0
-2326 -2327 0
-2326 -2328 0
-2326 -2329 0
-2326 -2330 0
-2326 -2331 0
-2326 -2332 0
-2326 -2333 0
-2326 -2334 0
-2326 -2335 0
-2326 -2336 0
-2326 -2337 0
-2326 -2338 0
-2326 -2339 0
-2326 -2340 0
-2326 -2341 0
-2326 -2342 0
-2326 -2343 0
-2326 -2344 0
-2326 -2345 0
-2326 -2346 0
-2326 -2347 0
-2326 -2348 0
-2326 -2349 0
-2326 -2350 0
-2326 -2351 0
-2326 -2352 0
-2326 -2353 0
-2326 -2354 0
-2326 -2355 0
-2326 -2356 0
-2326 -2357 0
-2326 -2358 0
-2326 -2359 0
-2326 -2360 0
-2326 -2361 0
-2326 -2362 0
-2326 -2363 0
-2326 -2364 0
-2326 -2365 0
-2326 -2366 0
-2326 -2367 0
-2326 -2368 0
-2326 -2369 0
-2326 -2370 0
-2326 -2371 0
-2326 -2372 0
-2326 -2373 0
-2326 -2374 0
-2326 -2375 0
-2326 -2376 0
-2326 -2377 0
-2326 -2378 0
-2326 -2379 0
-2326 -2380 0
-2326 -2381 0
-2326 -2382 0
-2326 -2383 0
-2326 -2384 0
-2326 -2385 0
-2326 -2386 0
-2326 -2387 0
-2326 -2388 0
-2326 -2389 0
-2326 -2390 0
-2326 -2391 0
-2326 -2392 0
-2327 -2328 0
-2327 -2329 0
-2327 -2330 0
-2327 -2331 0
-2327 -2332 0
-2327 -2333 0
-2327 -2334 0
-2327 -2335 0
-2327 -2336 0
-2327 -2337 0
-2327 -2338 0
-2327 -2339 0
-2327 -2340 0
-2327 -2341 0
-2327 -2342 0
-2327 -2343 0
-2327 -2344 0
-2327 -2345 0
-2327 -2346 0
-2327 -2347 0
-2327 -2348 0
-2327 -2349 0
-2327 -2350 0
-2327 -2351 0
-2327 -2352 0
-2327 -2353 0
-2327 -2354 0
-2327 -2355 0
-2327 -2356 0
-2327 -2357 0
-2327 -2358 0
-2327 -2359 0
-2327 -2360 0
-2327 -2361 0
-2327 -2362 0
-2327 -2363 0
-2327 -2364 0
-2327 -2365 0
-2327 -2366 0
-2327 -2367 0
-2327 -2368 0
-2327 -2369 0
-2327 -2370 0
-2327 -2371 0
-2327 -2372 0
-2327 -2373 0
-2327 -2374 0
-2327 -2375 0
-2327 -2376 0
-2327 -2377 0
-2327 -2378 0
-2327 -2379 0
-2327 -2380 0
-2327 -2381 0
-2327 -2382 0
-2327 -2383 0
-2327 -2384 0
-2327 -2385 0
-2327 -2386 0
-2327 -2387 0
-2327 -2388 0
-2327 -2389 0
-2327 -2390 0
-2327 -2391 0
-2327 -2392 0
-2328 -2329 0
-2328 -2330 0
-2328 -2331 0
-2328 -2332 0
-2328 -2333 0
-2328 -2334 0
-2328 -2335 0
-2328 -2336 0
-2328 -2337 0
-2328 -2338 0
-2328 -2339 0
-2328 -2340 0
-2328 -2341 0
-2328 -2342 0
-2328 -2343 0
-2328 -2344 0
-2328 -2345 0
-2328 -2346 0
-2328 -2347 0
-2328 -2348 0
-2328 -2349 0
-2328 -2350 0
-2328 -2351 0
-2328 -2352 0
-2328 -2353 0
-2328 -2354 0
-2328 -2355 0
-2328 -2356 0
-2328 -2357 0
-2328 -2358 0
-2328 -2359 0
-2328 -2360 0
-2328 -2361 0
-2328 -2362 0
-2328 -2363 0
-2328 -2364 0
-2328 -2365 0
-2328 -2366 0
-2328 -2367 0
-2328 -2368 0
-2328 -2369 0
-2328 -2370 0
-2328 -2371 0
-2328 -2372 0
-2328 -2373 0
-2328 -2374 0
-2328 -2375 0
-2328 -2376 0
-2328 -2377 0
-2328 -2378 0
-2328 -2379 0
-2328 -2380 0
-2328 -2381 0
-2328 -2382 0
-2328 -2383 0
-2328 -2384 0
-2328 -2385 0
-2328 -2386 0
-2328 -2387 0
-2328 -2388 0
-2328 -2389 0
-2328 -2390 0
-2328 -2391 0
-2328 -2392 0
-2329 -2330 0
-2329 -2331 0
-2329 -2332 0
-2329 -2333 0
-2329 -2334 0
-2329 -2335 0
-2329 -2336 0
-2329 -2337 0
-2329 -2338 0
-2329 -2339 0
-2329 -2340 0
-2329 -2341 0
-2329 -2342 0
-2329 -2343 0
-2329 -2344 0
-2329 -2345 0
-2329 -2346 0
-2329 -2347 0
-2329 -2348 0
-2329 -2349 0
-2329 -2350 0
-2329 -2351 0
-2329 -2352 0
-2329 -2353 0
-2329 -2354 0
-2329 -2355 0
-2329 -2356 0
-2329 -2357 0
-2329 -2358 0
-2329 -2359 0
-2329 -2360 0
-2329 -2361 0
-2329 -2362 0
-2329 -2363 0
-2329 -2364 0
-2329 -2365 0
-2329 -2366 0
-2329 -2367 0
-2329 -2368 0
-2329 -2369 0
-2329 -2370 0
-2329 -2371 0
-2329 -2372 0
-2329 -2373 0
-2329 -2374 0
-2329 -2375 0
-2329 -2376 0
-2329 -2377 0
-2329 -2378 0
-2329 -2379 0
-2329 -2380 0
-2329 -2381 0
-2329 -2382 0
-2329 -2383 0
-2329 -2384 0
-2329 -2385 0
-2329 -2386 0
-2329 -2387 0
-2329 -2388 0
-2329 -2389 0
-2329 -2390 0
-2329 -2391 0
-2329 -2392 0
-2330 -2331 0
-2330 -2332 0
-2330 -2333 0
-2330 -2334 0
-2330 -2335 0
-2330 -2336 0
-2330 -2337 0
-2330 -2338 0
-2330 -2339 0
-2330 -2340 0
-2330 -2341 0
-2330 -2342 0
-2330 -2343 0
-2330 -2344 0
-2330 -2345 0
-2330 -2346 0
-2330 -2347 0
-2330 -2348 0
-2330 -2349 0
-2330 -2350 0
-2330 -2351 0
-2330 -2352 0
-2330 -2353 0
-2330 -2354 0
-2330 -2355 0
-2330 -2356 0
-2330 -2357 0
-2330 -2358 0
-2330 -2359 0
-2330 -2360 0
-2330 -2361 0
-2330 -2362 0
-2330 -2363 0
-2330 -2364 0
-2330 -2365 0
-2330 -2366 0
-2330 -2367 0
-2330 -2368 0
-2330 -2369 0
-2330 -2370 0
-2330 -2371 0
-2330 -2372 0
-2330 -2373 0
-2330 -2374 0
-2330 -2375 0
-2330 -2376 0
-2330 -2377 0
-2330 -2378 0
-2330 -2379 0
-2330 -2380 0
-2330 -2381 0
-2330 -2382 0
-2330 -2383 0
-2330 -2384 0
-2330 -2385 0
-2330 -2386 0
-2330 -2387 0
-2330 -2388 0
-2330 -2389 0
-2330 -2390 0
-2330 -2391 0
-2330 -2392 0
-2331 -2332 0
-2331 -2333 0
-2331 -2334 0
-2331 -2335 0
-2331 -2336 0
-2331 -2337 0
-2331 -2338 0
-2331 -2339 0
-2331 -2340 0
-2331 -2341 0
-2331 -2342 0
-2331 -2343 0
-2331 -2344 0
-2331 -2345 0
-2331 -2346 0
-2331 -2347 0
-2331 -2348 0
-2331 -2349 0
-2331 -2350 0
-2331 -2351 0
-2331 -2352 0
-2331 -2353 0
-2331 -2354 0
-2331 -2355 0
-2331 -2356 0
-2331 -2357 0
-2331 -2358 0
-2331 -2359 0
-2331 -2360 0
-2331 -2361 0
-2331 -2362 0
-2331 -2363 0
-2331 -2364 0
-2331 -2365 0
-2331 -2366 0
-2331 -2367 0
-2331 -2368 0
-2331 -2369 0
-2331 -2370 0
-2331 -2371 0
-2331 -2372 0
-2331 -2373 0
-2331 -2374 0
-2331 -2375 0
-2331 -2376 0
-2331 -2377 0
-2331 -2378 0
-2331 -2379 0
-2331 -2380 0
-2331 -2381 0
-2331 -2382 0
-2331 -2383 0
-2331 -2384 0
-2331 -2385 0
-2331 -2386 0
-2331 -2387 0
-2331 -2388 0
-2331 -2389 0
-2331 -2390 0
-2331 -2391 0
-2331 -2392 0
-2332 -2333 0
-2332 -2334 0
-2332 -2335 0
-2332 -2336 0
-2332 -2337 0
-2332 -2338 0
-2332 -2339 0
-2332 -2340 0
-2332 -2341 0
-2332 -2342 0
-2332 -2343 0
-2332 -2344 0
-2332 -2345 0
-2332 -2346 0
-2332 -2347 0
-2332 -2348 0
-2332 -2349 0
-2332 -2350 0
-2332 -2351 0
-2332 -2352 0
-2332 -2353 0
-2332 -2354 0
-2332 -2355 0
-2332 -2356 0
-2332 -2357 0
-2332 -2358 0
-2332 -2359 0
-2332 -2360 0
-2332 -2361 0
-2332 -2362 0
-2332 -2363 0
-2332 -2364 0
-2332 -2365 0
-2332 -2366 0
-2332 -2367 0
-2332 -2368 0
-2332 -2369 0
-2332 -2370 0
-2332 -2371 0
-2332 -2372 0
-2332 -2373 0
-2332 -2374 0
-2332 -2375 0
-2332 -2376 0
-2332 -2377 0
-2332 -2378 0
-2332 -2379 0
-2332 -2380 0
-2332 -2381 0
-2332 -2382 0
-2332 -2383 0
-2332 -2384 0
-2332 -2385 0
-2332 -2386 0
-2332 -2387 0
-2332 -2388 0
-2332 -2389 0
-2332 -2390 0
-2332 -2391 0
-2332 -2392 0
-2333 -2334 0
-2333 -2335 0
-2333 -2336 0
-2333 -2337 0
-2333 -2338 0
-2333 -2339 0
-2333 -2340 0
-2333 -2341 0
-2333 -2342 0
-2333 -2343 0
-2333 -2344 0
-2333 -2345 0
-2333 -2346 0
-2333 -2347 0
-2333 -2348 0
-2333 -2349 0
-2333 -2350 0
-2333 -2351 0
-2333 -2352 0
-2333 -2353 0
-2333 -2354 0
-2333 -2355 0
-2333 -2356 0
-2333 -2357 0
-2333 -2358 0
-2333 -2359 0
-2333 -2360 0
-2333 -2361 0
-2333 -2362 0
-2333 -2363 0
-2333 -2364 0
-2333 -2365 0
-2333 -2366 0
-2333 -2367 0
-2333 -2368 0
-2333 -2369 0
-2333 -2370 0
-2333 -2371 0
-2333 -2372 0
-2333 -2373 0
-2333 -2374 0
-2333 -2375 0
-2333 -2376 0
-2333 -2377 0
-2333 -2378 0
-2333 -2379 0
-2333 -2380 0
-2333 -2381 0
-2333 -2382 0
-2333 -2383 0
-2333 -2384 0
-2333 -2385 0
-2333 -2386 0
-2333 -2387 0
-2333 -2388 0
-2333 -2389 0
-2333 -2390 0
-2333 -2391 0
-2333 -2392 0
-2334 -2335 0
-2334 -2336 0
-2334 -2337 0
-2334 -2338 0
-2334 -2339 0
-2334 -2340 0
-2334 -2341 0
-2334 -2342 0
-2334 -2343 0
-2334 -2344 0
-2334 -2345 0
-2334 -2346 0
-2334 -2347 0
-2334 -2348 0
-2334 -2349 0
-2334 -2350 0
-2334 -2351 0
-2334 -2352 0
-2334 -2353 0
-2334 -2354 0
-2334 -2355 0
-2334 -2356 0
-2334 -2357 0
-2334 -2358 0
-2334 -2359 0
-2334 -2360 0
-2334 -2361 0
-2334 -2362 0
-2334 -2363 0
-2334 -2364 0
-2334 -2365 0
-2334 -2366 0
-2334 -2367 0
-2334 -2368 0
-2334 -2369 0
-2334 -2370 0
-2334 -2371 0
-2334 -2372 0
-2334 -2373 0
-2334 -2374 0
-2334 -2375 0
-2334 -2376 0
-2334 -2377 0
-2334 -2378 0
-2334 -2379 0
-2334 -2380 0
-2334 -2381 0
-2334 -2382 0
-2334 -2383 0
-2334 -2384 0
-2334 -2385 0
-2334 -2386 0
-2334 -2387 0
-2334 -2388 0
-2334 -2389 0
-2334 -2390 0
-2334 -2391 0
-2334 -2392 0
-2335 -2336 0
-2335 -2337 0
-2335 -2338 0
-2335 -2339 0
-2335 -2340 0
-2335 -2341 0
-2335 -2342 0
-2335 -2343 0
-2335 -2344 0
-2335 -2345 0
-2335 -2346 0
-2335 -2347 0
-2335 -2348 0
-2335 -2349 0
-2335 -2350 0
-2335 -2351 0
-2335 -2352 0
-2335 -2353 0
-2335 -2354 0
-2335 -2355 0
-2335 -2356 0
-2335 -2357 0
-2335 -2358 0
-2335 -2359 0
-2335 -2360 0
-2335 -2361 0
-2335 -2362 0
-2335 -2363 0
-2335 -2364 0
-2335 -2365 0
-2335 -2366 0
-2335 -2367 0
-2335 -2368 0
-2335 -2369 0
-2335 -2370 0
-2335 -2371 0
-2335 -2372 0
-2335 -2373 0
-2335 -2374 0
-2335 -2375 0
-2335 -2376 0
-2335 -2377 0
-2335 -2378 0
-2335 -2379 0
-2335 -2380 0
-2335 -2381 0
-2335 -2382 0
-2335 -2383 0
-2335 -2384 0
-2335 -2385 0
-2335 -2386 0
-2335 -2387 0
-2335 -2388 0
-2335 -2389 0
-2335 -2390 0
-2335 -2391 0
-2335 -2392 0
-2336 -2337 0
-2336 -2338 0
-2336 -2339 0
-2336 -2340 0
-2336 -2341 0
-2336 -2342 0
-2336 -2343 0
-2336 -2344 0
-2336 -2345 0
-2336 -2346 0
-2336 -2347 0
-2336 -2348 0
-2336 -2349 0
-2336 -2350 0
-2336 -2351 0
-2336 -2352 0
-2336 -2353 0
-2336 -2354 0
-2336 -2355 0
-2336 -2356 0
-2336 -2357 0
-2336 -2358 0
-2336 -2359 0
-2336 -2360 0
-2336 -2361 0
-2336 -2362 0
-2336 -2363 0
-2336 -2364 0
-2336 -2365 0
-2336 -2366 0
-2336 -2367 0
-2336 -2368 0
-2336 -2369 0
-2336 -2370 0
-2336 -2371 0
-2336 -2372 0
-2336 -2373 0
-2336 -2374 0
-2336 -2375 0
-2336 -2376 0
-2336 -2377 0
-2336 -2378 0
-2336 -2379 0
-2336 -2380 0
-2336 -2381 0
-2336 -2382 0
-2336 -2383 0
-2336 -2384 0
-2336 -2385 0
-2336 -2386 0
-2336 -2387 0
-2336 -2388 0
-2336 -2389 0
-2336 -2390 0
-2336 -2391 0
-2336 -2392 0
-2337 -2338 0
-2337 -2339 0
-2337 -2340 0
-2337 -2341 0
-2337 -2342 0
-2337 -2343 0
-2337 -2344 0
-2337 -2345 0
-2337 -2346 0
-2337 -2347 0
-2337 -2348 0
-2337 -2349 0
-2337 -2350 0
-2337 -2351 0
-2337 -2352 0
-2337 -2353 0
-2337 -2354 0
-2337 -2355 0
-2337 -2356 0
-2337 -2357 0
-2337 -2358 0
-2337 -2359 0
-2337 -2360 0
-2337 -2361 0
-2337 -2362 0
-2337 -2363 0
-2337 -2364 0
-2337 -2365 0
-2337 -2366 0
-2337 -2367 0
-2337 -2368 0
-2337 -2369 0
-2337 -2370 0
-2337 -2371 0
-2337 -2372 0
-2337 -2373 0
-2337 -2374 0
-2337 -2375 0
-2337 -2376 0
-2337 -2377 0
-2337 -2378 0
-2337 -2379 0
-2337 -2380 0
-2337 -2381 0
-2337 -2382 0
-2337 -2383 0
-2337 -2384 0
-2337 -2385 0
-2337 -2386 0
-2337 -2387 0
-2337 -2388 0
-2337 -2389 0
-2337 -2390 0
-2337 -2391 0
-2337 -2392 0
-2338 -2339 0
-2338 -2340 0
-2338 -2341 0
-2338 -2342 0
-2338 -2343 0
-2338 -2344 0
-2338 -2345 0
-2338 -2346 0
-2338 -2347 0
-2338 -2348 0
-2338 -2349 0
-2338 -2350 0
-2338 -2351 0
-2338 -2352 0
-2338 -2353 0
-2338 -2354 0
-2338 -2355 0
-2338 -2356 0
-2338 -2357 0
-2338 -2358 0
-2338 -2359 0
-2338 -2360 0
-2338 -2361 0
-2338 -2362 0
-2338 -2363 0
-2338 -2364 0
-2338 -2365 0
-2338 -2366 0
-2338 -2367 0
-2338 -2368 0
-2338 -2369 0
-2338 -2370 0
-2338 -2371 0
-2338 -2372 0
-2338 -2373 0
-2338 -2374 0
-2338 -2375 0
-2338 -2376 0
-2338 -2377 0
-2338 -2378 0
-2338 -2379 0
-2338 -2380 0
-2338 -2381 0
-2338 -2382 0
-2338 -2383 0
-2338 -2384 0
-2338 -2385 0
-2338 -2386 0
-2338 -2387 0
-2338 -2388 0
-2338 -2389 0
-2338 -2390 0
-2338 -2391 0
-2338 -2392 0
-2339 -2340 0
-2339 -2341 0
-2339 -2342 0
-2339 -2343 0
-2339 -2344 0
-2339 -2345 0
-2339 -2346 0
-2339 -2347 0
-2339 -2348 0
-2339 -2349 0
-2339 -2350 0
-2339 -2351 0
-2339 -2352 0
-2339 -2353 0
-2339 -2354 0
-2339 -2355 0
-2339 -2356 0
-2339 -2357 0
-2339 -2358 0
-2339 -2359 0
-2339 -2360 0
-2339 -2361 0
-2339 -2362 0
-2339 -2363 0
-2339 -2364 0
-2339 -2365 0
-2339 -2366 0
-2339 -2367 0
-2339 -2368 0
-2339 -2369 0
-2339 -2370 0
-2339 -2371 0
-2339 -2372 0
-2339 -2373 0
-2339 -2374 0
-2339 -2375 0
-2339 -2376 0
-2339 -2377 0
-2339 -2378 0
-2339 -2379 0
-2339 -2380 0
-2339 -2381 0
-2339 -2382 0
-2339 -2383 0
-2339 -2384 0
-2339 -2385 0
-2339 -2386 0
-2339 -2387 0
-2339 -2388 0
-2339 -2389 0
-2339 -2390 0
-2339 -2391 0
-2339 -2392 0
-2340 -2341 0
-2340 -2342 0
-2340 -2343 0
-2340 -2344 0
-2340 -2345 0
-2340 -2346 0
-2340 -2347 0
-2340 -2348 0
-2340 -2349 0
-2340 -2350 0
-2340 -2351 0
-2340 -2352 0
-2340 -2353 0
-2340 -2354 0
-2340 -2355 0
-2340 -2356 0
-2340 -2357 0
-2340 -2358 0
-2340 -2359 0
-2340 -2360 0
-2340 -2361 0
-2340 -2362 0
-2340 -2363 0
-2340 -2364 0
-2340 -2365 0
-2340 -2366 0
-2340 -2367 0
-2340 -2368 0
-2340 -2369 0
-2340 -2370 0
-2340 -2371 0
-2340 -2372 0
-2340 -2373 0
-2340 -2374 0
-2340 -2375 0
-2340 -2376 0
-2340 -2377 0
-2340 -2378 0
-2340 -2379 0
-2340 -2380 0
-2340 -2381 0
-2340 -2382 0
-2340 -2383 0
-2340 -2384 0
-2340 -2385 0
-2340 -2386 0
-2340 -2387 0
-2340 -2388 0
-2340 -2389 0
-2340 -2390 0
-2340 -2391 0
-2340 -2392 0
-2341 -2342 0
-2341 -2343 0
-2341 -2344 0
-2341 -2345 0
-2341 -2346 0
-2341 -2347 0
-2341 -2348 0
-2341 -2349 0
-2341 -2350 0
-2341 -2351 0
-2341 -2352 0
-2341 -2353 0
-2341 -2354 0
-2341 -2355 0
-2341 -2356 0
-2341 -2357 0
-2341 -2358 0
-2341 -2359 0
-2341 -2360 0
-2341 -2361 0
-2341 -2362 0
-2341 -2363 0
-2341 -2364 0
-2341 -2365 0
-2341 -2366 0
-2341 -2367 0
-2341 -2368 0
-2341 -2369 0
-2341 -2370 0
-2341 -2371 0
-2341 -2372 0
-2341 -2373 0
-2341 -2374 0
-2341 -2375 0
-2341 -2376 0
-2341 -2377 0
-2341 -2378 0
-2341 -2379 0
-2341 -2380 0
-2341 -2381 0
-2341 -2382 0
-2341 -2383 0
-2341 -2384 0
-2341 -2385 0
-2341 -2386 0
-2341 -2387 0
-2341 -2388 0
-2341 -2389 0
-2341 -2390 0
-2341 -2391 0
-2341 -2392 0
-2342 -2343 0
-2342 -2344 0
-2342 -2345 0
-2342 -2346 0
-2342 -2347 0
-2342 -2348 0
-2342 -2349 0
-2342 -2350 0
-2342 -2351 0
-2342 -2352 0
-2342 -2353 0
-2342 -2354 0
-2342 -2355 0
-2342 -2356 0
-2342 -2357 0
-2342 -2358 0
-2342 -2359 0
-2342 -2360 0
-2342 -2361 0
-2342 -2362 0
-2342 -2363 0
-2342 -2364 0
-2342 -2365 0
-2342 -2366 0
-2342 -2367 0
-2342 -2368 0
-2342 -2369 0
-2342 -2370 0
-2342 -2371 0
-2342 -2372 0
-2342 -2373 0
-2342 -2374 0
-2342 -2375 0
-2342 -2376 0
-2342 -2377 0
-2342 -2378 0
-2342 -2379 0
-2342 -2380 0
-2342 -2381 0
-2342 -2382 0
-2342 -2383 0
-2342 -2384 0
-2342 -2385 0
-2342 -2386 0
-2342 -2387 0
-2342 -2388 0
-2342 -2389 0
-2342 -2390 0
-2342 -2391 0
-2342 -2392 0
-2343 -2344 0
-2343 -2345 0
-2343 -2346 0
-2343 -2347 0
-2343 -2348 0
-2343 -2349 0
-2343 -2350 0
-2343 -2351 0
-2343 -2352 0
-2343 -2353 0
-2343 -2354 0
-2343 -2355 0
-2343 -2356 0
-2343 -2357 0
-2343 -2358 0
-2343 -2359 0
-2343 -2360 0
-2343 -2361 0
-2343 -2362 0
-2343 -2363 0
-2343 -2364 0
-2343 -2365 0
-2343 -2366 0
-2343 -2367 0
-2343 -2368 0
-2343 -2369 0
-2343 -2370 0
-2343 -2371 0
-2343 -2372 0
-2343 -2373 0
-2343 -2374 0
-2343 -2375 0
-2343 -2376 0
-2343 -2377 0
-2343 -2378 0
-2343 -2379 0
-2343 -2380 0
-2343 -2381 0
-2343 -2382 0
-2343 -2383 0
-2343 -2384 0
-2343 -2385 0
-2343 -2386 0
-2343 -2387 0
-2343 -2388 0
-2343 -2389 0
-2343 -2390 0
-2343 -2391 0
-2343 -2392 0
-2344 -2345 0
-2344 -2346 0
-2344 -2347 0
-2344 -2348 0
-2344 -2349 0
-2344 -2350 0
-2344 -2351 0
-2344 -2352 0
-2344 -2353 0
-2344 -2354 0
-2344 -2355 0
-2344 -2356 0
-2344 -2357 0
-2344 -2358 0
-2344 -2359 0
-2344 -2360 0
-2344 -2361 0
-2344 -2362 0
-2344 -2363 0
-2344 -2364 0
-2344 -2365 0
-2344 -2366 0
-2344 -2367 0
-2344 -2368 0
-2344 -2369 0
-2344 -2370 0
-2344 -2371 0
-2344 -2372 0
-2344 -2373 0
-2344 -2374 0
-2344 -2375 0
-2344 -2376 0
-2344 -2377 0
-2344 -2378 0
-2344 -2379 0
-2344 -2380 0
-2344 -2381 0
-2344 -2382 0
-2344 -2383 0
-2344 -2384 0
-2344 -2385 0
-2344 -2386 0
-2344 -2387 0
-2344 -2388 0
-2344 -2389 0
-2344 -2390 0
-2344 -2391 0
-2344 -2392 0
-2345 -2346 0
-2345 -2347 0
-2345 -2348 0
-2345 -2349 0
-2345 -2350 0
-2345 -2351 0
-2345 -2352 0
-2345 -2353 0
-2345 -2354 0
-2345 -2355 0
-2345 -2356 0
-2345 -2357 0
-2345 -2358 0
-2345 -2359 0
-2345 -2360 0
-2345 -2361 0
-2345 -2362 0
-2345 -2363 0
-2345 -2364 0
-2345 -2365 0
-2345 -2366 0
-2345 -2367 0
-2345 -2368 0
-2345 -2369 0
-2345 -2370 0
-2345 -2371 0
-2345 -2372 0
-2345 -2373 0
-2345 -2374 0
-2345 -2375 0
-2345 -2376 0
-2345 -2377 0
-2345 -2378 0
-2345 -2379 0
-2345 -2380 0
-2345 -2381 0
-2345 -2382 0
-2345 -2383 0
-2345 -2384 0
-2345 -2385 0
-2345 -2386 0
-2345 -2387 0
-2345 -2388 0
-2345 -2389 0
-2345 -2390 0
-2345 -2391 0
-2345 -2392 0
-2346 -2347 0
-2346 -2348 0
-2346 -2349 0
-2346 -2350 0
-2346 -2351 0
-2346 -2352 0
-2346 -2353 0
-2346 -2354 0
-2346 -2355 0
-2346 -2356 0
-2346 -2357 0
-2346 -2358 0
-2346 -2359 0
-2346 -2360 0
-2346 -2361 0
-2346 -2362 0
-2346 -2363 0
-2346 -2364 0
-2346 -2365 0
-2346 -2366 0
-2346 -2367 0
-2346 -2368 0
-2346 -2369 0
-2346 -2370 0
-2346 -2371 0
-2346 -2372 0
-2346 -2373 0
-2346 -2374 0
-2346 -2375 0
-2346 -2376 0
-2346 -2377 0
-2346 -2378 0
-2346 -2379 0
-2346 -2380 0
-2346 -2381 0
-2346 -2382 0
-2346 -2383 0
-2346 -2384 0
-2346 -2385 0
-2346 -2386 0
-2346 -2387 0
-2346 -2388 0
-2346 -2389 0
-2346 -2390 0
-2346 -2391 0
-2346 -2392 0
-2347 -2348 0
-2347 -2349 0
-2347 -2350 0
-2347 -2351 0
-2347 -2352 0
-2347 -2353 0
-2347 -2354 0
-2347 -2355 0
-2347 -2356 0
-2347 -2357 0
-2347 -2358 0
-2347 -2359 0
-2347 -2360 0
-2347 -2361 0
-2347 -2362 0
-2347 -2363 0
-2347 -2364 0
-2347 -2365 0
-2347 -2366 0
-2347 -2367 0
-2347 -2368 0
-2347 -2369 0
-2347 -2370 0
-2347 -2371 0
-2347 -2372 0
-2347 -2373 0
-2347 -2374 0
-2347 -2375 0
-2347 -2376 0
-2347 -2377 0
-2347 -2378 0
-2347 -2379 0
-2347 -2380 0
-2347 -2381 0
-2347 -2382 0
-2347 -2383 0
-2347 -2384 0
-2347 -2385 0
-2347 -2386 0
-2347 -2387 0
-2347 -2388 0
-2347 -2389 0
-2347 -2390 0
-2347 -2391 0
-2347 -2392 0
-2348 -2349 0
-2348 -2350 0
-2348 -2351 0
-2348 -2352 0
-2348 -2353 0
-2348 -2354 0
-2348 -2355 0
-2348 -2356 0
-2348 -2357 0
-2348 -2358 0
-2348 -2359 0
-2348 -2360 0
-2348 -2361 0
-2348 -2362 0
-2348 -2363 0
-2348 -2364 0
-2348 -2365 0
-2348 -2366 0
-2348 -2367 0
-2348 -2368 0
-2348 -2369 0
-2348 -2370 0
-2348 -2371 0
-2348 -2372 0
-2348 -2373 0
-2348 -2374 0
-2348 -2375 0
-2348 -2376 0
-2348 -2377 0
-2348 -2378 0
-2348 -2379 0
-2348 -2380 0
-2348 -2381 0
-2348 -2382 0
-2348 -2383 0
-2348 -2384 0
-2348 -2385 0
-2348 -2386 0
-2348 -2387 0
-2348 -2388 0
-2348 -2389 0
-2348 -2390 0
-2348 -2391 0
-2348 -2392 0
-2349 -2350 0
-2349 -2351 0
-2349 -2352 0
-2349 -2353 0
-2349 -2354 0
-2349 -2355 0
-2349 -2356 0
-2349 -2357 0
-2349 -2358 0
-2349 -2359 0
-2349 -2360 0
-2349 -2361 0
-2349 -2362 0
-2349 -2363 0
-2349 -2364 0
-2349 -2365 0
-2349 -2366 0
-2349 -2367 0
-2349 -2368 0
-2349 -2369 0
-2349 -2370 0
-2349 -2371 0
-2349 -2372 0
-2349 -2373 0
-2349 -2374 0
-2349 -2375 0
-2349 -2376 0
-2349 -2377 0
-2349 -2378 0
-2349 -2379 0
-2349 -2380 0
-2349 -2381 0
-2349 -2382 0
-2349 -2383 0
-2349 -2384 0
-2349 -2385 0
-2349 -2386 0
-2349 -2387 0
-2349 -2388 0
-2349 -2389 0
-2349 -2390 0
-2349 -2391 0
-2349 -2392 0
-2350 -2351 0
-2350 -2352 0
-2350 -2353 0
-2350 -2354 0
-2350 -2355 0
-2350 -2356 0
-2350 -2357 0
-2350 -2358 0
-2350 -2359 0
-2350 -2360 0
-2350 -2361 0
-2350 -2362 0
-2350 -2363 0
-2350 -2364 0
-2350 -2365 0
-2350 -2366 0
-2350 -2367 0
-2350 -2368 0
-2350 -2369 0
-2350 -2370 0
-2350 -2371 0
-2350 -2372 0
-2350 -2373 0
-2350 -2374 0
-2350 -2375 0
-2350 -2376 0
-2350 -2377 0
-2350 -2378 0
-2350 -2379 0
-2350 -2380 0
-2350 -2381 0
-2350 -2382 0
-2350 -2383 0
-2350 -2384 0
-2350 -2385 0
-2350 -2386 0
-2350 -2387 0
-2350 -2388 0
-2350 -2389 0
-2350 -2390 0
-2350 -2391 0
-2350 -2392 0
-2351 -2352 0
-2351 -2353 0
-2351 -2354 0
-2351 -2355 0
-2351 -2356 0
-2351 -2357 0
-2351 -2358 0
-2351 -2359 0
-2351 -2360 0
-2351 -2361 0
-2351 -2362 0
-2351 -2363 0
-2351 -2364 0
-2351 -2365 0
-2351 -2366 0
-2351 -2367 0
-2351 -2368 0
-2351 -2369 0
-2351 -2370 0
-2351 -2371 0
-2351 -2372 0
-2351 -2373 0
-2351 -2374 0
-2351 -2375 0
-2351 -2376 0
-2351 -2377 0
-2351 -2378 0
-2351 -2379 0
-2351 -2380 0
-2351 -2381 0
-2351 -2382 0
-2351 -2383 0
-2351 -2384 0
-2351 -2385 0
-2351 -2386 0
-2351 -2387 0
-2351 -2388 0
-2351 -2389 0
-2351 -2390 0
-2351 -2391 0
-2351 -2392 0
-2352 -2353 0
-2352 -2354 0
-2352 -2355 0
-2352 -2356 0
-2352 -2357 0
-2352 -2358 0
-2352 -2359 0
-2352 -2360 0
-2352 -2361 0
-2352 -2362 0
-2352 -2363 0
-2352 -2364 0
-2352 -2365 0
-2352 -2366 0
-2352 -2367 0
-2352 -2368 0
-2352 -2369 0
-2352 -2370 0
-2352 -2371 0
-2352 -2372 0
-2352 -2373 0
-2352 -2374 0
-2352 -2375 0
-2352 -2376 0
-2352 -2377 0
-2352 -2378 0
-2352 -2379 0
-2352 -2380 0
-2352 -2381 0
-2352 -2382 0
-2352 -2383 0
-2352 -2384 0
-2352 -2385 0
-2352 -2386 0
-2352 -2387 0
-2352 -2388 0
-2352 -2389 0
-2352 -2390 0
-2352 -2391 0
-2352 -2392 0
-2353 -2354 0
-2353 -2355 0
-2353 -2356 0
-2353 -2357 0
-2353 -2358 0
-2353 -2359 0
-2353 -2360 0
-2353 -2361 0
-2353 -2362 0
-2353 -2363 0
-2353 -2364 0
-2353 -2365 0
-2353 -2366 0
-2353 -2367 0
-2353 -2368 0
-2353 -2369 0
-2353 -2370 0
-2353 -2371 0
-2353 -2372 0
-2353 -2373 0
-2353 -2374 0
-2353 -2375 0
-2353 -2376 0
-2353 -2377 0
-2353 -2378 0
-2353 -2379 0
-2353 -2380 0
-2353 -2381 0
-2353 -2382 0
-2353 -2383 0
-2353 -2384 0
-2353 -2385 0
-2353 -2386 0
-2353 -2387 0
-2353 -2388 0
-2353 -2389 0
-2353 -2390 0
-2353 -2391 0
-2353 -2392 0
-2354 -2355 0
-2354 -2356 0
-2354 -2357 0
-2354 -2358 0
-2354 -2359 0
-2354 -2360 0
-2354 -2361 0
-2354 -2362 0
-2354 -2363 0
-2354 -2364 0
-2354 -2365 0
-2354 -2366 0
-2354 -2367 0
-2354 -2368 0
-2354 -2369 0
-2354 -2370 0
-2354 -2371 0
-2354 -2372 0
-2354 -2373 0
-2354 -2374 0
-2354 -2375 0
-2354 -2376 0
-2354 -2377 0
-2354 -2378 0
-2354 -2379 0
-2354 -2380 0
-2354 -2381 0
-2354 -2382 0
-2354 -2383 0
-2354 -2384 0
-2354 -2385 0
-2354 -2386 0
-2354 -2387 0
-2354 -2388 0
-2354 -2389 0
-2354 -2390 0
-2354 -2391 0
-2354 -2392 0
-2355 -2356 0
-2355 -2357 0
-2355 -2358 0
-2355 -2359 0
-2355 -2360 0
-2355 -2361 0
-2355 -2362 0
-2355 -2363 0
-2355 -2364 0
-2355 -2365 0
-2355 -2366 0
-2355 -2367 0
-2355 -2368 0
-2355 -2369 0
-2355 -2370 0
-2355 -2371 0
-2355 -2372 0
-2355 -2373 0
-2355 -2374 0
-2355 -2375 0
-2355 -2376 0
-2355 -2377 0
-2355 -2378 0
-2355 -2379 0
-2355 -2380 0
-2355 -2381 0
-2355 -2382 0
-2355 -2383 0
-2355 -2384 0
-2355 -2385 0
-2355 -2386 0
-2355 -2387 0
-2355 -2388 0
-2355 -2389 0
-2355 -2390 0
-2355 -2391 0
-2355 -2392 0
-2356 -2357 0
-2356 -2358 0
-2356 -2359 0
-2356 -2360 0
-2356 -2361 0
-2356 -2362 0
-2356 -2363 0
-2356 -2364 0
-2356 -2365 0
-2356 -2366 0
-2356 -2367 0
-2356 -2368 0
-2356 -2369 0
-2356 -2370 0
-2356 -2371 0
-2356 -2372 0
-2356 -2373 0
-2356 -2374 0
-2356 -2375 0
-2356 -2376 0
-2356 -2377 0
-2356 -2378 0
-2356 -2379 0
-2356 -2380 0
-2356 -2381 0
-2356 -2382 0
-2356 -2383 0
-2356 -2384 0
-2356 -2385 0
-2356 -2386 0
-2356 -2387 0
-2356 -2388 0
-2356 -2389 0
-2356 -2390 0
-2356 -2391 0
-2356 -2392 0
-2357 -2358 0
-2357 -2359 0
-2357 -2360 0
-2357 -2361 0
-2357 -2362 0
-2357 -2363 0
-2357 -2364 0
-2357 -2365 0
-2357 -2366 0
-2357 -2367 0
-2357 -2368 0
-2357 -2369 0
-2357 -2370 0
-2357 -2371 0
-2357 -2372 0
-2357 -2373 0
-2357 -2374 0
-2357 -2375 0
-2357 -2376 0
-2357 -2377 0
-2357 -2378 0
-2357 -2379 0
-2357 -2380 0
-2357 -2381 0
-2357 -2382 0
-2357 -2383 0
-2357 -2384 0
-2357 -2385 0
-2357 -2386 0
-2357 -2387 0
-2357 -2388 0
-2357 -2389 0
-2357 -2390 0
-2357 -2391 0
-2357 -2392 0
-2358 -2359 0
-2358 -2360 0
-2358 -2361 0
-2358 -2362 0
-2358 -2363 0
-2358 -2364 0
-2358 -2365 0
-2358 -2366 0
-2358 -2367 0
-2358 -2368 0
-2358 -2369 0
-2358 -2370 0
-2358 -2371 0
-2358 -2372 0
-2358 -2373 0
-2358 -2374 0
-2358 -2375 0
-2358 -2376 0
-2358 -2377 0
-2358 -2378 0
-2358 -2379 0
-2358 -2380 0
-2358 -2381 0
-2358 -2382 0
-2358 -2383 0
-2358 -2384 0
-2358 -2385 0
-2358 -2386 0
-2358 -2387 0
-2358 -2388 0
-2358 -2389 0
-2358 -2390 0
-2358 -2391 0
-2358 -2392 0
-2359 -2360 0
-2359 -2361 0
-2359 -2362 0
-2359 -2363 0
-2359 -2364 0
-2359 -2365 0
-2359 -2366 0
-2359 -2367 0
-2359 -2368 0
-2359 -2369 0
-2359 -2370 0
-2359 -2371 0
-2359 -2372 0
-2359 -2373 0
-2359 -2374 0
-2359 -2375 0
-2359 -2376 0
-2359 -2377 0
-2359 -2378 0
-2359 -2379 0
-2359 -2380 0
-2359 -2381 0
-2359 -2382 0
-2359 -2383 0
-2359 -2384 0
-2359 -2385 0
-2359 -2386 0
-2359 -2387 0
-2359 -2388 0
-2359 -2389 0
-2359 -2390 0
-2359 -2391 0
-2359 -2392 0
-2360 -2361 0
-2360 -2362 0
-2360 -2363 0
-2360 -2364 0
-2360 -2365 0
-2360 -2366 0
-2360 -2367 0
-2360 -2368 0
-2360 -2369 0
-2360 -2370 0
-2360 -2371 0
-2360 -2372 0
-2360 -2373 0
-2360 -2374 0
-2360 -2375 0
-2360 -2376 0
-2360 -2377 0
-2360 -2378 0
-2360 -2379 0
-2360 -2380 0
-2360 -2381 0
-2360 -2382 0
-2360 -2383 0
-2360 -2384 0
-2360 -2385 0
-2360 -2386 0
-2360 -2387 0
-2360 -2388 0
-2360 -2389 0
-2360 -2390 0
-2360 -2391 0
-2360 -2392 0
-2361 -2362 0
-2361 -2363 0
-2361 -2364 0
-2361 -2365 0
-2361 -2366 0
-2361 -2367 0
-2361 -2368 0
-2361 -2369 0
-2361 -2370 0
-2361 -2371 0
-2361 -2372 0
-2361 -2373 0
-2361 -2374 0
-2361 -2375 0
-2361 -2376 0
-2361 -2377 0
-2361 -2378 0
-2361 -2379 0
-2361 -2380 0
-2361 -2381 0
-2361 -2382 0
-2361 -2383 0
-2361 -2384 0
-2361 -2385 0
-2361 -2386 0
-2361 -2387 0
-2361 -2388 0
-2361 -2389 0
-2361 -2390 0
-2361 -2391 0
-2361 -2392 0
-2362 -2363 0
-2362 -2364 0
-2362 -2365 0
-2362 -2366 0
-2362 -2367 0
-2362 -2368 0
-2362 -2369 0
-2362 -2370 0
-2362 -2371 0
-2362 -2372 0
-2362 -2373 0
-2362 -2374 0
-2362 -2375 0
-2362 -2376 0
-2362 -2377 0
-2362 -2378 0
-2362 -2379 0
-2362 -2380 0
-2362 -2381 0
-2362 -2382 0
-2362 -2383 0
-2362 -2384 0
-2362 -2385 0
-2362 -2386 0
-2362 -2387 0
-2362 -2388 0
-2362 -2389 0
-2362 -2390 0
-2362 -2391 0
-2362 -2392 0
-2363 -2364 0
-2363 -2365 0
-2363 -2366 0
-2363 -2367 0
-2363 -2368 0
-2363 -2369 0
-2363 -2370 0
-2363 -2371 0
-2363 -2372 0
-2363 -2373 0
-2363 -2374 0
-2363 -2375 0
-2363 -2376 0
-2363 -2377 0
-2363 -2378 0
-2363 -2379 0
-2363 -2380 0
-2363 -2381 0
-2363 -2382 0
-2363 -2383 0
-2363 -2384 0
-2363 -2385 0
-2363 -2386 0
-2363 -2387 0
-2363 -2388 0
-2363 -2389 0
-2363 -2390 0
-2363 -2391 0
-2363 -2392 0
-2364 -2365 0
-2364 -2366 0
-2364 -2367 0
-2364 -2368 0
-2364 -2369 0
-2364 -2370 0
-2364 -2371 0
-2364 -2372 0
-2364 -2373 0
-2364 -2374 0
-2364 -2375 0
-2364 -2376 0
-2364 -2377 0
-2364 -2378 0
-2364 -2379 0
-2364 -2380 0
-2364 -2381 0
-2364 -2382 0
-2364 -2383 0
-2364 -2384 0
-2364 -2385 0
-2364 -2386 0
-2364 -2387 0
-2364 -2388 0
-2364 -2389 0
-2364 -2390 0
-2364 -2391 0
-2364 -2392 0
-2365 -2366 0
-2365 -2367 0
-2365 -2368 0
-2365 -2369 0
-2365 -2370 0
-2365 -2371 0
-2365 -2372 0
-2365 -2373 0
-2365 -2374 0
-2365 -2375 0
-2365 -2376 0
-2365 -2377 0
-2365 -2378 0
-2365 -2379 0
-2365 -2380 0
-2365 -2381 0
-2365 -2382 0
-2365 -2383 0
-2365 -2384 0
-2365 -2385 0
-2365 -2386 0
-2365 -2387 0
-2365 -2388 0
-2365 -2389 0
-2365 -2390 0
-2365 -2391 0
-2365 -2392 0
-2366 -2367 0
-2366 -2368 0
-2366 -2369 0
-2366 -2370 0
-2366 -2371 0
-2366 -2372 0
-2366 -2373 0
-2366 -2374 0
-2366 -2375 0
-2366 -2376 0
-2366 -2377 0
-2366 -2378 0
-2366 -2379 0
-2366 -2380 0
-2366 -2381 0
-2366 -2382 0
-2366 -2383 0
-2366 -2384 0
-2366 -2385 0
-2366 -2386 0
-2366 -2387 0
-2366 -2388 0
-2366 -2389 0
-2366 -2390 0
-2366 -2391 0
-2366 -2392 0
-2367 -2368 0
-2367 -2369 0
-2367 -2370 0
-2367 -2371 0
-2367 -2372 0
-2367 -2373 0
-2367 -2374 0
-2367 -2375 0
-2367 -2376 0
-2367 -2377 0
-2367 -2378 0
-2367 -2379 0
-2367 -2380 0
-2367 -2381 0
-2367 -2382 0
-2367 -2383 0
-2367 -2384 0
-2367 -2385 0
-2367 -2386 0
-2367 -2387 0
-2367 -2388 0
-2367 -2389 0
-2367 -2390 0
-2367 -2391 0
-2367 -2392 0
-2368 -2369 0
-2368 -2370 0
-2368 -2371 0
-2368 -2372 0
-2368 -2373 0
-2368 -2374 0
-2368 -2375 0
-2368 -2376 0
-2368 -2377 0
-2368 -2378 0
-2368 -2379 0
-2368 -2380 0
-2368 -2381 0
-2368 -2382 0
-2368 -2383 0
-2368 -2384 0
-2368 -2385 0
-2368 -2386 0
-2368 -2387 0
-2368 -2388 0
-2368 -2389 0
-2368 -2390 0
-2368 -2391 0
-2368 -2392 0
-2369 -2370 0
-2369 -2371 0
-2369 -2372 0
-2369 -2373 0
-2369 -2374 0
-2369 -2375 0
-2369 -2376 0
-2369 -2377 0
-2369 -2378 0
-2369 -2379 0
-2369 -2380 0
-2369 -2381 0
-2369 -2382 0
-2369 -2383 0
-2369 -2384 0
-2369 -2385 0
-2369 -2386 0
-2369 -2387 0
-2369 -2388 0
-2369 -2389 0
-2369 -2390 0
-2369 -2391 0
-2369 -2392 0
-2370 -2371 0
-2370 -2372 0
-2370 -2373 0
-2370 -2374 0
-2370 -2375 0
-2370 -2376 0
-2370 -2377 0
-2370 -2378 0
-2370 -2379 0
-2370 -2380 0
-2370 -2381 0
-2370 -2382 0
-2370 -2383 0
-2370 -2384 0
-2370 -2385 0
-2370 -2386 0
-2370 -2387 0
-2370 -2388 0
-2370 -2389 0
-2370 -2390 0
-2370 -2391 0
-2370 -2392 0
-2371 -2372 0
-2371 -2373 0
-2371 -2374 0
-2371 -2375 0
-2371 -2376 0
-2371 -2377 0
-2371 -2378 0
-2371 -2379 0
-2371 -2380 0
-2371 -2381 0
-2371 -2382 0
-2371 -2383 0
-2371 -2384 0
-2371 -2385 0
-2371 -2386 0
-2371 -2387 0
-2371 -2388 0
-2371 -2389 0
-2371 -2390 0
-2371 -2391 0
-2371 -2392 0
-2372 -2373 0
-2372 -2374 0
-2372 -2375 0
-2372 -2376 0
-2372 -2377 0
-2372 -2378 0
-2372 -2379 0
-2372 -2380 0
-2372 -2381 0
-2372 -2382 0
-2372 -2383 0
-2372 -2384 0
-2372 -2385 0
-2372 -2386 0
-2372 -2387 0
-2372 -2388 0
-2372 -2389 0
-2372 -2390 0
-2372 -2391 0
-2372 -2392 0
-2373 -2374 0
-2373 -2375 0
-2373 -2376 0
-2373 -2377 0
-2373 -2378 0
-2373 -2379 0
-2373 -2380 0
-2373 -2381 0
-2373 -2382 0
-2373 -2383 0
-2373 -2384 0
-2373 -2385 0
-2373 -2386 0
-2373 -2387 0
-2373 -2388 0
-2373 -2389 0
-2373 -2390 0
-2373 -2391 0
-2373 -2392 0
-2374 -2375 0
-2374 -2376 0
-2374 -2377 0
-2374 -2378 0
-2374 -2379 0
-2374 -2380 0
-2374 -2381 0
-2374 -2382 0
-2374 -2383 0
-2374 -2384 0
-2374 -2385 0
-2374 -2386 0
-2374 -2387 0
-2374 -2388 0
-2374 -2389 0
-2374 -2390 0
-2374 -2391 0
-2374 -2392 0
-2375 -2376 0
-2375 -2377 0
-2375 -2378 0
-2375 -2379 0
-2375 -2380 0
-2375 -2381 0
-2375 -2382 0
-2375 -2383 0
-2375 -2384 0
-2375 -2385 0
-2375 -2386 0
-2375 -2387 0
-2375 -2388 0
-2375 -2389 0
-2375 -2390 0
-2375 -2391 0
-2375 -2392 0
-2376 -2377 0
-2376 -2378 0
-2376 -2379 0
-2376 -2380 0
-2376 -2381 0
-2376 -2382 0
-2376 -2383 0
-2376 -2384 0
-2376 -2385 0
-2376 -2386 0
-2376 -2387 0
-2376 -2388 0
-2376 -2389 0
-2376 -2390 0
-2376 -2391 0
-2376 -2392 0
-2377 -2378 0
-2377 -2379 0
-2377 -2380 0
-2377 -2381 0
-2377 -2382 0
-2377 -2383 0
-2377 -2384 0
-2377 -2385 0
-2377 -2386 0
-2377 -2387 0
-2377 -2388 0
-2377 -2389 0
-2377 -2390 0
-2377 -2391 0
-2377 -2392 0
-2378 -2379 0
-2378 -2380 0
-2378 -2381 0
-2378 -2382 0
-2378 -2383 0
-2378 -2384 0
-2378 -2385 0
-2378 -2386 0
-2378 -2387 0
-2378 -2388 0
-2378 -2389 0
-2378 -2390 0
-2378 -2391 0
-2378 -2392 0
-2379 -2380 0
-2379 -2381 0
-2379 -2382 0
-2379 -2383 0
-2379 -2384 0
-2379 -2385 0
-2379 -2386 0
-2379 -2387 0
-2379 -2388 0
-2379 -2389 0
-2379 -2390 0
-2379 -2391 0
-2379 -2392 0
-2380 -2381 0
-2380 -2382 0
-2380 -2383 0
-2380 -2384 0
-2380 -2385 0
-2380 -2386 0
-2380 -2387 0
-2380 -2388 0
-2380 -2389 0
-2380 -2390 0
-2380 -2391 0
-2380 -2392 0
-2381 -2382 0
-2381 -2383 0
-2381 -2384 0
-2381 -2385 0
-2381 -2386 0
-2381 -2387 0
-2381 -2388 0
-2381 -2389 0
-2381 -2390 0
-2381 -2391 0
-2381 -2392 0
-2382 -2383 0
-2382 -2384 0
-2382 -2385 0
-2382 -2386 0
-2382 -2387 0
-2382 -2388 0
-2382 -2389 0
-2382 -2390 0
-2382 -2391 0
-2382 -2392 0
-2383 -2384 0
-2383 -2385 0
-2383 -2386 0
-2383 -2387 0
-2383 -2388 0
-2383 -2389 0
-2383 -2390 0
-2383 -2391 0
-2383 -2392 0
-2384 -2385 0
-2384 -2386 0
-2384 -2387 0
-2384 -2388 0
-2384 -2389 0
-2384 -2390 0
-2384 -2391 0
-2384 -2392 0
-2385 -2386 0
-2385 -2387 0
-2385 -2388 0
-2385 -2389 0
-2385 -2390 0
-2385 -2391 0
-2385 -2392 0
-2386 -2387 0
-2386 -2388 0
-2386 -2389 0
-2386 -2390 0
-2386 -2391 0
-2386 -2392 0
-2387 -2388 0
-2387 -2389 0
-2387 -2390 0
-2387 -2391 0
-2387 -2392 0
-2388 -2389 0
-2388 -2390 0
-2388 -2391 0
-2388 -2392 0
-2389 -2390 0
-2389 -2391 0
-2389 -2392 0
-2390 -2391 0
-2390 -2392 0
-2391 -2392 0
-2309 782 0
-2309 1029 0
-2309 -832 0
-2309 -833 0
-2309 -834 0
-2309 -835 0
-2309 -836 0
-2309 -837 1036 0
-2309 -837 -772 -779 0
-2309 -837 -844 0
-2309 -837 -902 0
-2309 -837 -959 0
-2309 -838 1037 0
-2309 -838 -772 -780 0
-2309 -838 -846 0
-2309 -838 -904 0
-2309 -838 -961 0
-2309 -839 1038 0
-2309 -839 -772 -781 0
-2309 -839 -848 0
-2309 -839 -906 0
-2309 -839 -963 0
-2309 -840 0
-2310 782 0
-2310 1030 0
-2310 -831 0
-2310 -833 0
-2310 -834 0
-2310 -835 0
-2310 -836 0
-2310 -837 1036 0
-2310 -837 -773 -779 0
-2310 -837 -852 0
-2310 -837 -910 0
-2310 -837 -967 0
-2310 -838 1037 0
-2310 -838 -773 -780 0
-2310 -838 -854 0
-2310 -838 -912 0
-2310 -838 -969 0
-2310 -839 1038 0
-2310 -839 -773 -781 0
-2310 -839 -856 0
-2310 -839 -914 0
-2310 -839 -971 0
-2310 -840 0
-2311 782 0
-2311 1031 0
-2311 -831 0
-2311 -832 0
-2311 -834 0
-2311 -835 0
-2311 -836 0
-2311 -837 1036 0
-2311 -837 -774 -779 0
-2311 -837 -860 0
-2311 -837 -918 0
-2311 -837 -975 0
-2311 -838 1037 0
-2311 -838 -774 -780 0
-2311 -838 -862 0
-2311 -838 -920 0
-2311 -838 -977 0
-2311 -839 1038 0
-2311 -839 -774 -781 0
-2311 -839 -864 0
-2311 -839 -922 0
-2311 -839 -979 0
-2311 -840 0
-2312 782 0
-2312 1032 0
-2312 -831 0
-2312 -832 0
-2312 -833 0
-2312 -835 0
-2312 -836 0
-2312 -837 1036 0
-2312 -837 -775 -779 0
-2312 -837 -868 0
-2312 -837 -926 0
-2312 -837 -983 0
-2312 -838 1037 0
-2312 -838 -775 -780 0
-2312 -838 -870 0
-2312 -838 -928 0
-2312 -838 -985 0
-2312 -839 1038 0
-2312 -839 -775 -781 0
-2312 -839 -872 0
-2312 -839 -930 0
-2312 -839 -987 0
-2312 -840 0
-2313 782 0
-2313 1033 0
-2313 -831 0
-2313 -832 0
-2313 -833 0
-2313 -834 0
-2313 -836 0
-2313 -837 1036 0
-2313 -837 -776 -779 0
-2313 -837 -876 0
-2313 -837 -934 0
-2313 -837 -991 0
-2313 -838 1037 0
-2313 -838 -776 -780 0
-2313 -838 -878 0
-2313 -838 -936 0
-2313 -838 -993 0
-2313 -839 1038 0
-2313 -839 -776 -781 0
-2313 -839 -880 0
-2313 -839 -938 0
-2313 -839 -995 0
-2313 -840 0
-2314 782 0
-2314 1034 0
-2314 -831 0
-2314 -832 0
-2314 -833 0
-2314 -834 0
-2314 -835 0
-2314 -837 1036 0
-2314 -837 -777 -779 0
-2314 -837 -884 0
-2314 -837 -942 0
-2314 -837 -999 0
-2314 -838 1037 0
-2314 -838 -777 -780 0
-2314 -838 -886 0
-2314 -838 -944 0
-2314 -838 -1001 0
-2314 -839 1038 0
-2314 -839 -777 -781 0
-2314 -839 -888 0
-2314 -839 -946 0
-2314 -839 -1003 0
-2314 -840 0
-2315 782 0
-2315 1029 0
-2315 -891 0
-2315 -892 0
-2315 -893 0
-2315 -894 0
-2315 -895 1036 0
-2315 -895 -772 -779 0
-2315 -895 -844 0
-2315 -895 -902 0
-2315 -895 -959 0
-2315 -896 1037 0
-2315 -896 -772 -780 0
-2315 -896 -846 0
-2315 -896 -904 0
-2315 -896 -961 0
-2315 -897 1038 0
-2315 -897 -772 -781 0
-2315 -897 -848 0
-2315 -897 -906 0
-2315 -897 -963 0
-2315 -898 0
-2316 782 0
-2316 1030 0
-2316 -892 0
-2316 -893 0
-2316 -894 0
-2316 -895 1036 0
-2316 -895 -773 -779 0
-2316 -895 -852 0
-2316 -895 -910 0
-2316 -895 -967 0
-2316 -896 1037 0
-2316 -896 -773 -780 0
-2316 -896 -854 0
-2316 -896 -912 0
-2316 -896 -969 0
-2316 -897 1038 0
-2316 -897 -773 -781 0
-2316 -897 -856 0
-2316 -897 -914 0
-2316 -897 -971 0
-2316 -898 0
-2317 782 0
-2317 1031 0
-2317 -890 0
-2317 -893 0
-2317 -894 0
-2317 -895 1036 0
-2317 -895 -774 -779 0
-2317 -895 -860 0
-2317 -895 -918 0
-2317 -895 -975 0
-2317 -896 1037 0
-2317 -896 -774 -780 0
-2317 -896 -862 0
-2317 -896 -920 0
-2317 -896 -977 0
-2317 -897 1038 0
-2317 -897 -774 -781 0
-2317 -897 -864 0
-2317 -897 -922 0
-2317 -897 -979 0
-2317 -898 0
-2318 782 0
-2318 1032 0
-2318 -890 0
-2318 -891 0
-2318 -894 0
-2318 -895 1036 0
-2318 -895 -775 -779 0
-2318 -895 -868 0
-2318 -895 -926 0
-2318 -895 -983 0
-2318 -896 1037 0
-2318 -896 -775 -780 0
-2318 -896 -870 0
-2318 -896 -928 0
-2318 -896 -985 0
-2318 -897 1038 0
-2318 -897 -775 -781 0
-2318 -897 -872 0
-2318 -897 -930 0
-2318 -897 -987 0
-2318 -898 0
-2319 782 0
-2319 1033 0
-2319 -890 0
-2319 -891 0
-2319 -892 0
-2319 -895 1036 0
-2319 -895 -776 -779 0
-2319 -895 -876 0
-2319 -895 -934 0
-2319 -895 -991 0
-2319 -896 1037 0
-2319 -896 -776 -780 0
-2319 -896 -878 0
-2319 -896 -936 0
-2319 -896 -993 0
-2319 -897 1038 0
-2319 -897 -776 -781 0
-2319 -897 -880 0
-2319 -897 -938 0
-2319 -897 -995 0
-2319 -898 0
-2320 782 0
-2320 1034 0
-2320 -890 0
-2320 -891 0
-2320 -892 0
-2320 -893 0
-2320 -895 1036 0
-2320 -895 -777 -779 0
-2320 -895 -884 0
-2320 -895 -942 0
-2320 -895 -999 0
-2320 -896 1037 0
-2320 -896 -777 -780 0
-2320 -896 -886 0
-2320 -896 -944 0
-2320 -896 -1001 0
-2320 -897 1038 0
-2320 -897 -777 -781 0
-2320 -897 -888 0
-2320 -897 -946 0
-2320 -897 -1003 0
-2320 -898 0
-2321 782 0
-2321 1029 0
-2321 -949 0
-2321 -950 0
-2321 -951 0
-2321 -952 1036 0
-2321 -952 -772 -779 0
-2321 -952 -844 0
-2321 -952 -902 0
-2321 -952 -959 0
-2321 -953 1037 0
-2321 -953 -772 -780 0
-2321 -953 -846 0
-2321 -953 -904 0
-2321 -953 -961 0
-2321 -954 1038 0
-2321 -954 -772 -781 0
-2321 -954 -848 0
-2321 -954 -906 0
-2321 -954 -963 0
-2321 -955 0
-2322 782 0
-2322 1030 0
-2322 -950 0
-2322 -951 0
-2322 -952 1036 0
-2322 -952 -773 -779 0
-2322 -952 -852 0
-2322 -952 -910 0
-2322 -952 -967 0
-2322 -953 1037 0
-2322 -953 -773 -780 0
-2322 -953 -854 0
-2322 -953 -912 0
-2322 -953 -969 0
-2322 -954 1038 0
-2322 -954 -773 -781 0
-2322 -954 -856 0
-2322 -954 -914 0
-2322 -954 -971 0
-2322 -955 0
-2323 782 0
-2323 1031 0
-2323 -951 0
-2323 -952 1036 0
-2323 -952 -774 -779 0
-2323 -952 -860 0
-2323 -952 -918 0
-2323 -952 -975 0
-2323 -953 1037 0
-2323 -953 -774 -780 0
-2323 -953 -862 0
-2323 -953 -920 0
-2323 -953 -977 0
-2323 -954 1038 0
-2323 -954 -774 -781 0
-2323 -954 -864 0
-2323 -954 -922 0
-2323 -954 -979 0
-2323 -955 0
-2324 782 0
-2324 1032 0
-2324 -948 0
-2324 -952 1036 0
-2324 -952 -775 -779 0
-2324 -952 -868 0
-2324 -952 -926 0
-2324 -952 -983 0
-2324 -953 1037 0
-2324 -953 -775 -780 0
-2324 -953 -870 0
-2324 -953 -928 0
-2324 -953 -985 0
-2324 -954 1038 0
-2324 -954 -775 -781 0
-2324 -954 -872 0
-2324 -954 -930 0
-2324 -954 -987 0
-2324 -955 0
-2325 782 0
-2325 1033 0
-2325 -948 0
-2325 -949 0
-2325 -952 1036 0
-2325 -952 -776 -779 0
-2325 -952 -876 0
-2325 -952 -934 0
-2325 -952 -991 0
-2325 -953 1037 0
-2325 -953 -776 -780 0
-2325 -953 -878 0
-2325 -953 -936 0
-2325 -953 -993 0
-2325 -954 1038 0
-2325 -954 -776 -781 0
-2325 -954 -880 0
-2325 -954 -938 0
-2325 -954 -995 0
-2325 -955 0
-2326 782 0
-2326 1034 0
-2326 -948 0
-2326 -949 0
-2326 -950 0
-2326 -952 1036 0
-2326 -952 -777 -779 0
-2326 -952 -884 0
-2326 -952 -942 0
-2326 -952 -999 0
-2326 -953 1037 0
-2326 -953 -777 -780 0
-2326 -953 -886 0
-2326 -953 -944 0
-2326 -953 -1001 0
-2326 -954 1038 0
-2326 -954 -777 -781 0
-2326 -954 -888 0
-2326 -954 -946 0
-2326 -954 -1003 0
-2326 -955 0
-2327 782 0
-2327 1029 0
-2327 1035 0
-2327 -772 -778 0
-2327 -842 0
-2327 -900 0
-2327 -957 0
-2328 782 0
-2328 1030 0
-2328 1035 0
-2328 -773 -778 0
-2328 -850 0
-2328 -908 0
-2328 -965 0
-2329 782 0
-2329 1031 0
-2329 1035 0
-2329 -774 -778 0
-2329 -858 0
-2329 -916 0
-2329 -973 0
-2330 782 0
-2330 1032 0
-2330 1035 0
-2330 -775 -778 0
-2330 -866 0
-2330 -924 0
-2330 -981 0
-2331 782 0
-2331 1033 0
-2331 1035 0
-2331 -776 -778 0
-2331 -874 0
-2331 -932 0
-2331 -989 0
-2332 782 0
-2332 1034 0
-2332 1035 0
-2332 -777 -778 0
-2332 -882 0
-2332 -940 0
-2332 -997 0
-2333 841 0
-2333 1088 0
-2333 -773 0
-2333 -774 0
-2333 -775 0
-2333 -776 0
-2333 -777 0
-2333 -778 1095 0
-2333 -778 -831 -838 0
-2333 -778 -785 0
-2333 -778 -902 0
-2333 -778 -959 0
-2333 -779 1096 0
-2333 -779 -831 -839 0
-2333 -779 -787 0
-2333 -779 -904 0
-2333 -779 -961 0
-2333 -780 1097 0
-2333 -780 -831 -840 0
-2333 -780 -789 0
-2333 -780 -906 0
-2333 -780 -963 0
-2333 -781 0
-2334 841 0
-2334 1089 0
-2334 -772 0
-2334 -774 0
-2334 -775 0
-2334 -776 0
-2334 -777 0
-2334 -778 1095 0
-2334 -778 -832 -838 0
-2334 -778 -793 0
-2334 -778 -910 0
-2334 -778 -967 0
-2334 -779 1096 0
-2334 -779 -832 -839 0
-2334 -779 -795 0
-2334 -779 -912 0
-2334 -779 -969 0
-2334 -780 1097 0
-2334 -780 -832 -840 0
-2334 -780 -797 0
-2334 -780 -914 0
-2334 -780 -971 0
-2334 -781 0
-2335 841 0
-2335 1090 0
-2335 -772 0
-2335 -773 0
-2335 -775 0
-2335 -776 0
-2335 -777 0
-2335 -778 1095 0
-2335 -778 -833 -838 0
-2335 -778 -801 0
-2335 -778 -918 0
-2335 -778 -975 0
-2335 -779 1096 0
-2335 -779 -833 -839 0
-2335 -779 -803 0
-2335 -779 -920 0
-2335 -779 -977 0
-2335 -780 1097 0
-2335 -780 -833 -840 0
-2335 -780 -805 0
-2335 -780 -922 0
-2335 -780 -979 0
-2335 -781 0
-2336 841 0
-2336 1091 0
-2336 -772 0
-2336 -773 0
-2336 -774 0
-2336 -776 0
-2336 -777 0
-2336 -778 1095 0
-2336 -778 -834 -838 0
-2336 -778 -809 0
-2336 -778 -926 0
-2336 -778 -983 0
-2336 -779 1096 0
-2336 -779 -834 -839 0
-2336 -779 -811 0
-2336 -779 -928 0
-2336 -779 -985 0
-2336 -780 1097 0
-2336 -780 -834 -840 0
-2336 -780 -813 0
-2336 -780 -930 0
-2336 -780 -987 0
-2336 -781 0
-2337 841 0
-2337 1092 0
-2337 -772 0
-2337 -773 0
-2337 -774 0
-2337 -775 0
-2337 -777 0
-2337 -778 1095 0
-2337 -778 -835 -838 0
-2337 -778 -817 0
-2337 -778 -934 0
-2337 -778 -991 0
-2337 -779 1096 0
-2337 -779 -835 -839 0
-2337 -779 -819 0
-2337 -779 -936 0
-2337 -779 -993 0
-2337 -780 1097 0
-2337 -780 -835 -840 0
-2337 -780 -821 0
-2337 -780 -938 0
-2337 -780 -995 0
-2337 -781 0
-2338 841 0
-2338 1093 0
-2338 -772 0
-2338 -773 0
-2338 -774 0
-2338 -775 0
-2338 -776 0
-2338 -778 1095 0
-2338 -778 -836 -838 0
-2338 -778 -825 0
-2338 -778 -942 0
-2338 -778 -999 0
-2338 -779 1096 0
-2338 -779 -836 -839 0
-2338 -779 -827 0
-2338 -779 -944 0
-2338 -779 -1001 0
-2338 -780 1097 0
-2338 -780 -836 -840 0
-2338 -780 -829 0
-2338 -780 -946 0
-2338 -780 -1003 0
-2338 -781 0
-2339 841 0
-2339 1088 0
-2339 -891 0
-2339 -892 0
-2339 -893 0
-2339 -894 0
-2339 -895 1095 0
-2339 -895 -831 -838 0
-2339 -895 -785 0
-2339 -895 -902 0
-2339 -895 -959 0
-2339 -896 1096 0
-2339 -896 -831 -839 0
-2339 -896 -787 0
-2339 -896 -904 0
-2339 -896 -961 0
-2339 -897 1097 0
-2339 -897 -831 -840 0
-2339 -897 -789 0
-2339 -897 -906 0
-2339 -897 -963 0
-2339 -898 0
-2340 841 0
-2340 1089 0
-2340 -892 0
-2340 -893 0
-2340 -894 0
-2340 -895 1095 0
-2340 -895 -832 -838 0
-2340 -895 -793 0
-2340 -895 -910 0
-2340 -895 -967 0
-2340 -896 1096 0
-2340 -896 -832 -839 0
-2340 -896 -795 0
-2340 -896 -912 0
-2340 -896 -969 0
-2340 -897 1097 0
-2340 -897 -832 -840 0
-2340 -897 -797 0
-2340 -897 -914 0
-2340 -897 -971 0
-2340 -898 0
-2341 841 0
-2341 1090 0
-2341 -890 0
-2341 -893 0
-2341 -894 0
-2341 -895 1095 0
-2341 -895 -833 -838 0
-2341 -895 -801 0
-2341 -895 -918 0
-2341 -895 -975 0
-2341 -896 1096 0
-2341 -896 -833 -839 0
-2341 -896 -803 0
-2341 -896 -920 0
-2341 -896 -977 0
-2341 -897 1097 0
-2341 -897 -833 -840 0
-2341 -897 -805 0
-2341 -897 -922 0
-2341 -897 -979 0
-2341 -898 0
-2342 841 0
-2342 1091 0
-2342 -890 0
-2342 -891 0
-2342 -894 0
-2342 -895 1095 0
-2342 -895 -834 -838 0
-2342 -895 -809 0
-2342 -895 -926 0
-2342 -895 -983 0
-2342 -896 1096 0
-2342 -896 -834 -839 0
-2342 -896 -811 0
-2342 -896 -928 0
-2342 -896 -985 0
-2342 -897 1097 0
-2342 -897 -834 -840 0
-2342 -897 -813 0
-2342 -897 -930 0
-2342 -897 -987 0
-2342 -898 0
-2343 841 0
-2343 1092 0
-2343 -890 0
-2343 -891 0
-2343 -892 0
-2343 -895 1095 0
-2343 -895 -835 -838 0
-2343 -895 -817 0
-2343 -895 -934 0
-2343 -895 -991 0
-2343 -896 1096 0
-2343 -896 -835 -839 0
-2343 -896 -819 0
-2343 -896 -936 0
-2343 -896 -993 0
-2343 -897 1097 0
-2343 -897 -835 -840 0
-2343 -897 -821 0
-2343 -897 -938 0
-2343 -897 -995 0
-2343 -898 0
-2344 841 0
-2344 1093 0
-2344 -890 0
-2344 -891 0
-2344 -892 0
-2344 -893 0
-2344 -895 1095 0
-2344 -895 -836 -838 0
-2344 -895 -825 0
-2344 -895 -942 0
-2344 -895 -999 0
-2344 -896 1096 0
-2344 -896 -836 -839 0
-2344 -896 -827 0
-2344 -896 -944 0
-2344 -896 -1001 0
-2344 -897 1097 0
-2344 -897 -836 -840 0
-2344 -897 -829 0
-2344 -897 -946 0
-2344 -897 -1003 0
-2344 -898 0
-2345 841 0
-2345 1088 0
-2345 -949 0
-2345 -950 0
-2345 -951 0
-2345 -952 1095 0
-2345 -952 -831 -838 0
-2345 -952 -785 0
-2345 -952 -902 0
-2345 -952 -959 0
-2345 -953 1096 0
-2345 -953 -831 -839 0
-2345 -953 -787 0
-2345 -953 -904 0
-2345 -953 -961 0
-2345 -954 1097 0
-2345 -954 -831 -840 0
-2345 -954 -789 0
-2345 -954 -906 0
-2345 -954 -963 0
-2345 -955 0
-2346 841 0
-2346 1089 0
-2346 -950 0
-2346 -951 0
-2346 -952 1095 0
-2346 -952 -832 -838 0
-2346 -952 -793 0
-2346 -952 -910 0
-2346 -952 -967 0
-2346 -953 1096 0
-2346 -953 -832 -839 0
-2346 -953 -795 0
-2346 -953 -912 0
-2346 -953 -969 0
-2346 -954 1097 0
-2346 -954 -832 -840 0
-2346 -954 -797 0
-2346 -954 -914 0
-2346 -954 -971 0
-2346 -955 0
-2347 841 0
-2347 1090 0
-2347 -951 0
-2347 -952 1095 0
-2347 -952 -833 -838 0
-2347 -952 -801 0
-2347 -952 -918 0
-2347 -952 -975 0
-2347 -953 1096 0
-2347 -953 -833 -839 0
-2347 -953 -803 0
-2347 -953 -920 0
-2347 -953 -977 0
-2347 -954 1097 0
-2347 -954 -833 -840 0
-2347 -954 -805 0
-2347 -954 -922 0
-2347 -954 -979 0
-2347 -955 0
-2348 841 0
-2348 1091 0
-2348 -948 0
-2348 -952 1095 0
-2348 -952 -834 -838 0
-2348 -952 -809 0
-2348 -952 -926 0
-2348 -952 -983 0
-2348 -953 1096 0
-2348 -953 -834 -839 0
-2348 -953 -811 0
-2348 -953 -928 0
-2348 -953 -985 0
-2348 -954 1097 0
-2348 -954 -834 -840 0
-2348 -954 -813 0
-2348 -954 -930 0
-2348 -954 -987 0
-2348 -955 0
-2349 841 0
-2349 1092 0
-2349 -948 0
-2349 -949 0
-2349 -952 1095 0
-2349 -952 -835 -838 0
-2349 -952 -817 0
-2349 -952 -934 0
-2349 -952 -991 0
-2349 -953 1096 0
-2349 -953 -835 -839 0
-2349 -953 -819 0
-2349 -953 -936 0
-2349 -953 -993 0
-2349 -954 1097 0
-2349 -954 -835 -840 0
-2349 -954 -821 0
-2349 -954 -938 0
-2349 -954 -995 0
-2349 -955 0
-2350 841 0
-2350 1093 0
-2350 -948 0
-2350 -949 0
-2350 -950 0
-2350 -952 1095 0
-2350 -952 -836 -838 0
-2350 -952 -825 0
-2350 -952 -942 0
-2350 -952 -999 0
-2350 -953 1096 0
-2350 -953 -836 -839 0
-2350 -953 -827 0
-2350 -953 -944 0
-2350 -953 -1001 0
-2350 -954 1097 0
-2350 -954 -836 -840 0
-2350 -954 -829 0
-2350 -954 -946 0
-2350 -954 -1003 0
-2350 -955 0
-2351 841 0
-2351 1088 0
-2351 1094 0
-2351 -831 -837 0
-2351 -783 0
-2351 -900 0
-2351 -957 0
-2352 841 0
-2352 1089 0
-2352 1094 0
-2352 -832 -837 0
-2352 -791 0
-2352 -908 0
-2352 -965 0
-2353 841 0
-2353 1090 0
-2353 1094 0
-2353 -833 -837 0
-2353 -799 0
-2353 -916 0
-2353 -973 0
-2354 841 0
-2354 1091 0
-2354 1094 0
-2354 -834 -837 0
-2354 -807 0
-2354 -924 0
-2354 -981 0
-2355 841 0
-2355 1092 0
-2355 1094 0
-2355 -835 -837 0
-2355 -815 0
-2355 -932 0
-2355 -989 0
-2356 841 0
-2356 1093 0
-2356 1094 0
-2356 -836 -837 0
-2356 -823 0
-2356 -940 0
-2356 -997 0
-2357 899 0
-2357 1147 0
-2357 -774 0
-2357 -775 0
-2357 -776 0
-2357 -777 0
-2357 -778 1153 0
-2357 -778 -890 -896 0
-2357 -778 -785 0
-2357 -778 -793 0
-2357 -778 -844 0
-2357 -778 -852 0
-2357 -778 -959 0
-2357 -778 -967 0
-2357 -779 1154 0
-2357 -779 -890 -897 0
-2357 -779 -787 0
-2357 -779 -795 0
-2357 -779 -846 0
-2357 -779 -854 0
-2357 -779 -961 0
-2357 -779 -969 0
-2357 -780 1155 0
-2357 -780 -890 -898 0
-2357 -780 -789 0
-2357 -780 -797 0
-2357 -780 -848 0
-2357 -780 -856 0
-2357 -780 -963 0
-2357 -780 -971 0
-2357 -781 0
-2358 899 0
-2358 1148 0
-2358 -772 0
-2358 -775 0
-2358 -776 0
-2358 -777 0
-2358 -778 1153 0
-2358 -778 -891 -896 0
-2358 -778 -793 0
-2358 -778 -801 0
-2358 -778 -852 0
-2358 -778 -860 0
-2358 -778 -967 0
-2358 -778 -975 0
-2358 -779 1154 0
-2358 -779 -891 -897 0
-2358 -779 -795 0
-2358 -779 -803 0
-2358 -779 -854 0
-2358 -779 -862 0
-2358 -779 -969 0
-2358 -779 -977 0
-2358 -780 1155 0
-2358 -780 -891 -898 0
-2358 -780 -797 0
-2358 -780 -805 0
-2358 -780 -856 0
-2358 -780 -864 0
-2358 -780 -971 0
-2358 -780 -979 0
-2358 -781 0
-2359 899 0
-2359 1149 0
-2359 -772 0
-2359 -773 0
-2359 -776 0
-2359 -777 0
-2359 -778 1153 0
-2359 -778 -892 -896 0
-2359 -778 -801 0
-2359 -778 -809 0
-2359 -778 -860 0
-2359 -778 -868 0
-2359 -778 -975 0
-2359 -778 -983 0
-2359 -779 1154 0
-2359 -779 -892 -897 0
-2359 -779 -803 0
-2359 -779 -811 0
-2359 -779 -862 0
-2359 -779 -870 0
-2359 -779 -977 0
-2359 -779 -985 0
-2359 -780 1155 0
-2359 -780 -892 -898 0
-2359 -780 -805 0
-2359 -780 -813 0
-2359 -780 -864 0
-2359 -780 -872 0
-2359 -780 -979 0
-2359 -780 -987 0
-2359 -781 0
-2360 899 0
-2360 1150 0
-2360 -772 0
-2360 -773 0
-2360 -774 0
-2360 -777 0
-2360 -778 1153 0
-2360 -778 -893 -896 0
-2360 -778 -809 0
-2360 -778 -817 0
-2360 -778 -868 0
-2360 -778 -876 0
-2360 -778 -983 0
-2360 -778 -991 0
-2360 -779 1154 0
-2360 -779 -893 -897 0
-2360 -779 -811 0
-2360 -779 -819 0
-2360 -779 -870 0
-2360 -779 -878 0
-2360 -779 -985 0
-2360 -779 -993 0
-2360 -780 1155 0
-2360 -780 -893 -898 0
-2360 -780 -813 0
-2360 -780 -821 0
-2360 -780 -872 0
-2360 -780 -880 0
-2360 -780 -987 0
-2360 -780 -995 0
-2360 -781 0
-2361 899 0
-2361 1151 0
-2361 -772 0
-2361 -773 0
-2361 -774 0
-2361 -775 0
-2361 -778 1153 0
-2361 -778 -894 -896 0
-2361 -778 -817 0
-2361 -778 -825 0
-2361 -778 -876 0
-2361 -778 -884 0
-2361 -778 -991 0
-2361 -778 -999 0
-2361 -779 1154 0
-2361 -779 -894 -897 0
-2361 -779 -819 0
-2361 -779 -827 0
-2361 -779 -878 0
-2361 -779 -886 0
-2361 -779 -993 0
-2361 -779 -1001 0
-2361 -780 1155 0
-2361 -780 -894 -898 0
-2361 -780 -821 0
-2361 -780 -829 0
-2361 -780 -880 0
-2361 -780 -888 0
-2361 -780 -995 0
-2361 -780 -1003 0
-2361 -781 0
-2362 899 0
-2362 1147 0
-2362 -833 0
-2362 -834 0
-2362 -835 0
-2362 -836 0
-2362 -837 1153 0
-2362 -837 -890 -896 0
-2362 -837 -785 0
-2362 -837 -793 0
-2362 -837 -844 0
-2362 -837 -852 0
-2362 -837 -959 0
-2362 -837 -967 0
-2362 -838 1154 0
-2362 -838 -890 -897 0
-2362 -838 -787 0
-2362 -838 -795 0
-2362 -838 -846 0
-2362 -838 -854 0
-2362 -838 -961 0
-2362 -838 -969 0
-2362 -839 1155 0
-2362 -839 -890 -898 0
-2362 -839 -789 0
-2362 -839 -797 0
-2362 -839 -848 0
-2362 -839 -856 0
-2362 -839 -963 0
-2362 -839 -971 0
-2362 -840 0
-2363 899 0
-2363 1148 0
-2363 -831 0
-2363 -834 0
-2363 -835 0
-2363 -836 0
-2363 -837 1153 0
-2363 -837 -891 -896 0
-2363 -837 -793 0
-2363 -837 -801 0
-2363 -837 -852 0
-2363 -837 -860 0
-2363 -837 -967 0
-2363 -837 -975 0
-2363 -838 1154 0
-2363 -838 -891 -897 0
-2363 -838 -795 0
-2363 -838 -803 0
-2363 -838 -854 0
-2363 -838 -862 0
-2363 -838 -969 0
-2363 -838 -977 0
-2363 -839 1155 0
-2363 -839 -891 -898 0
-2363 -839 -797 0
-2363 -839 -805 0
-2363 -839 -856 0
-2363 -839 -864 0
-2363 -839 -971 0
-2363 -839 -979 0
-2363 -840 0
-2364 899 0
-2364 1149 0
-2364 -831 0
-2364 -832 0
-2364 -835 0
-2364 -836 0
-2364 -837 1153 0
-2364 -837 -892 -896 0
-2364 -837 -801 0
-2364 -837 -809 0
-2364 -837 -860 0
-2364 -837 -868 0
-2364 -837 -975 0
-2364 -837 -983 0
-2364 -838 1154 0
-2364 -838 -892 -897 0
-2364 -838 -803 0
-2364 -838 -811 0
-2364 -838 -862 0
-2364 -838 -870 0
-2364 -838 -977 0
-2364 -838 -985 0
-2364 -839 1155 0
-2364 -839 -892 -898 0
-2364 -839 -805 0
-2364 -839 -813 0
-2364 -839 -864 0
-2364 -839 -872 0
-2364 -839 -979 0
-2364 -839 -987 0
-2364 -840 0
-2365 899 0
-2365 1150 0
-2365 -831 0
-2365 -832 0
-2365 -833 0
-2365 -836 0
-2365 -837 1153 0
-2365 -837 -893 -896 0
-2365 -837 -809 0
-2365 -837 -817 0
-2365 -837 -868 0
-2365 -837 -876 0
-2365 -837 -983 0
-2365 -837 -991 0
-2365 -838 1154 0
-2365 -838 -893 -897 0
-2365 -838 -811 0
-2365 -838 -819 0
-2365 -838 -870 0
-2365 -838 -878 0
-2365 -838 -985 0
-2365 -838 -993 0
-2365 -839 1155 0
-2365 -839 -893 -898 0
-2365 -839 -813 0
-2365 -839 -821 0
-2365 -839 -872 0
-2365 -839 -880 0
-2365 -839 -987 0
-2365 -839 -995 0
-2365 -840 0
-2366 899 0
-2366 1151 0
-2366 -831 0
-2366 -832 0
-2366 -833 0
-2366 -834 0
-2366 -837 1153 0
-2366 -837 -894 -896 0
-2366 -837 -817 0
-2366 -837 -825 0
-2366 -837 -876 0
-2366 -837 -884 0
-2366 -837 -991 0
-2366 -837 -999 0
-2366 -838 1154 0
-2366 -838 -894 -897 0
-2366 -838 -819 0
-2366 -838 -827 0
-2366 -838 -878 0
-2366 -838 -886 0
-2366 -838 -993 0
-2366 -838 -1001 0
-2366 -839 1155 0
-2366 -839 -894 -898 0
-2366 -839 -821 0
-2366 -839 -829 0
-2366 -839 -880 0
-2366 -839 -888 0
-2366 -839 -995 0
-2366 -839 -1003 0
-2366 -840 0
-2367 899 0
-2367 1147 0
-2367 -950 0
-2367 -951 0
-2367 -952 1153 0
-2367 -952 -890 -896 0
-2367 -952 -785 0
-2367 -952 -793 0
-2367 -952 -844 0
-2367 -952 -852 0
-2367 -952 -959 0
-2367 -952 -967 0
-2367 -953 1154 0
-2367 -953 -890 -897 0
-2367 -953 -787 0
-2367 -953 -795 0
-2367 -953 -846 0
-2367 -953 -854 0
-2367 -953 -961 0
-2367 -953 -969 0
-2367 -954 1155 0
-2367 -954 -890 -898 0
-2367 -954 -789 0
-2367 -954 -797 0
-2367 -954 -848 0
-2367 -954 -856 0
-2367 -954 -963 0
-2367 -954 -971 0
-2367 -955 0
-2368 899 0
-2368 1148 0
-2368 -951 0
-2368 -952 1153 0
-2368 -952 -891 -896 0
-2368 -952 -793 0
-2368 -952 -801 0
-2368 -952 -852 0
-2368 -952 -860 0
-2368 -952 -967 0
-2368 -952 -975 0
-2368 -953 1154 0
-2368 -953 -891 -897 0
-2368 -953 -795 0
-2368 -953 -803 0
-2368 -953 -854 0
-2368 -953 -862 0
-2368 -953 -969 0
-2368 -953 -977 0
-2368 -954 1155 0
-2368 -954 -891 -898 0
-2368 -954 -797 0
-2368 -954 -805 0
-2368 -954 -856 0
-2368 -954 -864 0
-2368 -954 -971 0
-2368 -954 -979 0
-2368 -955 0
-2369 899 0
-2369 1149 0
-2369 -952 1153 0
-2369 -952 -892 -896 0
-2369 -952 -801 0
-2369 -952 -809 0
-2369 -952 -860 0
-2369 -952 -868 0
-2369 -952 -975 0
-2369 -952 -983 0
-2369 -953 1154 0
-2369 -953 -892 -897 0
-2369 -953 -803 0
-2369 -953 -811 0
-2369 -953 -862 0
-2369 -953 -870 0
-2369 -953 -977 0
-2369 -953 -985 0
-2369 -954 1155 0
-2369 -954 -892 -898 0
-2369 -954 -805 0
-2369 -954 -813 0
-2369 -954 -864 0
-2369 -954 -872 0
-2369 -954 -979 0
-2369 -954 -987 0
-2369 -955 0
-2370 899 0
-2370 1150 0
-2370 -948 0
-2370 -952 1153 0
-2370 -952 -893 -896 0
-2370 -952 -809 0
-2370 -952 -817 0
-2370 -952 -868 0
-2370 -952 -876 0
-2370 -952 -983 0
-2370 -952 -991 0
-2370 -953 1154 0
-2370 -953 -893 -897 0
-2370 -953 -811 0
-2370 -953 -819 0
-2370 -953 -870 0
-2370 -953 -878 0
-2370 -953 -985 0
-2370 -953 -993 0
-2370 -954 1155 0
-2370 -954 -893 -898 0
-2370 -954 -813 0
-2370 -954 -821 0
-2370 -954 -872 0
-2370 -954 -880 0
-2370 -954 -987 0
-2370 -954 -995 0
-2370 -955 0
-2371 899 0
-2371 1151 0
-2371 -948 0
-2371 -949 0
-2371 -952 1153 0
-2371 -952 -894 -896 0
-2371 -952 -817 0
-2371 -952 -825 0
-2371 -952 -876 0
-2371 -952 -884 0
-2371 -952 -991 0
-2371 -952 -999 0
-2371 -953 1154 0
-2371 -953 -894 -897 0
-2371 -953 -819 0
-2371 -953 -827 0
-2371 -953 -878 0
-2371 -953 -886 0
-2371 -953 -993 0
-2371 -953 -1001 0
-2371 -954 1155 0
-2371 -954 -894 -898 0
-2371 -954 -821 0
-2371 -954 -829 0
-2371 -954 -880 0
-2371 -954 -888 0
-2371 -954 -995 0
-2371 -954 -1003 0
-2371 -955 0
-2372 899 0
-2372 1147 0
-2372 1152 0
-2372 -890 -895 0
-2372 -783 0
-2372 -791 0
-2372 -842 0
-2372 -850 0
-2372 -957 0
-2372 -965 0
-2373 899 0
-2373 1148 0
-2373 1152 0
-2373 -891 -895 0
-2373 -791 0
-2373 -799 0
-2373 -850 0
-2373 -858 0
-2373 -965 0
-2373 -973 0
-2374 899 0
-2374 1149 0
-2374 1152 0
-2374 -892 -895 0
-2374 -799 0
-2374 -807 0
-2374 -858 0
-2374 -866 0
-2374 -973 0
-2374 -981 0
-2375 899 0
-2375 1150 0
-2375 1152 0
-2375 -893 -895 0
-2375 -807 0
-2375 -815 0
-2375 -866 0
-2375 -874 0
-2375 -981 0
-2375 -989 0
-2376 899 0
-2376 1151 0
-2376 1152 0
-2376 -894 -895 0
-2376 -815 0
-2376 -823 0
-2376 -874 0
-2376 -882 0
-2376 -989 0
-2376 -997 0
-2377 956 0
-2377 1205 0
-2377 -775 0
-2377 -776 0
-2377 -777 0
-2377 -778 1210 0
-2377 -778 -948 -953 0
-2377 -778 -785 0
-2377 -778 -793 0
-2377 -778 -801 0
-2377 -778 -844 0
-2377 -778 -852 0
-2377 -778 -860 0
-2377 -778 -902 0
-2377 -778 -910 0
-2377 -778 -918 0
-2377 -779 1211 0
-2377 -779 -948 -954 0
-2377 -779 -787 0
-2377 -779 -795 0
-2377 -779 -803 0
-2377 -779 -846 0
-2377 -779 -854 0
-2377 -779 -862 0
-2377 -779 -904 0
-2377 -779 -912 0
-2377 -779 -920 0
-2377 -780 1212 0
-2377 -780 -948 -955 0
-2377 -780 -789 0
-2377 -780 -797 0
-2377 -780 -805 0
-2377 -780 -848 0
-2377 -780 -856 0
-2377 -780 -864 0
-2377 -780 -906 0
-2377 -780 -914 0
-2377 -780 -922 0
-2377 -781 0
-2378 956 0
-2378 1206 0
-2378 -772 0
-2378 -776 0
-2378 -777 0
-2378 -778 1210 0
-2378 -778 -949 -953 0
-2378 -778 -793 0
-2378 -778 -801 0
-2378 -778 -809 0
-2378 -778 -852 0
-2378 -778 -860 0
-2378 -778 -868 0
-2378 -778 -910 0
-2378 -778 -918 0
-2378 -778 -926 0
-2378 -779 1211 0
-2378 -779 -949 -954 0
-2378 -779 -795 0
-2378 -779 -803 0
-2378 -779 -811 0
-2378 -779 -854 0
-2378 -779 -862 0
-2378 -779 -870 0
-2378 -779 -912 0
-2378 -779 -920 0
-2378 -779 -928 0
-2378 -780 1212 0
-2378 -780 -949 -955 0
-2378 -780 -797 0
-2378 -780 -805 0
-2378 -780 -813 0
-2378 -780 -856 0
-2378 -780 -864 0
-2378 -780 -872 0
-2378 -780 -914 0
-2378 -780 -922 0
-2378 -780 -930 0
-2378 -781 0
-2379 956 0
-2379 1207 0
-2379 -772 0
-2379 -773 0
-2379 -777 0
-2379 -778 1210 0
-2379 -778 -950 -953 0
-2379 -778 -801 0
-2379 -778 -809 0
-2379 -778 -817 0
-2379 -778 -860 0
-2379 -778 -868 0
-2379 -778 -876 0
-2379 -778 -918 0
-2379 -778 -926 0
-2379 -778 -934 0
-2379 -779 1211 0
-2379 -779 -950 -954 0
-2379 -779 -803 0
-2379 -779 -811 0
-2379 -779 -819 0
-2379 -779 -862 0
-2379 -779 -870 0
-2379 -779 -878 0
-2379 -779 -920 0
-2379 -779 -928 0
-2379 -779 -936 0
-2379 -780 1212 0
-2379 -780 -950 -955 0
-2379 -780 -805 0
-2379 -780 -813 0
-2379 -780 -821 0
-2379 -780 -864 0
-2379 -780 -872 0
-2379 -780 -880 0
-2379 -780 -922 0
-2379 -780 -930 0
-2379 -780 -938 0
-2379 -781 0
-2380 956 0
-2380 1208 0
-2380 -772 0
-2380 -773 0
-2380 -774 0
-2380 -778 1210 0
-2380 -778 -951 -953 0
-2380 -778 -809 0
-2380 -778 -817 0
-2380 -778 -825 0
-2380 -778 -868 0
-2380 -778 -876 0
-2380 -778 -884 0
-2380 -778 -926 0
-2380 -778 -934 0
-2380 -778 -942 0
-2380 -779 1211 0
-2380 -779 -951 -954 0
-2380 -779 -811 0
-2380 -779 -819 0
-2380 -779 -827 0
-2380 -779 -870 0
-2380 -779 -878 0
-2380 -779 -886 0
-2380 -779 -928 0
-2380 -779 -936 0
-2380 -779 -944 0
-2380 -780 1212 0
-2380 -780 -951 -955 0
-2380 -780 -813 0
-2380 -780 -821 0
-2380 -780 -829 0
-2380 -780 -872 0
-2380 -780 -880 0
-2380 -780 -888 0
-2380 -780 -930 0
-2380 -780 -938 0
-2380 -780 -946 0
-2380 -781 0
-2381 956 0
-2381 1205 0
-2381 -834 0
-2381 -835 0
-2381 -836 0
-2381 -837 1210 0
-2381 -837 -948 -953 0
-2381 -837 -785 0
-2381 -837 -793 0
-2381 -837 -801 0
-2381 -837 -844 0
-2381 -837 -852 0
-2381 -837 -860 0
-2381 -837 -902 0
-2381 -837 -910 0
-2381 -837 -918 0
-2381 -838 1211 0
-2381 -838 -948 -954 0
-2381 -838 -787 0
-2381 -838 -795 0
-2381 -838 -803 0
-2381 -838 -846 0
-2381 -838 -854 0
-2381 -838 -862 0
-2381 -838 -904 0
-2381 -838 -912 0
-2381 -838 -920 0
-2381 -839 1212 0
-2381 -839 -948 -955 0
-2381 -839 -789 0
-2381 -839 -797 0
-2381 -839 -805 0
-2381 -839 -848 0
-2381 -839 -856 0
-2381 -839 -864 0
-2381 -839 -906 0
-2381 -839 -914 0
-2381 -839 -922 0
-2381 -840 0
-2382 956 0
-2382 1206 0
-2382 -831 0
-2382 -835 0
-2382 -836 0
-2382 -837 1210 0
-2382 -837 -949 -953 0
-2382 -837 -793 0
-2382 -837 -801 0
-2382 -837 -809 0
-2382 -837 -852 0
-2382 -837 -860 0
-2382 -837 -868 0
-2382 -837 -910 0
-2382 -837 -918 0
-2382 -837 -926 0
-2382 -838 1211 0
-2382 -838 -949 -954 0
-2382 -838 -795 0
-2382 -838 -803 0
-2382 -838 -811 0
-2382 -838 -854 0
-2382 -838 -862 0
-2382 -838 -870 0
-2382 -838 -912 0
-2382 -838 -920 0
-2382 -838 -928 0
-2382 -839 1212 0
-2382 -839 -949 -955 0
-2382 -839 -797 0
-2382 -839 -805 0
-2382 -839 -813 0
-2382 -839 -856 0
-2382 -839 -864 0
-2382 -839 -872 0
-2382 -839 -914 0
-2382 -839 -922 0
-2382 -839 -930 0
-2382 -840 0
-2383 956 0
-2383 1207 0
-2383 -831 0
-2383 -832 0
-2383 -836 0
-2383 -837 1210 0
-2383 -837 -950 -953 0
-2383 -837 -801 0
-2383 -837 -809 0
-2383 -837 -817 0
-2383 -837 -860 0
-2383 -837 -868 0
-2383 -837 -876 0
-2383 -837 -918 0
-2383 -837 -926 0
-2383 -837 -934 0
-2383 -838 1211 0
-2383 -838 -950 -954 0
-2383 -838 -803 0
-2383 -838 -811 0
-2383 -838 -819 0
-2383 -838 -862 0
-2383 -838 -870 0
-2383 -838 -878 0
-2383 -838 -920 0
-2383 -838 -928 0
-2383 -838 -936 0
-2383 -839 1212 0
-2383 -839 -950 -955 0
-2383 -839 -805 0
-2383 -839 -813 0
-2383 -839 -821 0
-2383 -839 -864 0
-2383 -839 -872 0
-2383 -839 -880 0
-2383 -839 -922 0
-2383 -839 -930 0
-2383 -839 -938 0
-2383 -840 0
-2384 956 0
-2384 1208 0
-2384 -831 0
-2384 -832 0
-2384 -833 0
-2384 -837 1210 0
-2384 -837 -951 -953 0
-2384 -837 -809 0
-2384 -837 -817 0
-2384 -837 -825 0
-2384 -837 -868 0
-2384 -837 -876 0
-2384 -837 -884 0
-2384 -837 -926 0
-2384 -837 -934 0
-2384 -837 -942 0
-2384 -838 1211 0
-2384 -838 -951 -954 0
-2384 -838 -811 0
-2384 -838 -819 0
-2384 -838 -827 0
-2384 -838 -870 0
-2384 -838 -878 0
-2384 -838 -886 0
-2384 -838 -928 0
-2384 -838 -936 0
-2384 -838 -944 0
-2384 -839 1212 0
-2384 -839 -951 -955 0
-2384 -839 -813 0
-2384 -839 -821 0
-2384 -839 -829 0
-2384 -839 -872 0
-2384 -839 -880 0
-2384 -839 -888 0
-2384 -839 -930 0
-2384 -839 -938 0
-2384 -839 -946 0
-2384 -840 0
-2385 956 0
-2385 1205 0
-2385 -893 0
-2385 -894 0
-2385 -895 1210 0
-2385 -895 -948 -953 0
-2385 -895 -785 0
-2385 -895 -793 0
-2385 -895 -801 0
-2385 -895 -844 0
-2385 -895 -852 0
-2385 -895 -860 0
-2385 -895 -902 0
-2385 -895 -910 0
-2385 -895 -918 0
-2385 -896 1211 0
-2385 -896 -948 -954 0
-2385 -896 -787 0
-2385 -896 -795 0
-2385 -896 -803 0
-2385 -896 -846 0
-2385 -896 -854 0
-2385 -896 -862 0
-2385 -896 -904 0
-2385 -896 -912 0
-2385 -896 -920 0
-2385 -897 1212 0
-2385 -897 -948 -955 0
-2385 -897 -789 0
-2385 -897 -797 0
-2385 -897 -805 0
-2385 -897 -848 0
-2385 -897 -856 0
-2385 -897 -864 0
-2385 -897 -906 0
-2385 -897 -914 0
-2385 -897 -922 0
-2385 -898 0
-2386 956 0
-2386 1206 0
-2386 -894 0
-2386 -895 1210 0
-2386 -895 -949 -953 0
-2386 -895 -793 0
-2386 -895 -801 0
-2386 -895 -809 0
-2386 -895 -852 0
-2386 -895 -860 0
-2386 -895 -868 0
-2386 -895 -910 0
-2386 -895 -918 0
-2386 -895 -926 0
-2386 -896 1211 0
-2386 -896 -949 -954 0
-2386 -896 -795 0
-2386 -896 -803 0
-2386 -896 -811 0
-2386 -896 -854 0
-2386 -896 -862 0
-2386 -896 -870 0
-2386 -896 -912 0
-2386 -896 -920 0
-2386 -896 -928 0
-2386 -897 1212 0
-2386 -897 -949 -955 0
-2386 -897 -797 0
-2386 -897 -805 0
-2386 -897 -813 0
-2386 -897 -856 0
-2386 -897 -864 0
-2386 -897 -872 0
-2386 -897 -914 0
-2386 -897 -922 0
-2386 -897 -930 0
-2386 -898 0
-2387 956 0
-2387 1207 0
-2387 -890 0
-2387 -895 1210 0
-2387 -895 -950 -953 0
-2387 -895 -801 0
-2387 -895 -809 0
-2387 -895 -817 0
-2387 -895 -860 0
-2387 -895 -868 0
-2387 -895 -876 0
-2387 -895 -918 0
-2387 -895 -926 0
-2387 -895 -934 0
-2387 -896 1211 0
-2387 -896 -950 -954 0
-2387 -896 -803 0
-2387 -896 -811 0
-2387 -896 -819 0
-2387 -896 -862 0
-2387 -896 -870 0
-2387 -896 -878 0
-2387 -896 -920 0
-2387 -896 -928 0
-2387 -896 -936 0
-2387 -897 1212 0
-2387 -897 -950 -955 0
-2387 -897 -805 0
-2387 -897 -813 0
-2387 -897 -821 0
-2387 -897 -864 0
-2387 -897 -872 0
-2387 -897 -880 0
-2387 -897 -922 0
-2387 -897 -930 0
-2387 -897 -938 0
-2387 -898 0
-2388 956 0
-2388 1208 0
-2388 -890 0
-2388 -891 0
-2388 -895 1210 0
-2388 -895 -951 -953 0
-2388 -895 -809 0
-2388 -895 -817 0
-2388 -895 -825 0
-2388 -895 -868 0
-2388 -895 -876 0
-2388 -895 -884 0
-2388 -895 -926 0
-2388 -895 -934 0
-2388 -895 -942 0
-2388 -896 1211 0
-2388 -896 -951 -954 0
-2388 -896 -811 0
-2388 -896 -819 0
-2388 -896 -827 0
-2388 -896 -870 0
-2388 -896 -878 0
-2388 -896 -886 0
-2388 -896 -928 0
-2388 -896 -936 0
-2388 -896 -944 0
-2388 -897 1212 0
-2388 -897 -951 -955 0
-2388 -897 -813 0
-2388 -897 -821 0
-2388 -897 -829 0
-2388 -897 -872 0
-2388 -897 -880 0
-2388 -897 -888 0
-2388 -897 -930 0
-2388 -897 -938 0
-2388 -897 -946 0
-2388 -898 0
-2389 956 0
-2389 1205 0
-2389 1209 0
-2389 -948 -952 0
-2389 -783 0
-2389 -791 0
-2389 -799 0
-2389 -842 0
-2389 -850 0
-2389 -858 0
-2389 -900 0
-2389 -908 0
-2389 -916 0
-2390 956 0
-2390 1206 0
-2390 1209 0
-2390 -949 -952 0
-2390 -791 0
-2390 -799 0
-2390 -807 0
-2390 -850 0
-2390 -858 0
-2390 -866 0
-2390 -908 0
-2390 -916 0
-2390 -924 0
-2391 956 0
-2391 1207 0
-2391 1209 0
-2391 -950 -952 0
-2391 -799 0
-2391 -807 0
-2391 -815 0
-2391 -858 0
-2391 -866 0
-2391 -874 0
-2391 -916 0
-2391 -924 0
-2391 -932 0
-2392 956 0
-2392 1208 0
-2392 1209 0
-2392 -951 -952 0
-2392 -807 0
-2392 -815 0
-2392 -823 0
-2392 -866 0
-2392 -874 0
-2392 -882 0
-2392 -924 0
-2392 -932 0
-2392 -940 0
-772 1029 2309 2310 2311 2312 2313 2314 2315 2316 2317 2318 2319 2320 2321 2322 2323 2324 2325 2326 2327 2328 2329 2330 2331 2332 0
-773 1030 2309 2310 2311 2312 2313 2314 2315 2316 2317 2318 2319 2320 2321 2322 2323 2324 2325 2326 2327 2328 2329 2330 2331 2332 0
-774 1031 2309 2310 2311 2312 2313 2314 2315 2316 2317 2318 2319 2320 2321 2322 2323 2324 2325 2326 2327 2328 2329 2330 2331 2332 0
-775 1032 2309 2310 2311 2312 2313 2314 2315 2316 2317 2318 2319 2320 2321 2322 2323 2324 2325 2326 2327 2328 2329 2330 2331 2332 0
-776 1033 2309 2310 2311 2312 2313 2314 2315 2316 2317 2318 2319 2320 2321 2322 2323 2324 2325 2326 2327 2328 2329 2330 2331 2332 0
-777 1034 2309 2310 2311 2312 2313 2314 2315 2316 2317 2318 2319 2320 2321 2322 2323 2324 2325 2326 2327 2328 2329 2330 2331 2332 0
-778 1035 2309 2310 2311 2312 2313 2314 2315 2316 2317 2318 2319 2320 2321 2322 2323 2324 2325 2326 2327 2328 2329 2330 2331 2332 0
-779 1036 2309 2310 2311 2312 2313 2314 2315 2316 2317 2318 2319 2320 2321 2322 2323 2324 2325 2326 2327 2328 2329 2330 2331 2332 0
-780 1037 2309 2310 2311 2312 2313 2314 2315 2316 2317 2318 2319 2320 2321 2322 2323 2324 2325 2326 2327 2328 2329 2330 2331 2332 0
-781 1038 2309 2310 2311 2312 2313 2314 2315 2316 2317 2318 2319 2320 2321 2322 2323 2324 2325 2326 2327 2328 2329 2330 2331 2332 0
-831 1088 2333 2334 2335 2336 2337 2338 2339 2340 2341 2342 2343 2344 2345 2346 2347 2348 2349 2350 2351 2352 2353 2354 2355 2356 0
-832 1089 2333 2334 2335 2336 2337 2338 2339 2340 2341 2342 2343 2344 2345 2346 2347 2348 2349 2350 2351 2352 2353 2354 2355 2356 0
-833 1090 2333 2334 2335 2336 2337 2338 2339 2340 2341 2342 2343 2344 2345 2346 2347 2348 2349 2350 2351 2352 2353 2354 2355 2356 0
-834 1091 2333 2334 2335 2336 2337 2338 2339 2340 2341 2342 2343 2344 2345 2346 2347 2348 2349 2350 2351 2352 2353 2354 2355 2356 0
-835 1092 2333 2334 2335 2336 2337 2338 2339 2340 2341 2342 2343 2344 2345 2346 2347 2348 2349 2350 2351 2352 2353 2354 2355 2356 0
-836 1093 2333 2334 2335 2336 2337 2338 2339 2340 2341 2342 2343 2344 2345 2346 2347 2348 2349 2350 2351 2352 2353 2354 2355 2356 0
-837 1094 2333 2334 2335 2336 2337 2338 2339 2340 2341 2342 2343 2344 2345 2346 2347 2348 2349 2350 2351 2352 2353 2354 2355 2356 0
-838 1095 2333 2334 2335 2336 2337 2338 2339 2340 2341 2342 2343 2344 2345 2346 2347 2348 2349 2350 2351 2352 2353 2354 2355 2356 0
-839 1096 2333 2334 2335 2336 2337 2338 2339 2340 2341 2342 2343 2344 2345 2346 2347 2348 2349 2350 2351 2352 2353 2354 2355 2356 0
-840 1097 2333 2334 2335 2336 2337 2338 2339 2340 2341 2342 2343 2344 2345 2346 2347 2348 2349 2350 2351 2352 2353 2354 2355 2356 0
-890 1147 2357 2358 2359 2360 2361 2362 2363 2364 2365 2366 2367 2368 2369 2370 2371 2372 2373 2374 2375 2376 0
-891 1148 2357 2358 2359 2360 2361 2362 2363 2364 2365 2366 2367 2368 2369 2370 2371 2372 2373 2374 2375 2376 0
-892 1149 2357 2358 2359 2360 2361 2362 2363 2364 2365 2366 2367 2368 2369 2370 2371 2372 2373 2374 2375 2376 0
-893 1150 2357 2358 2359 2360 2361 2362 2363 2364 2365 2366 2367 2368 2369 2370 2371 2372 2373 2374 2375 2376 0
-894 1151 2357 2358 2359 2360 2361 2362 2363 2364 2365 2366 2367 2368 2369 2370 2371 2372 2373 2374 2375 2376 0
-895 1152 2357 2358 2359 2360 2361 2362 2363 2364 2365 2366 2367 2368 2369 2370 2371 2372 2373 2374 2375 2376 0
-896 1153 2357 2358 2359 2360 2361 2362 2363 2364 2365 2366 2367 2368 2369 2370 2371 2372 2373 2374 2375 2376 0
-897 1154 2357 2358 2359 2360 2361 2362 2363 2364 2365 2366 2367 2368 2369 2370 2371 2372 2373 2374 2375 2376 0
-898 1155 2357 2358 2359 2360 2361 2362 2363 2364 2365 2366 2367 2368 2369 2370 2371 2372 2373 2374 2375 2376 0
-948 1205 2377 2378 2379 2380 2381 2382 2383 2384 2385 2386 2387 2388 2389 2390 2391 2392 0
-949 1206 2377 2378 2379 2380 2381 2382 2383 2384 2385 2386 2387 2388 2389 2390 2391 2392 0
-950 1207 2377 2378 2379 2380 2381 2382 2383 2384 2385 2386 2387 2388 2389 2390 2391 2392 0
-951 1208 2377 2378 2379 2380 2381 2382 2383 2384 2385 2386 2387 2388 2389 2390 2391 2392 0
-952 1209 2377 2378 2379 2380 2381 2382 2383 2384 2385 2386 2387 2388 2389 2390 2391 2392 0
-953 1210 2377 2378 2379 2380 2381 2382 2383 2384 2385 2386 2387 2388 2389 2390 2391 2392 0
-954 1211 2377 2378 2379 2380 2381 2382 2383 2384 2385 2386 2387 2388 2389 2390 2391 2392 0
-955 1212 2377 2378 2379 2380 2381 2382 2383 2384 2385 2386 2387 2388 2389 2390 2391 2392 0
-2393 -2394 0
-2393 -2395 0
-2393 -2396 0
-2393 -2397 0
-2393 -2398 0
-2393 -2399 0
-2393 -2400 0
-2393 -2401 0
-2393 -2402 0
-2393 -2403 0
-2393 -2404 0
-2393 -2405 0
-2393 -2406 0
-2393 -2407 0
-2393 -2408 0
-2393 -2409 0
-2393 -2410 0
-2393 -2411 0
-2393 -2412 0
-2393 -2413 0
-2393 -2414 0
-2393 -2415 0
-2393 -2416 0
-2393 -2417 0
-2393 -2418 0
-2393 -2419 0
-2393 -2420 0
-2393 -2421 0
-2393 -2422 0
-2393 -2423 0
-2393 -2424 0
-2393 -2425 0
-2393 -2426 0
-2393 -2427 0
-2393 -2428 0
-2393 -2429 0
-2393 -2430 0
-2393 -2431 0
-2393 -2432 0
-2393 -2433 0
-2393 -2434 0
-2393 -2435 0
-2393 -2436 0
-2393 -2437 0
-2393 -2438 0
-2393 -2439 0
-2393 -2440 0
-2393 -2441 0
-2393 -2442 0
-2393 -2443 0
-2393 -2444 0
-2393 -2445 0
-2393 -2446 0
-2393 -2447 0
-2393 -2448 0
-2393 -2449 0
-2393 -2450 0
-2393 -2451 0
-2393 -2452 0
-2393 -2453 0
-2393 -2454 0
-2393 -2455 0
-2393 -2456 0
-2393 -2457 0
-2393 -2458 0
-2393 -2459 0
-2393 -2460 0
-2393 -2461 0
-2393 -2462 0
-2393 -2463 0
-2393 -2464 0
-2393 -2465 0
-2393 -2466 0
-2393 -2467 0
-2393 -2468 0
-2393 -2469 0
-2393 -2470 0
-2393 -2471 0
-2393 -2472 0
-2393 -2473 0
-2393 -2474 0
-2393 -2475 0
-2393 -2476 0
-2394 -2395 0
-2394 -2396 0
-2394 -2397 0
-2394 -2398 0
-2394 -2399 0
-2394 -2400 0
-2394 -2401 0
-2394 -2402 0
-2394 -2403 0
-2394 -2404 0
-2394 -2405 0
-2394 -2406 0
-2394 -2407 0
-2394 -2408 0
-2394 -2409 0
-2394 -2410 0
-2394 -2411 0
-2394 -2412 0
-2394 -2413 0
-2394 -2414 0
-2394 -2415 0
-2394 -2416 0
-2394 -2417 0
-2394 -2418 0
-2394 -2419 0
-2394 -2420 0
-2394 -2421 0
-2394 -2422 0
-2394 -2423 0
-2394 -2424 0
-2394 -2425 0
-2394 -2426 0
-2394 -2427 0
-2394 -2428 0
-2394 -2429 0
-2394 -2430 0
-2394 -2431 0
-2394 -2432 0
-2394 -2433 0
-2394 -2434 0
-2394 -2435 0
-2394 -2436 0
-2394 -2437 0
-2394 -2438 0
-2394 -2439 0
-2394 -2440 0
-2394 -2441 0
-2394 -2442 0
-2394 -2443 0
-2394 -2444 0
-2394 -2445 0
-2394 -2446 0
-2394 -2447 0
-2394 -2448 0
-2394 -2449 0
-2394 -2450 0
-2394 -2451 0
-2394 -2452 0
-2394 -2453 0
-2394 -2454 0
-2394 -2455 0
-2394 -2456 0
-2394 -2457 0
-2394 -2458 0
-2394 -2459 0
-2394 -2460 0
-2394 -2461 0
-2394 -2462 0
-2394 -2463 0
-2394 -2464 0
-2394 -2465 0
-2394 -2466 0
-2394 -2467 0
-2394 -2468 0
-2394 -2469 0
-2394 -2470 0
-2394 -2471 0
-2394 -2472 0
-2394 -2473 0
-2394 -2474 0
-2394 -2475 0
-2394 -2476 0
-2395 -2396 0
-2395 -2397 0
-2395 -2398 0
-2395 -2399 0
-2395 -2400 0
-2395 -2401 0
-2395 -2402 0
-2395 -2403 0
-2395 -2404 0
-2395 -2405 0
-2395 -2406 0
-2395 -2407 0
-2395 -2408 0
-2395 -2409 0
-2395 -2410 0
-2395 -2411 0
-2395 -2412 0
-2395 -2413 0
-2395 -2414 0
-2395 -2415 0
-2395 -2416 0
-2395 -2417 0
-2395 -2418 0
-2395 -2419 0
-2395 -2420 0
-2395 -2421 0
-2395 -2422 0
-2395 -2423 0
-2395 -2424 0
-2395 -2425 0
-2395 -2426 0
-2395 -2427 0
-2395 -2428 0
-2395 -2429 0
-2395 -2430 0
-2395 -2431 0
-2395 -2432 0
-2395 -2433 0
-2395 -2434 0
-2395 -2435 0
-2395 -2436 0
-2395 -2437 0
-2395 -2438 0
-2395 -2439 0
-2395 -2440 0
-2395 -2441 0
-2395 -2442 0
-2395 -2443 0
-2395 -2444 0
-2395 -2445 0
-2395 -2446 0
-2395 -2447 0
-2395 -2448 0
-2395 -2449 0
-2395 -2450 0
-2395 -2451 0
-2395 -2452 0
-2395 -2453 0
-2395 -2454 0
-2395 -2455 0
-2395 -2456 0
-2395 -2457 0
-2395 -2458 0
-2395 -2459 0
-2395 -2460 0
-2395 -2461 0
-2395 -2462 0
-2395 -2463 0
-2395 -2464 0
-2395 -2465 0
-2395 -2466 0
-2395 -2467 0
-2395 -2468 0
-2395 -2469 0
-2395 -2470 0
-2395 -2471 0
-2395 -2472 0
-2395 -2473 0
-2395 -2474 0
-2395 -2475 0
-2395 -2476 0
-2396 -2397 0
-2396 -2398 0
-2396 -2399 0
-2396 -2400 0
-2396 -2401 0
-2396 -2402 0
-2396 -2403 0
-2396 -2404 0
-2396 -2405 0
-2396 -2406 0
-2396 -2407 0
-2396 -2408 0
-2396 -2409 0
-2396 -2410 0
-2396 -2411 0
-2396 -2412 0
-2396 -2413 0
-2396 -2414 0
-2396 -2415 0
-2396 -2416 0
-2396 -2417 0
-2396 -2418 0
-2396 -2419 0
-2396 -2420 0
-2396 -2421 0
-2396 -2422 0
-2396 -2423 0
-2396 -2424 0
-2396 -2425 0
-2396 -2426 0
-2396 -2427 0
-2396 -2428 0
-2396 -2429 0
-2396 -2430 0
-2396 -2431 0
-2396 -2432 0
-2396 -2433 0
-2396 -2434 0
-2396 -2435 0
-2396 -2436 0
-2396 -2437 0
-2396 -2438 0
-2396 -2439 0
-2396 -2440 0
-2396 -2441 0
-2396 -2442 0
-2396 -2443 0
-2396 -2444 0
-2396 -2445 0
-2396 -2446 0
-2396 -2447 0
-2396 -2448 0
-2396 -2449 0
-2396 -2450 0
-2396 -2451 0
-2396 -2452 0
-2396 -2453 0
-2396 -2454 0
-2396 -2455 0
-2396 -2456 0
-2396 -2457 0
-2396 -2458 0
-2396 -2459 0
-2396 -2460 0
-2396 -2461 0
-2396 -2462 0
-2396 -2463 0
-2396 -2464 0
-2396 -2465 0
-2396 -2466 0
-2396 -2467 0
-2396 -2468 0
-2396 -2469 0
-2396 -2470 0
-2396 -2471 0
-2396 -2472 0
-2396 -2473 0
-2396 -2474 0
-2396 -2475 0
-2396 -2476 0
-2397 -2398 0
-2397 -2399 0
-2397 -2400 0
-2397 -2401 0
-2397 -2402 0
-2397 -2403 0
-2397 -2404 0
-2397 -2405 0
-2397 -2406 0
-2397 -2407 0
-2397 -2408 0
-2397 -2409 0
-2397 -2410 0
-2397 -2411 0
-2397 -2412 0
-2397 -2413 0
-2397 -2414 0
-2397 -2415 0
-2397 -2416 0
-2397 -2417 0
-2397 -2418 0
-2397 -2419 0
-2397 -2420 0
-2397 -2421 0
-2397 -2422 0
-2397 -2423 0
-2397 -2424 0
-2397 -2425 0
-2397 -2426 0
-2397 -2427 0
-2397 -2428 0
-2397 -2429 0
-2397 -2430 0
-2397 -2431 0
-2397 -2432 0
-2397 -2433 0
-2397 -2434 0
-2397 -2435 0
-2397 -2436 0
-2397 -2437 0
-2397 -2438 0
-2397 -2439 0
-2397 -2440 0
-2397 -2441 0
-2397 -2442 0
-2397 -2443 0
-2397 -2444 0
-2397 -2445 0
-2397 -2446 0
-2397 -2447 0
-2397 -2448 0
-2397 -2449 0
-2397 -2450 0
-2397 -2451 0
-2397 -2452 0
-2397 -2453 0
-2397 -2454 0
-2397 -2455 0
-2397 -2456 0
-2397 -2457 0
-2397 -2458 0
-2397 -2459 0
-2397 -2460 0
-2397 -2461 0
-2397 -2462 0
-2397 -2463 0
-2397 -2464 0
-2397 -2465 0
-2397 -2466 0
-2397 -2467 0
-2397 -2468 0
-2397 -2469 0
-2397 -2470 0
-2397 -2471 0
-2397 -2472 0
-2397 -2473 0
-2397 -2474 0
-2397 -2475 0
-2397 -2476 0
-2398 -2399 0
-2398 -2400 0
-2398 -2401 0
-2398 -2402 0
-2398 -2403 0
-2398 -2404 0
-2398 -2405 0
-2398 -2406 0
-2398 -2407 0
-2398 -2408 0
-2398 -2409 0
-2398 -2410 0
-2398 -2411 0
-2398 -2412 0
-2398 -2413 0
-2398 -2414 0
-2398 -2415 0
-2398 -2416 0
-2398 -2417 0
-2398 -2418 0
-2398 -2419 0
-2398 -2420 0
-2398 -2421 0
-2398 -2422 0
-2398 -2423 0
-2398 -2424 0
-2398 -2425 0
-2398 -2426 0
-2398 -2427 0
-2398 -2428 0
-2398 -2429 0
-2398 -2430 0
-2398 -2431 0
-2398 -2432 0
-2398 -2433 0
-2398 -2434 0
-2398 -2435 0
-2398 -2436 0
-2398 -2437 0
-2398 -2438 0
-2398 -2439 0
-2398 -2440 0
-2398 -2441 0
-2398 -2442 0
-2398 -2443 0
-2398 -2444 0
-2398 -2445 0
-2398 -2446 0
-2398 -2447 0
-2398 -2448 0
-2398 -2449 0
-2398 -2450 0
-2398 -2451 0
-2398 -2452 0
-2398 -2453 0
-2398 -2454 0
-2398 -2455 0
-2398 -2456 0
-2398 -2457 0
-2398 -2458 0
-2398 -2459 0
-2398 -2460 0
-2398 -2461 0
-2398 -2462 0
-2398 -2463 0
-2398 -2464 0
-2398 -2465 0
-2398 -2466 0
-2398 -2467 0
-2398 -2468 0
-2398 -2469 0
-2398 -2470 0
-2398 -2471 0
-2398 -2472 0
-2398 -2473 0
-2398 -2474 0
-2398 -2475 0
-2398 -2476 0
-2399 -2400 0
-2399 -2401 0
-2399 -2402 0
-2399 -2403 0
-2399 -2404 0
-2399 -2405 0
-2399 -2406 0
-2399 -2407 0
-2399 -2408 0
-2399 -2409 0
-2399 -2410 0
-2399 -2411 0
-2399 -2412 0
-2399 -2413 0
-2399 -2414 0
-2399 -2415 0
-2399 -2416 0
-2399 -2417 0
-2399 -2418 0
-2399 -2419 0
-2399 -2420 0
-2399 -2421 0
-2399 -2422 0
-2399 -2423 0
-2399 -2424 0
-2399 -2425 0
-2399 -2426 0
-2399 -2427 0
-2399 -2428 0
-2399 -2429 0
-2399 -2430 0
-2399 -2431 0
-2399 -2432 0
-2399 -2433 0
-2399 -2434 0
-2399 -2435 0
-2399 -2436 0
-2399 -2437 0
-2399 -2438 0
-2399 -2439 0
-2399 -2440 0
-2399 -2441 0
-2399 -2442 0
-2399 -2443 0
-2399 -2444 0
-2399 -2445 0
-2399 -2446 0
-2399 -2447 0
-2399 -2448 0
-2399 -2449 0
-2399 -2450 0
-2399 -2451 0
-2399 -2452 0
-2399 -2453 0
-2399 -2454 0
-2399 -2455 0
-2399 -2456 0
-2399 -2457 0
-2399 -2458 0
-2399 -2459 0
-2399 -2460 0
-2399 -2461 0
-2399 -2462 0
-2399 -2463 0
-2399 -2464 0
-2399 -2465 0
-2399 -2466 0
-2399 -2467 0
-2399 -2468 0
-2399 -2469 0
-2399 -2470 0
-2399 -2471 0
-2399 -2472 0
-2399 -2473 0
-2399 -2474 0
-2399 -2475 0
-2399 -2476 0
-2400 -2401 0
-2400 -2402 0
-2400 -2403 0
-2400 -2404 0
-2400 -2405 0
-2400 -2406 0
-2400 -2407 0
-2400 -2408 0
-2400 -2409 0
-2400 -2410 0
-2400 -2411 0
-2400 -2412 0
-2400 -2413 0
-2400 -2414 0
-2400 -2415 0
-2400 -2416 0
-2400 -2417 0
-2400 -2418 0
-2400 -2419 0
-2400 -2420 0
-2400 -2421 0
-2400 -2422 0
-2400 -2423 0
-2400 -2424 0
-2400 -2425 0
-2400 -2426 0
-2400 -2427 0
-2400 -2428 0
-2400 -2429 0
-2400 -2430 0
-2400 -2431 0
-2400 -2432 0
-2400 -2433 0
-2400 -2434 0
-2400 -2435 0
-2400 -2436 0
-2400 -2437 0
-2400 -2438 0
-2400 -2439 0
-2400 -2440 0
-2400 -2441 0
-2400 -2442 0
-2400 -2443 0
-2400 -2444 0
-2400 -2445 0
-2400 -2446 0
-2400 -2447 0
-2400 -2448 0
-2400 -2449 0
-2400 -2450 0
-2400 -2451 0
-2400 -2452 0
-2400 -2453 0
-2400 -2454 0
-2400 -2455 0
-2400 -2456 0
-2400 -2457 0
-2400 -2458 0
-2400 -2459 0
-2400 -2460 0
-2400 -2461 0
-2400 -2462 0
-2400 -2463 0
-2400 -2464 0
-2400 -2465 0
-2400 -2466 0
-2400 -2467 0
-2400 -2468 0
-2400 -2469 0
-2400 -2470 0
-2400 -2471 0
-2400 -2472 0
-2400 -2473 0
-2400 -2474 0
-2400 -2475 0
-2400 -2476 0
-2401 -2402 0
-2401 -2403 0
-2401 -2404 0
-2401 -2405 0
-2401 -2406 0
-2401 -2407 0
-2401 -2408 0
-2401 -2409 0
-2401 -2410 0
-2401 -2411 0
-2401 -2412 0
-2401 -2413 0
-2401 -2414 0
-2401 -2415 0
-2401 -2416 0
-2401 -2417 0
-2401 -2418 0
-2401 -2419 0
-2401 -2420 0
-2401 -2421 0
-2401 -2422 0
-2401 -2423 0
-2401 -2424 0
-2401 -2425 0
-2401 -2426 0
-2401 -2427 0
-2401 -2428 0
-2401 -2429 0
-2401 -2430 0
-2401 -2431 0
-2401 -2432 0
-2401 -2433 0
-2401 -2434 0
-2401 -2435 0
-2401 -2436 0
-2401 -2437 0
-2401 -2438 0
-2401 -2439 0
-2401 -2440 0
-2401 -2441 0
-2401 -2442 0
-2401 -2443 0
-2401 -2444 0
-2401 -2445 0
-2401 -2446 0
-2401 -2447 0
-2401 -2448 0
-2401 -2449 0
-2401 -2450 0
-2401 -2451 0
-2401 -2452 0
-2401 -2453 0
-2401 -2454 0
-2401 -2455 0
-2401 -2456 0
-2401 -2457 0
-2401 -2458 0
-2401 -2459 0
-2401 -2460 0
-2401 -2461 0
-2401 -2462 0
-2401 -2463 0
-2401 -2464 0
-2401 -2465 0
-2401 -2466 0
-2401 -2467 0
-2401 -2468 0
-2401 -2469 0
-2401 -2470 0
-2401 -2471 0
-2401 -2472 0
-2401 -2473 0
-2401 -2474 0
-2401 -2475 0
-2401 -2476 0
-2402 -2403 0
-2402 -2404 0
-2402 -2405 0
-2402 -2406 0
-2402 -2407 0
-2402 -2408 0
-2402 -2409 0
-2402 -2410 0
-2402 -2411 0
-2402 -2412 0
-2402 -2413 0
-2402 -2414 0
-2402 -2415 0
-2402 -2416 0
-2402 -2417 0
-2402 -2418 0
-2402 -2419 0
-2402 -2420 0
-2402 -2421 0
-2402 -2422 0
-2402 -2423 0
-2402 -2424 0
-2402 -2425 0
-2402 -2426 0
-2402 -2427 0
-2402 -2428 0
-2402 -2429 0
-2402 -2430 0
-2402 -2431 0
-2402 -2432 0
-2402 -2433 0
-2402 -2434 0
-2402 -2435 0
-2402 -2436 0
-2402 -2437 0
-2402 -2438 0
-2402 -2439 0
-2402 -2440 0
-2402 -2441 0
-2402 -2442 0
-2402 -2443 0
-2402 -2444 0
-2402 -2445 0
-2402 -2446 0
-2402 -2447 0
-2402 -2448 0
-2402 -2449 0
-2402 -2450 0
-2402 -2451 0
-2402 -2452 0
-2402 -2453 0
-2402 -2454 0
-2402 -2455 0
-2402 -2456 0
-2402 -2457 0
-2402 -2458 0
-2402 -2459 0
-2402 -2460 0
-2402 -2461 0
-2402 -2462 0
-2402 -2463 0
-2402 -2464 0
-2402 -2465 0
-2402 -2466 0
-2402 -2467 0
-2402 -2468 0
-2402 -2469 0
-2402 -2470 0
-2402 -2471 0
-2402 -2472 0
-2402 -2473 0
-2402 -2474 0
-2402 -2475 0
-2402 -2476 0
-2403 -2404 0
-2403 -2405 0
-2403 -2406 0
-2403 -2407 0
-2403 -2408 0
-2403 -2409 0
-2403 -2410 0
-2403 -2411 0
-2403 -2412 0
-2403 -2413 0
-2403 -2414 0
-2403 -2415 0
-2403 -2416 0
-2403 -2417 0
-2403 -2418 0
-2403 -2419 0
-2403 -2420 0
-2403 -2421 0
-2403 -2422 0
-2403 -2423 0
-2403 -2424 0
-2403 -2425 0
-2403 -2426 0
-2403 -2427 0
-2403 -2428 0
-2403 -2429 0
-2403 -2430 0
-2403 -2431 0
-2403 -2432 0
-2403 -2433 0
-2403 -2434 0
-2403 -2435 0
-2403 -2436 0
-2403 -2437 0
-2403 -2438 0
-2403 -2439 0
-2403 -2440 0
-2403 -2441 0
-2403 -2442 0
-2403 -2443 0
-2403 -2444 0
-2403 -2445 0
-2403 -2446 0
-2403 -2447 0
-2403 -2448 0
-2403 -2449 0
-2403 -2450 0
-2403 -2451 0
-2403 -2452 0
-2403 -2453 0
-2403 -2454 0
-2403 -2455 0
-2403 -2456 0
-2403 -2457 0
-2403 -2458 0
-2403 -2459 0
-2403 -2460 0
-2403 -2461 0
-2403 -2462 0
-2403 -2463 0
-2403 -2464 0
-2403 -2465 0
-2403 -2466 0
-2403 -2467 0
-2403 -2468 0
-2403 -2469 0
-2403 -2470 0
-2403 -2471 0
-2403 -2472 0
-2403 -2473 0
-2403 -2474 0
-2403 -2475 0
-2403 -2476 0
-2404 -2405 0
-2404 -2406 0
-2404 -2407 0
-2404 -2408 0
-2404 -2409 0
-2404 -2410 0
-2404 -2411 0
-2404 -2412 0
-2404 -2413 0
-2404 -2414 0
-2404 -2415 0
-2404 -2416 0
-2404 -2417 0
-2404 -2418 0
-2404 -2419 0
-2404 -2420 0
-2404 -2421 0
-2404 -2422 0
-2404 -2423 0
-2404 -2424 0
-2404 -2425 0
-2404 -2426 0
-2404 -2427 0
-2404 -2428 0
-2404 -2429 0
-2404 -2430 0
-2404 -2431 0
-2404 -2432 0
-2404 -2433 0
-2404 -2434 0
-2404 -2435 0
-2404 -2436 0
-2404 -2437 0
-2404 -2438 0
-2404 -2439 0
-2404 -2440 0
-2404 -2441 0
-2404 -2442 0
-2404 -2443 0
-2404 -2444 0
-2404 -2445 0
-2404 -2446 0
-2404 -2447 0
-2404 -2448 0
-2404 -2449 0
-2404 -2450 0
-2404 -2451 0
-2404 -2452 0
-2404 -2453 0
-2404 -2454 0
-2404 -2455 0
-2404 -2456 0
-2404 -2457 0
-2404 -2458 0
-2404 -2459 0
-2404 -2460 0
-2404 -2461 0
-2404 -2462 0
-2404 -2463 0
-2404 -2464 0
-2404 -2465 0
-2404 -2466 0
-2404 -2467 0
-2404 -2468 0
-2404 -2469 0
-2404 -2470 0
-2404 -2471 0
-2404 -2472 0
-2404 -2473 0
-2404 -2474 0
-2404 -2475 0
-2404 -2476 0
-2405 -2406 0
-2405 -2407 0
-2405 -2408 0
-2405 -2409 0
-2405 -2410 0
-2405 -2411 0
-2405 -2412 0
-2405 -2413 0
-2405 -2414 0
-2405 -2415 0
-2405 -2416 0
-2405 -2417 0
-2405 -2418 0
-2405 -2419 0
-2405 -2420 0
-2405 -2421 0
-2405 -2422 0
-2405 -2423 0
-2405 -2424 0
-2405 -2425 0
-2405 -2426 0
-2405 -2427 0
-2405 -2428 0
-2405 -2429 0
-2405 -2430 0
-2405 -2431 0
-2405 -2432 0
-2405 -2433 0
-2405 -2434 0
-2405 -2435 0
-2405 -2436 0
-2405 -2437 0
-2405 -2438 0
-2405 -2439 0
-2405 -2440 0
-2405 -2441 0
-2405 -2442 0
-2405 -2443 0
-2405 -2444 0
-2405 -2445 0
-2405 -2446 0
-2405 -2447 0
-2405 -2448 0
-2405 -2449 0
-2405 -2450 0
-2405 -2451 0
-2405 -2452 0
-2405 -2453 0
-2405 -2454 0
-2405 -2455 0
-2405 -2456 0
-2405 -2457 0
-2405 -2458 0
-2405 -2459 0
-2405 -2460 0
-2405 -2461 0
-2405 -2462 0
-2405 -2463 0
-2405 -2464 0
-2405 -2465 0
-2405 -2466 0
-2405 -2467 0
-2405 -2468 0
-2405 -2469 0
-2405 -2470 0
-2405 -2471 0
-2405 -2472 0
-2405 -2473 0
-2405 -2474 0
-2405 -2475 0
-2405 -2476 0
-2406 -2407 0
-2406 -2408 0
-2406 -2409 0
-2406 -2410 0
-2406 -2411 0
-2406 -2412 0
-2406 -2413 0
-2406 -2414 0
-2406 -2415 0
-2406 -2416 0
-2406 -2417 0
-2406 -2418 0
-2406 -2419 0
-2406 -2420 0
-2406 -2421 0
-2406 -2422 0
-2406 -2423 0
-2406 -2424 0
-2406 -2425 0
-2406 -2426 0
-2406 -2427 0
-2406 -2428 0
-2406 -2429 0
-2406 -2430 0
-2406 -2431 0
-2406 -2432 0
-2406 -2433 0
-2406 -2434 0
-2406 -2435 0
-2406 -2436 0
-2406 -2437 0
-2406 -2438 0
-2406 -2439 0
-2406 -2440 0
-2406 -2441 0
-2406 -2442 0
-2406 -2443 0
-2406 -2444 0
-2406 -2445 0
-2406 -2446 0
-2406 -2447 0
-2406 -2448 0
-2406 -2449 0
-2406 -2450 0
-2406 -2451 0
-2406 -2452 0
-2406 -2453 0
-2406 -2454 0
-2406 -2455 0
-2406 -2456 0
-2406 -2457 0
-2406 -2458 0
-2406 -2459 0
-2406 -2460 0
-2406 -2461 0
-2406 -2462 0
-2406 -2463 0
-2406 -2464 0
-2406 -2465 0
-2406 -2466 0
-2406 -2467 0
-2406 -2468 0
-2406 -2469 0
-2406 -2470 0
-2406 -2471 0
-2406 -2472 0
-2406 -2473 0
-2406 -2474 0
-2406 -2475 0
-2406 -2476 0
-2407 -2408 0
-2407 -2409 0
-2407 -2410 0
-2407 -2411 0
-2407 -2412 0
-2407 -2413 0
-2407 -2414 0
-2407 -2415 0
-2407 -2416 0
-2407 -2417 0
-2407 -2418 0
-2407 -2419 0
-2407 -2420 0
-2407 -2421 0
-2407 -2422 0
-2407 -2423 0
-2407 -2424 0
-2407 -2425 0
-2407 -2426 0
-2407 -2427 0
-2407 -2428 0
-2407 -2429 0
-2407 -2430 0
-2407 -2431 0
-2407 -2432 0
-2407 -2433 0
-2407 -2434 0
-2407 -2435 0
-2407 -2436 0
-2407 -2437 0
-2407 -2438 0
-2407 -2439 0
-2407 -2440 0
-2407 -2441 0
-2407 -2442 0
-2407 -2443 0
-2407 -2444 0
-2407 -2445 0
-2407 -2446 0
-2407 -2447 0
-2407 -2448 0
-2407 -2449 0
-2407 -2450 0
-2407 -2451 0
-2407 -2452 0
-2407 -2453 0
-2407 -2454 0
-2407 -2455 0
-2407 -2456 0
-2407 -2457 0
-2407 -2458 0
-2407 -2459 0
-2407 -2460 0
-2407 -2461 0
-2407 -2462 0
-2407 -2463 0
-2407 -2464 0
-2407 -2465 0
-2407 -2466 0
-2407 -2467 0
-2407 -2468 0
-2407 -2469 0
-2407 -2470 0
-2407 -2471 0
-2407 -2472 0
-2407 -2473 0
-2407 -2474 0
-2407 -2475 0
-2407 -2476 0
-2408 -2409 0
-2408 -2410 0
-2408 -2411 0
-2408 -2412 0
-2408 -2413 0
-2408 -2414 0
-2408 -2415 0
-2408 -2416 0
-2408 -2417 0
-2408 -2418 0
-2408 -2419 0
-2408 -2420 0
-2408 -2421 0
-2408 -2422 0
-2408 -2423 0
-2408 -2424 0
-2408 -2425 0
-2408 -2426 0
-2408 -2427 0
-2408 -2428 0
-2408 -2429 0
-2408 -2430 0
-2408 -2431 0
-2408 -2432 0
-2408 -2433 0
-2408 -2434 0
-2408 -2435 0
-2408 -2436 0
-2408 -2437 0
-2408 -2438 0
-2408 -2439 0
-2408 -2440 0
-2408 -2441 0
-2408 -2442 0
-2408 -2443 0
-2408 -2444 0
-2408 -2445 0
-2408 -2446 0
-2408 -2447 0
-2408 -2448 0
-2408 -2449 0
-2408 -2450 0
-2408 -2451 0
-2408 -2452 0
-2408 -2453 0
-2408 -2454 0
-2408 -2455 0
-2408 -2456 0
-2408 -2457 0
-2408 -2458 0
-2408 -2459 0
-2408 -2460 0
-2408 -2461 0
-2408 -2462 0
-2408 -2463 0
-2408 -2464 0
-2408 -2465 0
-2408 -2466 0
-2408 -2467 0
-2408 -2468 0
-2408 -2469 0
-2408 -2470 0
-2408 -2471 0
-2408 -2472 0
-2408 -2473 0
-2408 -2474 0
-2408 -2475 0
-2408 -2476 0
-2409 -2410 0
-2409 -2411 0
-2409 -2412 0
-2409 -2413 0
-2409 -2414 0
-2409 -2415 0
-2409 -2416 0
-2409 -2417 0
-2409 -2418 0
-2409 -2419 0
-2409 -2420 0
-2409 -2421 0
-2409 -2422 0
-2409 -2423 0
-2409 -2424 0
-2409 -2425 0
-2409 -2426 0
-2409 -2427 0
-2409 -2428 0
-2409 -2429 0
-2409 -2430 0
-2409 -2431 0
-2409 -2432 0
-2409 -2433 0
-2409 -2434 0
-2409 -2435 0
-2409 -2436 0
-2409 -2437 0
-2409 -2438 0
-2409 -2439 0
-2409 -2440 0
-2409 -2441 0
-2409 -2442 0
-2409 -2443 0
-2409 -2444 0
-2409 -2445 0
-2409 -2446 0
-2409 -2447 0
-2409 -2448 0
-2409 -2449 0
-2409 -2450 0
-2409 -2451 0
-2409 -2452 0
-2409 -2453 0
-2409 -2454 0
-2409 -2455 0
-2409 -2456 0
-2409 -2457 0
-2409 -2458 0
-2409 -2459 0
-2409 -2460 0
-2409 -2461 0
-2409 -2462 0
-2409 -2463 0
-2409 -2464 0
-2409 -2465 0
-2409 -2466 0
-2409 -2467 0
-2409 -2468 0
-2409 -2469 0
-2409 -2470 0
-2409 -2471 0
-2409 -2472 0
-2409 -2473 0
-2409 -2474 0
-2409 -2475 0
-2409 -2476 0
-2410 -2411 0
-2410 -2412 0
-2410 -2413 0
-2410 -2414 0
-2410 -2415 0
-2410 -2416 0
-2410 -2417 0
-2410 -2418 0
-2410 -2419 0
-2410 -2420 0
-2410 -2421 0
-2410 -2422 0
-2410 -2423 0
-2410 -2424 0
-2410 -2425 0
-2410 -2426 0
-2410 -2427 0
-2410 -2428 0
-2410 -2429 0
-2410 -2430 0
-2410 -2431 0
-2410 -2432 0
-2410 -2433 0
-2410 -2434 0
-2410 -2435 0
-2410 -2436 0
-2410 -2437 0
-2410 -2438 0
-2410 -2439 0
-2410 -2440 0
-2410 -2441 0
-2410 -2442 0
-2410 -2443 0
-2410 -2444 0
-2410 -2445 0
-2410 -2446 0
-2410 -2447 0
-2410 -2448 0
-2410 -2449 0
-2410 -2450 0
-2410 -2451 0
-2410 -2452 0
-2410 -2453 0
-2410 -2454 0
-2410 -2455 0
-2410 -2456 0
-2410 -2457 0
-2410 -2458 0
-2410 -2459 0
-2410 -2460 0
-2410 -2461 0
-2410 -2462 0
-2410 -2463 0
-2410 -2464 0
-2410 -2465 0
-2410 -2466 0
-2410 -2467 0
-2410 -2468 0
-2410 -2469 0
-2410 -2470 0
-2410 -2471 0
-2410 -2472 0
-2410 -2473 0
-2410 -2474 0
-2410 -2475 0
-2410 -2476 0
-2411 -2412 0
-2411 -2413 0
-2411 -2414 0
-2411 -2415 0
-2411 -2416 0
-2411 -2417 0
-2411 -2418 0
-2411 -2419 0
-2411 -2420 0
-2411 -2421 0
-2411 -2422 0
-2411 -2423 0
-2411 -2424 0
-2411 -2425 0
-2411 -2426 0
-2411 -2427 0
-2411 -2428 0
-2411 -2429 0
-2411 -2430 0
-2411 -2431 0
-2411 -2432 0
-2411 -2433 0
-2411 -2434 0
-2411 -2435 0
-2411 -2436 0
-2411 -2437 0
-2411 -2438 0
-2411 -2439 0
-2411 -2440 0
-2411 -2441 0
-2411 -2442 0
-2411 -2443 0
-2411 -2444 0
-2411 -2445 0
-2411 -2446 0
-2411 -2447 0
-2411 -2448 0
-2411 -2449 0
-2411 -2450 0
-2411 -2451 0
-2411 -2452 0
-2411 -2453 0
-2411 -2454 0
-2411 -2455 0
-2411 -2456 0
-2411 -2457 0
-2411 -2458 0
-2411 -2459 0
-2411 -2460 0
-2411 -2461 0
-2411 -2462 0
-2411 -2463 0
-2411 -2464 0
-2411 -2465 0
-2411 -2466 0
-2411 -2467 0
-2411 -2468 0
-2411 -2469 0
-2411 -2470 0
-2411 -2471 0
-2411 -2472 0
-2411 -2473 0
-2411 -2474 0
-2411 -2475 0
-2411 -2476 0
-2412 -2413 0
-2412 -2414 0
-2412 -2415 0
-2412 -2416 0
-2412 -2417 0
-2412 -2418 0
-2412 -2419 0
-2412 -2420 0
-2412 -2421 0
-2412 -2422 0
-2412 -2423 0
-2412 -2424 0
-2412 -2425 0
-2412 -2426 0
-2412 -2427 0
-2412 -2428 0
-2412 -2429 0
-2412 -2430 0
-2412 -2431 0
-2412 -2432 0
-2412 -2433 0
-2412 -2434 0
-2412 -2435 0
-2412 -2436 0
-2412 -2437 0
-2412 -2438 0
-2412 -2439 0
-2412 -2440 0
-2412 -2441 0
-2412 -2442 0
-2412 -2443 0
-2412 -2444 0
-2412 -2445 0
-2412 -2446 0
-2412 -2447 0
-2412 -2448 0
-2412 -2449 0
-2412 -2450 0
-2412 -2451 0
-2412 -2452 0
-2412 -2453 0
-2412 -2454 0
-2412 -2455 0
-2412 -2456 0
-2412 -2457 0
-2412 -2458 0
-2412 -2459 0
-2412 -2460 0
-2412 -2461 0
-2412 -2462 0
-2412 -2463 0
-2412 -2464 0
-2412 -2465 0
-2412 -2466 0
-2412 -2467 0
-2412 -2468 0
-2412 -2469 0
-2412 -2470 0
-2412 -2471 0
-2412 -2472 0
-2412 -2473 0
-2412 -2474 0
-2412 -2475 0
-2412 -2476 0
-2413 -2414 0
-2413 -2415 0
-2413 -2416 0
-2413 -2417 0
-2413 -2418 0
-2413 -2419 0
-2413 -2420 0
-2413 -2421 0
-2413 -2422 0
-2413 -2423 0
-2413 -2424 0
-2413 -2425 0
-2413 -2426 0
-2413 -2427 0
-2413 -2428 0
-2413 -2429 0
-2413 -2430 0
-2413 -2431 0
-2413 -2432 0
-2413 -2433 0
-2413 -2434 0
-2413 -2435 0
-2413 -2436 0
-2413 -2437 0
-2413 -2438 0
-2413 -2439 0
-2413 -2440 0
-2413 -2441 0
-2413 -2442 0
-2413 -2443 0
-2413 -2444 0
-2413 -2445 0
-2413 -2446 0
-2413 -2447 0
-2413 -2448 0
-2413 -2449 0
-2413 -2450 0
-2413 -2451 0
-2413 -2452 0
-2413 -2453 0
-2413 -2454 0
-2413 -2455 0
-2413 -2456 0
-2413 -2457 0
-2413 -2458 0
-2413 -2459 0
-2413 -2460 0
-2413 -2461 0
-2413 -2462 0
-2413 -2463 0
-2413 -2464 0
-2413 -2465 0
-2413 -2466 0
-2413 -2467 0
-2413 -2468 0
-2413 -2469 0
-2413 -2470 0
-2413 -2471 0
-2413 -2472 0
-2413 -2473 0
-2413 -2474 0
-2413 -2475 0
-2413 -2476 0
-2414 -2415 0
-2414 -2416 0
-2414 -2417 0
-2414 -2418 0
-2414 -2419 0
-2414 -2420 0
-2414 -2421 0
-2414 -2422 0
-2414 -2423 0
-2414 -2424 0
-2414 -2425 0
-2414 -2426 0
-2414 -2427 0
-2414 -2428 0
-2414 -2429 0
-2414 -2430 0
-2414 -2431 0
-2414 -2432 0
-2414 -2433 0
-2414 -2434 0
-2414 -2435 0
-2414 -2436 0
-2414 -2437 0
-2414 -2438 0
-2414 -2439 0
-2414 -2440 0
-2414 -2441 0
-2414 -2442 0
-2414 -2443 0
-2414 -2444 0
-2414 -2445 0
-2414 -2446 0
-2414 -2447 0
-2414 -2448 0
-2414 -2449 0
-2414 -2450 0
-2414 -2451 0
-2414 -2452 0
-2414 -2453 0
-2414 -2454 0
-2414 -2455 0
-2414 -2456 0
-2414 -2457 0
-2414 -2458 0
-2414 -2459 0
-2414 -2460 0
-2414 -2461 0
-2414 -2462 0
-2414 -2463 0
-2414 -2464 0
-2414 -2465 0
-2414 -2466 0
-2414 -2467 0
-2414 -2468 0
-2414 -2469 0
-2414 -2470 0
-2414 -2471 0
-2414 -2472 0
-2414 -2473 0
-2414 -2474 0
-2414 -2475 0
-2414 -2476 0
-2415 -2416 0
-2415 -2417 0
-2415 -2418 0
-2415 -2419 0
-2415 -2420 0
-2415 -2421 0
-2415 -2422 0
-2415 -2423 0
-2415 -2424 0
-2415 -2425 0
-2415 -2426 0
-2415 -2427 0
-2415 -2428 0
-2415 -2429 0
-2415 -2430 0
-2415 -2431 0
-2415 -2432 0
-2415 -2433 0
-2415 -2434 0
-2415 -2435 0
-2415 -2436 0
-2415 -2437 0
-2415 -2438 0
-2415 -2439 0
-2415 -2440 0
-2415 -2441 0
-2415 -2442 0
-2415 -2443 0
-2415 -2444 0
-2415 -2445 0
-2415 -2446 0
-2415 -2447 0
-2415 -2448 0
-2415 -2449 0
-2415 -2450 0
-2415 -2451 0
-2415 -2452 0
-2415 -2453 0
-2415 -2454 0
-2415 -2455 0
-2415 -2456 0
-2415 -2457 0
-2415 -2458 0
-2415 -2459 0
-2415 -2460 0
-2415 -2461 0
-2415 -2462 0
-2415 -2463 0
-2415 -2464 0
-2415 -2465 0
-2415 -2466 0
-2415 -2467 0
-2415 -2468 0
-2415 -2469 0
-2415 -2470 0
-2415 -2471 0
-2415 -2472 0
-2415 -2473 0
-2415 -2474 0
-2415 -2475 0
-2415 -2476 0
-2416 -2417 0
-2416 -2418 0
-2416 -2419 0
-2416 -2420 0
-2416 -2421 0
-2416 -2422 0
-2416 -2423 0
-2416 -2424 0
-2416 -2425 0
-2416 -2426 0
-2416 -2427 0
-2416 -2428 0
-2416 -2429 0
-2416 -2430 0
-2416 -2431 0
-2416 -2432 0
-2416 -2433 0
-2416 -2434 0
-2416 -2435 0
-2416 -2436 0
-2416 -2437 0
-2416 -2438 0
-2416 -2439 0
-2416 -2440 0
-2416 -2441 0
-2416 -2442 0
-2416 -2443 0
-2416 -2444 0
-2416 -2445 0
-2416 -2446 0
-2416 -2447 0
-2416 -2448 0
-2416 -2449 0
-2416 -2450 0
-2416 -2451 0
-2416 -2452 0
-2416 -2453 0
-2416 -2454 0
-2416 -2455 0
-2416 -2456 0
-2416 -2457 0
-2416 -2458 0
-2416 -2459 0
-2416 -2460 0
-2416 -2461 0
-2416 -2462 0
-2416 -2463 0
-2416 -2464 0
-2416 -2465 0
-2416 -2466 0
-2416 -2467 0
-2416 -2468 0
-2416 -2469 0
-2416 -2470 0
-2416 -2471 0
-2416 -2472 0
-2416 -2473 0
-2416 -2474 0
-2416 -2475 0
-2416 -2476 0
-2417 -2418 0
-2417 -2419 0
-2417 -2420 0
-2417 -2421 0
-2417 -2422 0
-2417 -2423 0
-2417 -2424 0
-2417 -2425 0
-2417 -2426 0
-2417 -2427 0
-2417 -2428 0
-2417 -2429 0
-2417 -2430 0
-2417 -2431 0
-2417 -2432 0
-2417 -2433 0
-2417 -2434 0
-2417 -2435 0
-2417 -2436 0
-2417 -2437 0
-2417 -2438 0
-2417 -2439 0
-2417 -2440 0
-2417 -2441 0
-2417 -2442 0
-2417 -2443 0
-2417 -2444 0
-2417 -2445 0
-2417 -2446 0
-2417 -2447 0
-2417 -2448 0
-2417 -2449 0
-2417 -2450 0
-2417 -2451 0
-2417 -2452 0
-2417 -2453 0
-2417 -2454 0
-2417 -2455 0
-2417 -2456 0
-2417 -2457 0
-2417 -2458 0
-2417 -2459 0
-2417 -2460 0
-2417 -2461 0
-2417 -2462 0
-2417 -2463 0
-2417 -2464 0
-2417 -2465 0
-2417 -2466 0
-2417 -2467 0
-2417 -2468 0
-2417 -2469 0
-2417 -2470 0
-2417 -2471 0
-2417 -2472 0
-2417 -2473 0
-2417 -2474 0
-2417 -2475 0
-2417 -2476 0
-2418 -2419 0
-2418 -2420 0
-2418 -2421 0
-2418 -2422 0
-2418 -2423 0
-2418 -2424 0
-2418 -2425 0
-2418 -2426 0
-2418 -2427 0
-2418 -2428 0
-2418 -2429 0
-2418 -2430 0
-2418 -2431 0
-2418 -2432 0
-2418 -2433 0
-2418 -2434 0
-2418 -2435 0
-2418 -2436 0
-2418 -2437 0
-2418 -2438 0
-2418 -2439 0
-2418 -2440 0
-2418 -2441 0
-2418 -2442 0
-2418 -2443 0
-2418 -2444 0
-2418 -2445 0
-2418 -2446 0
-2418 -2447 0
-2418 -2448 0
-2418 -2449 0
-2418 -2450 0
-2418 -2451 0
-2418 -2452 0
-2418 -2453 0
-2418 -2454 0
-2418 -2455 0
-2418 -2456 0
-2418 -2457 0
-2418 -2458 0
-2418 -2459 0
-2418 -2460 0
-2418 -2461 0
-2418 -2462 0
-2418 -2463 0
-2418 -2464 0
-2418 -2465 0
-2418 -2466 0
-2418 -2467 0
-2418 -2468 0
-2418 -2469 0
-2418 -2470 0
-2418 -2471 0
-2418 -2472 0
-2418 -2473 0
-2418 -2474 0
-2418 -2475 0
-2418 -2476 0
-2419 -2420 0
-2419 -2421 0
-2419 -2422 0
-2419 -2423 0
-2419 -2424 0
-2419 -2425 0
-2419 -2426 0
-2419 -2427 0
-2419 -2428 0
-2419 -2429 0
-2419 -2430 0
-2419 -2431 0
-2419 -2432 0
-2419 -2433 0
-2419 -2434 0
-2419 -2435 0
-2419 -2436 0
-2419 -2437 0
-2419 -2438 0
-2419 -2439 0
-2419 -2440 0
-2419 -2441 0
-2419 -2442 0
-2419 -2443 0
-2419 -2444 0
-2419 -2445 0
-2419 -2446 0
-2419 -2447 0
-2419 -2448 0
-2419 -2449 0
-2419 -2450 0
-2419 -2451 0
-2419 -2452 0
-2419 -2453 0
-2419 -2454 0
-2419 -2455 0
-2419 -2456 0
-2419 -2457 0
-2419 -2458 0
-2419 -2459 0
-2419 -2460 0
-2419 -2461 0
-2419 -2462 0
-2419 -2463 0
-2419 -2464 0
-2419 -2465 0
-2419 -2466 0
-2419 -2467 0
-2419 -2468 0
-2419 -2469 0
-2419 -2470 0
-2419 -2471 0
-2419 -2472 0
-2419 -2473 0
-2419 -2474 0
-2419 -2475 0
-2419 -2476 0
-2420 -2421 0
-2420 -2422 0
-2420 -2423 0
-2420 -2424 0
-2420 -2425 0
-2420 -2426 0
-2420 -2427 0
-2420 -2428 0
-2420 -2429 0
-2420 -2430 0
-2420 -2431 0
-2420 -2432 0
-2420 -2433 0
-2420 -2434 0
-2420 -2435 0
-2420 -2436 0
-2420 -2437 0
-2420 -2438 0
-2420 -2439 0
-2420 -2440 0
-2420 -2441 0
-2420 -2442 0
-2420 -2443 0
-2420 -2444 0
-2420 -2445 0
-2420 -2446 0
-2420 -2447 0
-2420 -2448 0
-2420 -2449 0
-2420 -2450 0
-2420 -2451 0
-2420 -2452 0
-2420 -2453 0
-2420 -2454 0
-2420 -2455 0
-2420 -2456 0
-2420 -2457 0
-2420 -2458 0
-2420 -2459 0
-2420 -2460 0
-2420 -2461 0
-2420 -2462 0
-2420 -2463 0
-2420 -2464 0
-2420 -2465 0
-2420 -2466 0
-2420 -2467 0
-2420 -2468 0
-2420 -2469 0
-2420 -2470 0
-2420 -2471 0
-2420 -2472 0
-2420 -2473 0
-2420 -2474 0
-2420 -2475 0
-2420 -2476 0
-2421 -2422 0
-2421 -2423 0
-2421 -2424 0
-2421 -2425 0
-2421 -2426 0
-2421 -2427 0
-2421 -2428 0
-2421 -2429 0
-2421 -2430 0
-2421 -2431 0
-2421 -2432 0
-2421 -2433 0
-2421 -2434 0
-2421 -2435 0
-2421 -2436 0
-2421 -2437 0
-2421 -2438 0
-2421 -2439 0
-2421 -2440 0
-2421 -2441 0
-2421 -2442 0
-2421 -2443 0
-2421 -2444 0
-2421 -2445 0
-2421 -2446 0
-2421 -2447 0
-2421 -2448 0
-2421 -2449 0
-2421 -2450 0
-2421 -2451 0
-2421 -2452 0
-2421 -2453 0
-2421 -2454 0
-2421 -2455 0
-2421 -2456 0
-2421 -2457 0
-2421 -2458 0
-2421 -2459 0
-2421 -2460 0
-2421 -2461 0
-2421 -2462 0
-2421 -2463 0
-2421 -2464 0
-2421 -2465 0
-2421 -2466 0
-2421 -2467 0
-2421 -2468 0
-2421 -2469 0
-2421 -2470 0
-2421 -2471 0
-2421 -2472 0
-2421 -2473 0
-2421 -2474 0
-2421 -2475 0
-2421 -2476 0
-2422 -2423 0
-2422 -2424 0
-2422 -2425 0
-2422 -2426 0
-2422 -2427 0
-2422 -2428 0
-2422 -2429 0
-2422 -2430 0
-2422 -2431 0
-2422 -2432 0
-2422 -2433 0
-2422 -2434 0
-2422 -2435 0
-2422 -2436 0
-2422 -2437 0
-2422 -2438 0
-2422 -2439 0
-2422 -2440 0
-2422 -2441 0
-2422 -2442 0
-2422 -2443 0
-2422 -2444 0
-2422 -2445 0
-2422 -2446 0
-2422 -2447 0
-2422 -2448 0
-2422 -2449 0
-2422 -2450 0
-2422 -2451 0
-2422 -2452 0
-2422 -2453 0
-2422 -2454 0
-2422 -2455 0
-2422 -2456 0
-2422 -2457 0
-2422 -2458 0
-2422 -2459 0
-2422 -2460 0
-2422 -2461 0
-2422 -2462 0
-2422 -2463 0
-2422 -2464 0
-2422 -2465 0
-2422 -2466 0
-2422 -2467 0
-2422 -2468 0
-2422 -2469 0
-2422 -2470 0
-2422 -2471 0
-2422 -2472 0
-2422 -2473 0
-2422 -2474 0
-2422 -2475 0
-2422 -2476 0
-2423 -2424 0
-2423 -2425 0
-2423 -2426 0
-2423 -2427 0
-2423 -2428 0
-2423 -2429 0
-2423 -2430 0
-2423 -2431 0
-2423 -2432 0
-2423 -2433 0
-2423 -2434 0
-2423 -2435 0
-2423 -2436 0
-2423 -2437 0
-2423 -2438 0
-2423 -2439 0
-2423 -2440 0
-2423 -2441 0
-2423 -2442 0
-2423 -2443 0
-2423 -2444 0
-2423 -2445 0
-2423 -2446 0
-2423 -2447 0
-2423 -2448 0
-2423 -2449 0
-2423 -2450 0
-2423 -2451 0
-2423 -2452 0
-2423 -2453 0
-2423 -2454 0
-2423 -2455 0
-2423 -2456 0
-2423 -2457 0
-2423 -2458 0
-2423 -2459 0
-2423 -2460 0
-2423 -2461 0
-2423 -2462 0
-2423 -2463 0
-2423 -2464 0
-2423 -2465 0
-2423 -2466 0
-2423 -2467 0
-2423 -2468 0
-2423 -2469 0
-2423 -2470 0
-2423 -2471 0
-2423 -2472 0
-2423 -2473 0
-2423 -2474 0
-2423 -2475 0
-2423 -2476 0
-2424 -2425 0
-2424 -2426 0
-2424 -2427 0
-2424 -2428 0
-2424 -2429 0
-2424 -2430 0
-2424 -2431 0
-2424 -2432 0
-2424 -2433 0
-2424 -2434 0
-2424 -2435 0
-2424 -2436 0
-2424 -2437 0
-2424 -2438 0
-2424 -2439 0
-2424 -2440 0
-2424 -2441 0
-2424 -2442 0
-2424 -2443 0
-2424 -2444 0
-2424 -2445 0
-2424 -2446 0
-2424 -2447 0
-2424 -2448 0
-2424 -2449 0
-2424 -2450 0
-2424 -2451 0
-2424 -2452 0
-2424 -2453 0
-2424 -2454 0
-2424 -2455 0
-2424 -2456 0
-2424 -2457 0
-2424 -2458 0
-2424 -2459 0
-2424 -2460 0
-2424 -2461 0
-2424 -2462 0
-2424 -2463 0
-2424 -2464 0
-2424 -2465 0
-2424 -2466 0
-2424 -2467 0
-2424 -2468 0
-2424 -2469 0
-2424 -2470 0
-2424 -2471 0
-2424 -2472 0
-2424 -2473 0
-2424 -2474 0
-2424 -2475 0
-2424 -2476 0
-2425 -2426 0
-2425 -2427 0
-2425 -2428 0
-2425 -2429 0
-2425 -2430 0
-2425 -2431 0
-2425 -2432 0
-2425 -2433 0
-2425 -2434 0
-2425 -2435 0
-2425 -2436 0
-2425 -2437 0
-2425 -2438 0
-2425 -2439 0
-2425 -2440 0
-2425 -2441 0
-2425 -2442 0
-2425 -2443 0
-2425 -2444 0
-2425 -2445 0
-2425 -2446 0
-2425 -2447 0
-2425 -2448 0
-2425 -2449 0
-2425 -2450 0
-2425 -2451 0
-2425 -2452 0
-2425 -2453 0
-2425 -2454 0
-2425 -2455 0
-2425 -2456 0
-2425 -2457 0
-2425 -2458 0
-2425 -2459 0
-2425 -2460 0
-2425 -2461 0
-2425 -2462 0
-2425 -2463 0
-2425 -2464 0
-2425 -2465 0
-2425 -2466 0
-2425 -2467 0
-2425 -2468 0
-2425 -2469 0
-2425 -2470 0
-2425 -2471 0
-2425 -2472 0
-2425 -2473 0
-2425 -2474 0
-2425 -2475 0
-2425 -2476 0
-2426 -2427 0
-2426 -2428 0
-2426 -2429 0
-2426 -2430 0
-2426 -2431 0
-2426 -2432 0
-2426 -2433 0
-2426 -2434 0
-2426 -2435 0
-2426 -2436 0
-2426 -2437 0
-2426 -2438 0
-2426 -2439 0
-2426 -2440 0
-2426 -2441 0
-2426 -2442 0
-2426 -2443 0
-2426 -2444 0
-2426 -2445 0
-2426 -2446 0
-2426 -2447 0
-2426 -2448 0
-2426 -2449 0
-2426 -2450 0
-2426 -2451 0
-2426 -2452 0
-2426 -2453 0
-2426 -2454 0
-2426 -2455 0
-2426 -2456 0
-2426 -2457 0
-2426 -2458 0
-2426 -2459 0
-2426 -2460 0
-2426 -2461 0
-2426 -2462 0
-2426 -2463 0
-2426 -2464 0
-2426 -2465 0
-2426 -2466 0
-2426 -2467 0
-2426 -2468 0
-2426 -2469 0
-2426 -2470 0
-2426 -2471 0
-2426 -2472 0
-2426 -2473 0
-2426 -2474 0
-2426 -2475 0
-2426 -2476 0
-2427 -2428 0
-2427 -2429 0
-2427 -2430 0
-2427 -2431 0
-2427 -2432 0
-2427 -2433 0
-2427 -2434 0
-2427 -2435 0
-2427 -2436 0
-2427 -2437 0
-2427 -2438 0
-2427 -2439 0
-2427 -2440 0
-2427 -2441 0
-2427 -2442 0
-2427 -2443 0
-2427 -2444 0
-2427 -2445 0
-2427 -2446 0
-2427 -2447 0
-2427 -2448 0
-2427 -2449 0
-2427 -2450 0
-2427 -2451 0
-2427 -2452 0
-2427 -2453 0
-2427 -2454 0
-2427 -2455 0
-2427 -2456 0
-2427 -2457 0
-2427 -2458 0
-2427 -2459 0
-2427 -2460 0
-2427 -2461 0
-2427 -2462 0
-2427 -2463 0
-2427 -2464 0
-2427 -2465 0
-2427 -2466 0
-2427 -2467 0
-2427 -2468 0
-2427 -2469 0
-2427 -2470 0
-2427 -2471 0
-2427 -2472 0
-2427 -2473 0
-2427 -2474 0
-2427 -2475 0
-2427 -2476 0
-2428 -2429 0
-2428 -2430 0
-2428 -2431 0
-2428 -2432 0
-2428 -2433 0
-2428 -2434 0
-2428 -2435 0
-2428 -2436 0
-2428 -2437 0
-2428 -2438 0
-2428 -2439 0
-2428 -2440 0
-2428 -2441 0
-2428 -2442 0
-2428 -2443 0
-2428 -2444 0
-2428 -2445 0
-2428 -2446 0
-2428 -2447 0
-2428 -2448 0
-2428 -2449 0
-2428 -2450 0
-2428 -2451 0
-2428 -2452 0
-2428 -2453 0
-2428 -2454 0
-2428 -2455 0
-2428 -2456 0
-2428 -2457 0
-2428 -2458 0
-2428 -2459 0
-2428 -2460 0
-2428 -2461 0
-2428 -2462 0
-2428 -2463 0
-2428 -2464 0
-2428 -2465 0
-2428 -2466 0
-2428 -2467 0
-2428 -2468 0
-2428 -2469 0
-2428 -2470 0
-2428 -2471 0
-2428 -2472 0
-2428 -2473 0
-2428 -2474 0
-2428 -2475 0
-2428 -2476 0
-2429 -2430 0
-2429 -2431 0
-2429 -2432 0
-2429 -2433 0
-2429 -2434 0
-2429 -2435 0
-2429 -2436 0
-2429 -2437 0
-2429 -2438 0
-2429 -2439 0
-2429 -2440 0
-2429 -2441 0
-2429 -2442 0
-2429 -2443 0
-2429 -2444 0
-2429 -2445 0
-2429 -2446 0
-2429 -2447 0
-2429 -2448 0
-2429 -2449 0
-2429 -2450 0
-2429 -2451 0
-2429 -2452 0
-2429 -2453 0
-2429 -2454 0
-2429 -2455 0
-2429 -2456 0
-2429 -2457 0
-2429 -2458 0
-2429 -2459 0
-2429 -2460 0
-2429 -2461 0
-2429 -2462 0
-2429 -2463 0
-2429 -2464 0
-2429 -2465 0
-2429 -2466 0
-2429 -2467 0
-2429 -2468 0
-2429 -2469 0
-2429 -2470 0
-2429 -2471 0
-2429 -2472 0
-2429 -2473 0
-2429 -2474 0
-2429 -2475 0
-2429 -2476 0
-2430 -2431 0
-2430 -2432 0
-2430 -2433 0
-2430 -2434 0
-2430 -2435 0
-2430 -2436 0
-2430 -2437 0
-2430 -2438 0
-2430 -2439 0
-2430 -2440 0
-2430 -2441 0
-2430 -2442 0
-2430 -2443 0
-2430 -2444 0
-2430 -2445 0
-2430 -2446 0
-2430 -2447 0
-2430 -2448 0
-2430 -2449 0
-2430 -2450 0
-2430 -2451 0
-2430 -2452 0
-2430 -2453 0
-2430 -2454 0
-2430 -2455 0
-2430 -2456 0
-2430 -2457 0
-2430 -2458 0
-2430 -2459 0
-2430 -2460 0
-2430 -2461 0
-2430 -2462 0
-2430 -2463 0
-2430 -2464 0
-2430 -2465 0
-2430 -2466 0
-2430 -2467 0
-2430 -2468 0
-2430 -2469 0
-2430 -2470 0
-2430 -2471 0
-2430 -2472 0
-2430 -2473 0
-2430 -2474 0
-2430 -2475 0
-2430 -2476 0
-2431 -2432 0
-2431 -2433 0
-2431 -2434 0
-2431 -2435 0
-2431 -2436 0
-2431 -2437 0
-2431 -2438 0
-2431 -2439 0
-2431 -2440 0
-2431 -2441 0
-2431 -2442 0
-2431 -2443 0
-2431 -2444 0
-2431 -2445 0
-2431 -2446 0
-2431 -2447 0
-2431 -2448 0
-2431 -2449 0
-2431 -2450 0
-2431 -2451 0
-2431 -2452 0
-2431 -2453 0
-2431 -2454 0
-2431 -2455 0
-2431 -2456 0
-2431 -2457 0
-2431 -2458 0
-2431 -2459 0
-2431 -2460 0
-2431 -2461 0
-2431 -2462 0
-2431 -2463 0
-2431 -2464 0
-2431 -2465 0
-2431 -2466 0
-2431 -2467 0
-2431 -2468 0
-2431 -2469 0
-2431 -2470 0
-2431 -2471 0
-2431 -2472 0
-2431 -2473 0
-2431 -2474 0
-2431 -2475 0
-2431 -2476 0
-2432 -2433 0
-2432 -2434 0
-2432 -2435 0
-2432 -2436 0
-2432 -2437 0
-2432 -2438 0
-2432 -2439 0
-2432 -2440 0
-2432 -2441 0
-2432 -2442 0
-2432 -2443 0
-2432 -2444 0
-2432 -2445 0
-2432 -2446 0
-2432 -2447 0
-2432 -2448 0
-2432 -2449 0
-2432 -2450 0
-2432 -2451 0
-2432 -2452 0
-2432 -2453 0
-2432 -2454 0
-2432 -2455 0
-2432 -2456 0
-2432 -2457 0
-2432 -2458 0
-2432 -2459 0
-2432 -2460 0
-2432 -2461 0
-2432 -2462 0
-2432 -2463 0
-2432 -2464 0
-2432 -2465 0
-2432 -2466 0
-2432 -2467 0
-2432 -2468 0
-2432 -2469 0
-2432 -2470 0
-2432 -2471 0
-2432 -2472 0
-2432 -2473 0
-2432 -2474 0
-2432 -2475 0
-2432 -2476 0
-2433 -2434 0
-2433 -2435 0
-2433 -2436 0
-2433 -2437 0
-2433 -2438 0
-2433 -2439 0
-2433 -2440 0
-2433 -2441 0
-2433 -2442 0
-2433 -2443 0
-2433 -2444 0
-2433 -2445 0
-2433 -2446 0
-2433 -2447 0
-2433 -2448 0
-2433 -2449 0
-2433 -2450 0
-2433 -2451 0
-2433 -2452 0
-2433 -2453 0
-2433 -2454 0
-2433 -2455 0
-2433 -2456 0
-2433 -2457 0
-2433 -2458 0
-2433 -2459 0
-2433 -2460 0
-2433 -2461 0
-2433 -2462 0
-2433 -2463 0
-2433 -2464 0
-2433 -2465 0
-2433 -2466 0
-2433 -2467 0
-2433 -2468 0
-2433 -2469 0
-2433 -2470 0
-2433 -2471 0
-2433 -2472 0
-2433 -2473 0
-2433 -2474 0
-2433 -2475 0
-2433 -2476 0
-2434 -2435 0
-2434 -2436 0
-2434 -2437 0
-2434 -2438 0
-2434 -2439 0
-2434 -2440 0
-2434 -2441 0
-2434 -2442 0
-2434 -2443 0
-2434 -2444 0
-2434 -2445 0
-2434 -2446 0
-2434 -2447 0
-2434 -2448 0
-2434 -2449 0
-2434 -2450 0
-2434 -2451 0
-2434 -2452 0
-2434 -2453 0
-2434 -2454 0
-2434 -2455 0
-2434 -2456 0
-2434 -2457 0
-2434 -2458 0
-2434 -2459 0
-2434 -2460 0
-2434 -2461 0
-2434 -2462 0
-2434 -2463 0
-2434 -2464 0
-2434 -2465 0
-2434 -2466 0
-2434 -2467 0
-2434 -2468 0
-2434 -2469 0
-2434 -2470 0
-2434 -2471 0
-2434 -2472 0
-2434 -2473 0
-2434 -2474 0
-2434 -2475 0
-2434 -2476 0
-2435 -2436 0
-2435 -2437 0
-2435 -2438 0
-2435 -2439 0
-2435 -2440 0
-2435 -2441 0
-2435 -2442 0
-2435 -2443 0
-2435 -2444 0
-2435 -2445 0
-2435 -2446 0
-2435 -2447 0
-2435 -2448 0
-2435 -2449 0
-2435 -2450 0
-2435 -2451 0
-2435 -2452 0
-2435 -2453 0
-2435 -2454 0
-2435 -2455 0
-2435 -2456 0
-2435 -2457 0
-2435 -2458 0
-2435 -2459 0
-2435 -2460 0
-2435 -2461 0
-2435 -2462 0
-2435 -2463 0
-2435 -2464 0
-2435 -2465 0
-2435 -2466 0
-2435 -2467 0
-2435 -2468 0
-2435 -2469 0
-2435 -2470 0
-2435 -2471 0
-2435 -2472 0
-2435 -2473 0
-2435 -2474 0
-2435 -2475 0
-2435 -2476 0
-2436 -2437 0
-2436 -2438 0
-2436 -2439 0
-2436 -2440 0
-2436 -2441 0
-2436 -2442 0
-2436 -2443 0
-2436 -2444 0
-2436 -2445 0
-2436 -2446 0
-2436 -2447 0
-2436 -2448 0
-2436 -2449 0
-2436 -2450 0
-2436 -2451 0
-2436 -2452 0
-2436 -2453 0
-2436 -2454 0
-2436 -2455 0
-2436 -2456 0
-2436 -2457 0
-2436 -2458 0
-2436 -2459 0
-2436 -2460 0
-2436 -2461 0
-2436 -2462 0
-2436 -2463 0
-2436 -2464 0
-2436 -2465 0
-2436 -2466 0
-2436 -2467 0
-2436 -2468 0
-2436 -2469 0
-2436 -2470 0
-2436 -2471 0
-2436 -2472 0
-2436 -2473 0
-2436 -2474 0
-2436 -2475 0
-2436 -2476 0
-2437 -2438 0
-2437 -2439 0
-2437 -2440 0
-2437 -2441 0
-2437 -2442 0
-2437 -2443 0
-2437 -2444 0
-2437 -2445 0
-2437 -2446 0
-2437 -2447 0
-2437 -2448 0
-2437 -2449 0
-2437 -2450 0
-2437 -2451 0
-2437 -2452 0
-2437 -2453 0
-2437 -2454 0
-2437 -2455 0
-2437 -2456 0
-2437 -2457 0
-2437 -2458 0
-2437 -2459 0
-2437 -2460 0
-2437 -2461 0
-2437 -2462 0
-2437 -2463 0
-2437 -2464 0
-2437 -2465 0
-2437 -2466 0
-2437 -2467 0
-2437 -2468 0
-2437 -2469 0
-2437 -2470 0
-2437 -2471 0
-2437 -2472 0
-2437 -2473 0
-2437 -2474 0
-2437 -2475 0
-2437 -2476 0
-2438 -2439 0
-2438 -2440 0
-2438 -2441 0
-2438 -2442 0
-2438 -2443 0
-2438 -2444 0
-2438 -2445 0
-2438 -2446 0
-2438 -2447 0
-2438 -2448 0
-2438 -2449 0
-2438 -2450 0
-2438 -2451 0
-2438 -2452 0
-2438 -2453 0
-2438 -2454 0
-2438 -2455 0
-2438 -2456 0
-2438 -2457 0
-2438 -2458 0
-2438 -2459 0
-2438 -2460 0
-2438 -2461 0
-2438 -2462 0
-2438 -2463 0
-2438 -2464 0
-2438 -2465 0
-2438 -2466 0
-2438 -2467 0
-2438 -2468 0
-2438 -2469 0
-2438 -2470 0
-2438 -2471 0
-2438 -2472 0
-2438 -2473 0
-2438 -2474 0
-2438 -2475 0
-2438 -2476 0
-2439 -2440 0
-2439 -2441 0
-2439 -2442 0
-2439 -2443 0
-2439 -2444 0
-2439 -2445 0
-2439 -2446 0
-2439 -2447 0
-2439 -2448 0
-2439 -2449 0
-2439 -2450 0
-2439 -2451 0
-2439 -2452 0
-2439 -2453 0
-2439 -2454 0
-2439 -2455 0
-2439 -2456 0
-2439 -2457 0
-2439 -2458 0
-2439 -2459 0
-2439 -2460 0
-2439 -2461 0
-2439 -2462 0
-2439 -2463 0
-2439 -2464 0
-2439 -2465 0
-2439 -2466 0
-2439 -2467 0
-2439 -2468 0
-2439 -2469 0
-2439 -2470 0
-2439 -2471 0
-2439 -2472 0
-2439 -2473 0
-2439 -2474 0
-2439 -2475 0
-2439 -2476 0
-2440 -2441 0
-2440 -2442 0
-2440 -2443 0
-2440 -2444 0
-2440 -2445 0
-2440 -2446 0
-2440 -2447 0
-2440 -2448 0
-2440 -2449 0
-2440 -2450 0
-2440 -2451 0
-2440 -2452 0
-2440 -2453 0
-2440 -2454 0
-2440 -2455 0
-2440 -2456 0
-2440 -2457 0
-2440 -2458 0
-2440 -2459 0
-2440 -2460 0
-2440 -2461 0
-2440 -2462 0
-2440 -2463 0
-2440 -2464 0
-2440 -2465 0
-2440 -2466 0
-2440 -2467 0
-2440 -2468 0
-2440 -2469 0
-2440 -2470 0
-2440 -2471 0
-2440 -2472 0
-2440 -2473 0
-2440 -2474 0
-2440 -2475 0
-2440 -2476 0
-2441 -2442 0
-2441 -2443 0
-2441 -2444 0
-2441 -2445 0
-2441 -2446 0
-2441 -2447 0
-2441 -2448 0
-2441 -2449 0
-2441 -2450 0
-2441 -2451 0
-2441 -2452 0
-2441 -2453 0
-2441 -2454 0
-2441 -2455 0
-2441 -2456 0
-2441 -2457 0
-2441 -2458 0
-2441 -2459 0
-2441 -2460 0
-2441 -2461 0
-2441 -2462 0
-2441 -2463 0
-2441 -2464 0
-2441 -2465 0
-2441 -2466 0
-2441 -2467 0
-2441 -2468 0
-2441 -2469 0
-2441 -2470 0
-2441 -2471 0
-2441 -2472 0
-2441 -2473 0
-2441 -2474 0
-2441 -2475 0
-2441 -2476 0
-2442 -2443 0
-2442 -2444 0
-2442 -2445 0
-2442 -2446 0
-2442 -2447 0
-2442 -2448 0
-2442 -2449 0
-2442 -2450 0
-2442 -2451 0
-2442 -2452 0
-2442 -2453 0
-2442 -2454 0
-2442 -2455 0
-2442 -2456 0
-2442 -2457 0
-2442 -2458 0
-2442 -2459 0
-2442 -2460 0
-2442 -2461 0
-2442 -2462 0
-2442 -2463 0
-2442 -2464 0
-2442 -2465 0
-2442 -2466 0
-2442 -2467 0
-2442 -2468 0
-2442 -2469 0
-2442 -2470 0
-2442 -2471 0
-2442 -2472 0
-2442 -2473 0
-2442 -2474 0
-2442 -2475 0
-2442 -2476 0
-2443 -2444 0
-2443 -2445 0
-2443 -2446 0
-2443 -2447 0
-2443 -2448 0
-2443 -2449 0
-2443 -2450 0
-2443 -2451 0
-2443 -2452 0
-2443 -2453 0
-2443 -2454 0
-2443 -2455 0
-2443 -2456 0
-2443 -2457 0
-2443 -2458 0
-2443 -2459 0
-2443 -2460 0
-2443 -2461 0
-2443 -2462 0
-2443 -2463 0
-2443 -2464 0
-2443 -2465 0
-2443 -2466 0
-2443 -2467 0
-2443 -2468 0
-2443 -2469 0
-2443 -2470 0
-2443 -2471 0
-2443 -2472 0
-2443 -2473 0
-2443 -2474 0
-2443 -2475 0
-2443 -2476 0
-2444 -2445 0
-2444 -2446 0
-2444 -2447 0
-2444 -2448 0
-2444 -2449 0
-2444 -2450 0
-2444 -2451 0
-2444 -2452 0
-2444 -2453 0
-2444 -2454 0
-2444 -2455 0
-2444 -2456 0
-2444 -2457 0
-2444 -2458 0
-2444 -2459 0
-2444 -2460 0
-2444 -2461 0
-2444 -2462 0
-2444 -2463 0
-2444 -2464 0
-2444 -2465 0
-2444 -2466 0
-2444 -2467 0
-2444 -2468 0
-2444 -2469 0
-2444 -2470 0
-2444 -2471 0
-2444 -2472 0
-2444 -2473 0
-2444 -2474 0
-2444 -2475 0
-2444 -2476 0
-2445 -2446 0
-2445 -2447 0
-2445 -2448 0
-2445 -2449 0
-2445 -2450 0
-2445 -2451 0
-2445 -2452 0
-2445 -2453 0
-2445 -2454 0
-2445 -2455 0
-2445 -2456 0
-2445 -2457 0
-2445 -2458 0
-2445 -2459 0
-2445 -2460 0
-2445 -2461 0
-2445 -2462 0
-2445 -2463 0
-2445 -2464 0
-2445 -2465 0
-2445 -2466 0
-2445 -2467 0
-2445 -2468 0
-2445 -2469 0
-2445 -2470 0
-2445 -2471 0
-2445 -2472 0
-2445 -2473 0
-2445 -2474 0
-2445 -2475 0
-2445 -2476 0
-2446 -2447 0
-2446 -2448 0
-2446 -2449 0
-2446 -2450 0
-2446 -2451 0
-2446 -2452 0
-2446 -2453 0
-2446 -2454 0
-2446 -2455 0
-2446 -2456 0
-2446 -2457 0
-2446 -2458 0
-2446 -2459 0
-2446 -2460 0
-2446 -2461 0
-2446 -2462 0
-2446 -2463 0
-2446 -2464 0
-2446 -2465 0
-2446 -2466 0
-2446 -2467 0
-2446 -2468 0
-2446 -2469 0
-2446 -2470 0
-2446 -2471 0
-2446 -2472 0
-2446 -2473 0
-2446 -2474 0
-2446 -2475 0
-2446 -2476 0
-2447 -2448 0
-2447 -2449 0
-2447 -2450 0
-2447 -2451 0
-2447 -2452 0
-2447 -2453 0
-2447 -2454 0
-2447 -2455 0
-2447 -2456 0
-2447 -2457 0
-2447 -2458 0
-2447 -2459 0
-2447 -2460 0
-2447 -2461 0
-2447 -2462 0
-2447 -2463 0
-2447 -2464 0
-2447 -2465 0
-2447 -2466 0
-2447 -2467 0
-2447 -2468 0
-2447 -2469 0
-2447 -2470 0
-2447 -2471 0
-2447 -2472 0
-2447 -2473 0
-2447 -2474 0
-2447 -2475 0
-2447 -2476 0
-2448 -2449 0
-2448 -2450 0
-2448 -2451 0
-2448 -2452 0
-2448 -2453 0
-2448 -2454 0
-2448 -2455 0
-2448 -2456 0
-2448 -2457 0
-2448 -2458 0
-2448 -2459 0
-2448 -2460 0
-2448 -2461 0
-2448 -2462 0
-2448 -2463 0
-2448 -2464 0
-2448 -2465 0
-2448 -2466 0
-2448 -2467 0
-2448 -2468 0
-2448 -2469 0
-2448 -2470 0
-2448 -2471 0
-2448 -2472 0
-2448 -2473 0
-2448 -2474 0
-2448 -2475 0
-2448 -2476 0
-2449 -2450 0
-2449 -2451 0
-2449 -2452 0
-2449 -2453 0
-2449 -2454 0
-2449 -2455 0
-2449 -2456 0
-2449 -2457 0
-2449 -2458 0
-2449 -2459 0
-2449 -2460 0
-2449 -2461 0
-2449 -2462 0
-2449 -2463 0
-2449 -2464 0
-2449 -2465 0
-2449 -2466 0
-2449 -2467 0
-2449 -2468 0
-2449 -2469 0
-2449 -2470 0
-2449 -2471 0
-2449 -2472 0
-2449 -2473 0
-2449 -2474 0
-2449 -2475 0
-2449 -2476 0
-2450 -2451 0
-2450 -2452 0
-2450 -2453 0
-2450 -2454 0
-2450 -2455 0
-2450 -2456 0
-2450 -2457 0
-2450 -2458 0
-2450 -2459 0
-2450 -2460 0
-2450 -2461 0
-2450 -2462 0
-2450 -2463 0
-2450 -2464 0
-2450 -2465 0
-2450 -2466 0
-2450 -2467 0
-2450 -2468 0
-2450 -2469 0
-2450 -2470 0
-2450 -2471 0
-2450 -2472 0
-2450 -2473 0
-2450 -2474 0
-2450 -2475 0
-2450 -2476 0
-2451 -2452 0
-2451 -2453 0
-2451 -2454 0
-2451 -2455 0
-2451 -2456 0
-2451 -2457 0
-2451 -2458 0
-2451 -2459 0
-2451 -2460 0
-2451 -2461 0
-2451 -2462 0
-2451 -2463 0
-2451 -2464 0
-2451 -2465 0
-2451 -2466 0
-2451 -2467 0
-2451 -2468 0
-2451 -2469 0
-2451 -2470 0
-2451 -2471 0
-2451 -2472 0
-2451 -2473 0
-2451 -2474 0
-2451 -2475 0
-2451 -2476 0
-2452 -2453 0
-2452 -2454 0
-2452 -2455 0
-2452 -2456 0
-2452 -2457 0
-2452 -2458 0
-2452 -2459 0
-2452 -2460 0
-2452 -2461 0
-2452 -2462 0
-2452 -2463 0
-2452 -2464 0
-2452 -2465 0
-2452 -2466 0
-2452 -2467 0
-2452 -2468 0
-2452 -2469 0
-2452 -2470 0
-2452 -2471 0
-2452 -2472 0
-2452 -2473 0
-2452 -2474 0
-2452 -2475 0
-2452 -2476 0
-2453 -2454 0
-2453 -2455 0
-2453 -2456 0
-2453 -2457 0
-2453 -2458 0
-2453 -2459 0
-2453 -2460 0
-2453 -2461 0
-2453 -2462 0
-2453 -2463 0
-2453 -2464 0
-2453 -2465 0
-2453 -2466 0
-2453 -2467 0
-2453 -2468 0
-2453 -2469 0
-2453 -2470 0
-2453 -2471 0
-2453 -2472 0
-2453 -2473 0
-2453 -2474 0
-2453 -2475 0
-2453 -2476 0
-2454 -2455 0
-2454 -2456 0
-2454 -2457 0
-2454 -2458 0
-2454 -2459 0
-2454 -2460 0
-2454 -2461 0
-2454 -2462 0
-2454 -2463 0
-2454 -2464 0
-2454 -2465 0
-2454 -2466 0
-2454 -2467 0
-2454 -2468 0
-2454 -2469 0
-2454 -2470 0
-2454 -2471 0
-2454 -2472 0
-2454 -2473 0
-2454 -2474 0
-2454 -2475 0
-2454 -2476 0
-2455 -2456 0
-2455 -2457 0
-2455 -2458 0
-2455 -2459 0
-2455 -2460 0
-2455 -2461 0
-2455 -2462 0
-2455 -2463 0
-2455 -2464 0
-2455 -2465 0
-2455 -2466 0
-2455 -2467 0
-2455 -2468 0
-2455 -2469 0
-2455 -2470 0
-2455 -2471 0
-2455 -2472 0
-2455 -2473 0
-2455 -2474 0
-2455 -2475 0
-2455 -2476 0
-2456 -2457 0
-2456 -2458 0
-2456 -2459 0
-2456 -2460 0
-2456 -2461 0
-2456 -2462 0
-2456 -2463 0
-2456 -2464 0
-2456 -2465 0
-2456 -2466 0
-2456 -2467 0
-2456 -2468 0
-2456 -2469 0
-2456 -2470 0
-2456 -2471 0
-2456 -2472 0
-2456 -2473 0
-2456 -2474 0
-2456 -2475 0
-2456 -2476 0
-2457 -2458 0
-2457 -2459 0
-2457 -2460 0
-2457 -2461 0
-2457 -2462 0
-2457 -2463 0
-2457 -2464 0
-2457 -2465 0
-2457 -2466 0
-2457 -2467 0
-2457 -2468 0
-2457 -2469 0
-2457 -2470 0
-2457 -2471 0
-2457 -2472 0
-2457 -2473 0
-2457 -2474 0
-2457 -2475 0
-2457 -2476 0
-2458 -2459 0
-2458 -2460 0
-2458 -2461 0
-2458 -2462 0
-2458 -2463 0
-2458 -2464 0
-2458 -2465 0
-2458 -2466 0
-2458 -2467 0
-2458 -2468 0
-2458 -2469 0
-2458 -2470 0
-2458 -2471 0
-2458 -2472 0
-2458 -2473 0
-2458 -2474 0
-2458 -2475 0
-2458 -2476 0
-2459 -2460 0
-2459 -2461 0
-2459 -2462 0
-2459 -2463 0
-2459 -2464 0
-2459 -2465 0
-2459 -2466 0
-2459 -2467 0
-2459 -2468 0
-2459 -2469 0
-2459 -2470 0
-2459 -2471 0
-2459 -2472 0
-2459 -2473 0
-2459 -2474 0
-2459 -2475 0
-2459 -2476 0
-2460 -2461 0
-2460 -2462 0
-2460 -2463 0
-2460 -2464 0
-2460 -2465 0
-2460 -2466 0
-2460 -2467 0
-2460 -2468 0
-2460 -2469 0
-2460 -2470 0
-2460 -2471 0
-2460 -2472 0
-2460 -2473 0
-2460 -2474 0
-2460 -2475 0
-2460 -2476 0
-2461 -2462 0
-2461 -2463 0
-2461 -2464 0
-2461 -2465 0
-2461 -2466 0
-2461 -2467 0
-2461 -2468 0
-2461 -2469 0
-2461 -2470 0
-2461 -2471 0
-2461 -2472 0
-2461 -2473 0
-2461 -2474 0
-2461 -2475 0
-2461 -2476 0
-2462 -2463 0
-2462 -2464 0
-2462 -2465 0
-2462 -2466 0
-2462 -2467 0
-2462 -2468 0
-2462 -2469 0
-2462 -2470 0
-2462 -2471 0
-2462 -2472 0
-2462 -2473 0
-2462 -2474 0
-2462 -2475 0
-2462 -2476 0
-2463 -2464 0
-2463 -2465 0
-2463 -2466 0
-2463 -2467 0
-2463 -2468 0
-2463 -2469 0
-2463 -2470 0
-2463 -2471 0
-2463 -2472 0
-2463 -2473 0
-2463 -2474 0
-2463 -2475 0
-2463 -2476 0
-2464 -2465 0
-2464 -2466 0
-2464 -2467 0
-2464 -2468 0
-2464 -2469 0
-2464 -2470 0
-2464 -2471 0
-2464 -2472 0
-2464 -2473 0
-2464 -2474 0
-2464 -2475 0
-2464 -2476 0
-2465 -2466 0
-2465 -2467 0
-2465 -2468 0
-2465 -2469 0
-2465 -2470 0
-2465 -2471 0
-2465 -2472 0
-2465 -2473 0
-2465 -2474 0
-2465 -2475 0
-2465 -2476 0
-2466 -2467 0
-2466 -2468 0
-2466 -2469 0
-2466 -2470 0
-2466 -2471 0
-2466 -2472 0
-2466 -2473 0
-2466 -2474 0
-2466 -2475 0
-2466 -2476 0
-2467 -2468 0
-2467 -2469 0
-2467 -2470 0
-2467 -2471 0
-2467 -2472 0
-2467 -2473 0
-2467 -2474 0
-2467 -2475 0
-2467 -2476 0
-2468 -2469 0
-2468 -2470 0
-2468 -2471 0
-2468 -2472 0
-2468 -2473 0
-2468 -2474 0
-2468 -2475 0
-2468 -2476 0
-2469 -2470 0
-2469 -2471 0
-2469 -2472 0
-2469 -2473 0
-2469 -2474 0
-2469 -2475 0
-2469 -2476 0
-2470 -2471 0
-2470 -2472 0
-2470 -2473 0
-2470 -2474 0
-2470 -2475 0
-2470 -2476 0
-2471 -2472 0
-2471 -2473 0
-2471 -2474 0
-2471 -2475 0
-2471 -2476 0
-2472 -2473 0
-2472 -2474 0
-2472 -2475 0
-2472 -2476 0
-2473 -2474 0
-2473 -2475 0
-2473 -2476 0
-2474 -2475 0
-2474 -2476 0
-2475 -2476 0
-2393 1039 0
-2393 1286 0
-2393 -1089 0
-2393 -1090 0
-2393 -1091 0
-2393 -1092 0
-2393 -1093 0
-2393 -1094 1293 0
-2393 -1094 -1029 -1036 0
-2393 -1094 -1101 0
-2393 -1094 -1159 0
-2393 -1094 -1216 0
-2393 -1095 1294 0
-2393 -1095 -1029 -1037 0
-2393 -1095 -1103 0
-2393 -1095 -1161 0
-2393 -1095 -1218 0
-2393 -1096 1295 0
-2393 -1096 -1029 -1038 0
-2393 -1096 -1105 0
-2393 -1096 -1163 0
-2393 -1096 -1220 0
-2393 -1097 0
-2394 1039 0
-2394 1287 0
-2394 -1088 0
-2394 -1090 0
-2394 -1091 0
-2394 -1092 0
-2394 -1093 0
-2394 -1094 1293 0
-2394 -1094 -1030 -1036 0
-2394 -1094 -1109 0
-2394 -1094 -1167 0
-2394 -1094 -1224 0
-2394 -1095 1294 0
-2394 -1095 -1030 -1037 0
-2394 -1095 -1111 0
-2394 -1095 -1169 0
-2394 -1095 -1226 0
-2394 -1096 1295 0
-2394 -1096 -1030 -1038 0
-2394 -1096 -1113 0
-2394 -1096 -1171 0
-2394 -1096 -1228 0
-2394 -1097 0
-2395 1039 0
-2395 1288 0
-2395 -1088 0
-2395 -1089 0
-2395 -1091 0
-2395 -1092 0
-2395 -1093 0
-2395 -1094 1293 0
-2395 -1094 -1031 -1036 0
-2395 -1094 -1117 0
-2395 -1094 -1175 0
-2395 -1094 -1232 0
-2395 -1095 1294 0
-2395 -1095 -1031 -1037 0
-2395 -1095 -1119 0
-2395 -1095 -1177 0
-2395 -1095 -1234 0
-2395 -1096 1295 0
-2395 -1096 -1031 -1038 0
-2395 -1096 -1121 0
-2395 -1096 -1179 0
-2395 -1096 -1236 0
-2395 -1097 0
-2396 1039 0
-2396 1289 0
-2396 -1088 0
-2396 -1089 0
-2396 -1090 0
-2396 -1092 0
-2396 -1093 0
-2396 -1094 1293 0
-2396 -1094 -1032 -1036 0
-2396 -1094 -1125 0
-2396 -1094 -1183 0
-2396 -1094 -1240 0
-2396 -1095 1294 0
-2396 -1095 -1032 -1037 0
-2396 -1095 -1127 0
-2396 -1095 -1185 0
-2396 -1095 -1242 0
-2396 -1096 1295 0
-2396 -1096 -1032 -1038 0
-2396 -1096 -1129 0
-2396 -1096 -1187 0
-2396 -1096 -1244 0
-2396 -1097 0
-2397 1039 0
-2397 1290 0
-2397 -1088 0
-2397 -1089 0
-2397 -1090 0
-2397 -1091 0
-2397 -1093 0
-2397 -1094 1293 0
-2397 -1094 -1033 -1036 0
-2397 -1094 -1133 0
-2397 -1094 -1191 0
-2397 -1094 -1248 0
-2397 -1095 1294 0
-2397 -1095 -1033 -1037 0
-2397 -1095 -1135 0
-2397 -1095 -1193 0
-2397 -1095 -1250 0
-2397 -1096 1295 0
-2397 -1096 -1033 -1038 0
-2397 -1096 -1137 0
-2397 -1096 -1195 0
-2397 -1096 -1252 0
-2397 -1097 0
-2398 1039 0
-2398 1291 0
-2398 -1088 0
-2398 -1089 0
-2398 -1090 0
-2398 -1091 0
-2398 -1092 0
-2398 -1094 1293 0
-2398 -1094 -1034 -1036 0
-2398 -1094 -1141 0
-2398 -1094 -1199 0
-2398 -1094 -1256 0
-2398 -1095 1294 0
-2398 -1095 -1034 -1037 0
-2398 -1095 -1143 0
-2398 -1095 -1201 0
-2398 -1095 -1258 0
-2398 -1096 1295 0
-2398 -1096 -1034 -1038 0
-2398 -1096 -1145 0
-2398 -1096 -1203 0
-2398 -1096 -1260 0
-2398 -1097 0
-2399 1039 0
-2399 1286 0
-2399 -1148 0
-2399 -1149 0
-2399 -1150 0
-2399 -1151 0
-2399 -1152 1293 0
-2399 -1152 -1029 -1036 0
-2399 -1152 -1101 0
-2399 -1152 -1159 0
-2399 -1152 -1216 0
-2399 -1153 1294 0
-2399 -1153 -1029 -1037 0
-2399 -1153 -1103 0
-2399 -1153 -1161 0
-2399 -1153 -1218 0
-2399 -1154 1295 0
-2399 -1154 -1029 -1038 0
-2399 -1154 -1105 0
-2399 -1154 -1163 0
-2399 -1154 -1220 0
-2399 -1155 0
-2400 1039 0
-2400 1287 0
-2400 -1149 0
-2400 -1150 0
-2400 -1151 0
-2400 -1152 1293 0
-2400 -1152 -1030 -1036 0
-2400 -1152 -1109 0
-2400 -1152 -1167 0
-2400 -1152 -1224 0
-2400 -1153 1294 0
-2400 -1153 -1030 -1037 0
-2400 -1153 -1111 0
-2400 -1153 -1169 0
-2400 -1153 -1226 0
-2400 -1154 1295 0
-2400 -1154 -1030 -1038 0
-2400 -1154 -1113 0
-2400 -1154 -1171 0
-2400 -1154 -1228 0
-2400 -1155 0
-2401 1039 0
-2401 1288 0
-2401 -1147 0
-2401 -1150 0
-2401 -1151 0
-2401 -1152 1293 0
-2401 -1152 -1031 -1036 0
-2401 -1152 -1117 0
-2401 -1152 -1175 0
-2401 -1152 -1232 0
-2401 -1153 1294 0
-2401 -1153 -1031 -1037 0
-2401 -1153 -1119 0
-2401 -1153 -1177 0
-2401 -1153 -1234 0
-2401 -1154 1295 0
-2401 -1154 -1031 -1038 0
-2401 -1154 -1121 0
-2401 -1154 -1179 0
-2401 -1154 -1236 0
-2401 -1155 0
-2402 1039 0
-2402 1289 0
-2402 -1147 0
-2402 -1148 0
-2402 -1151 0
-2402 -1152 1293 0
-2402 -1152 -1032 -1036 0
-2402 -1152 -1125 0
-2402 -1152 -1183 0
-2402 -1152 -1240 0
-2402 -1153 1294 0
-2402 -1153 -1032 -1037 0
-2402 -1153 -1127 0
-2402 -1153 -1185 0
-2402 -1153 -1242 0
-2402 -1154 1295 0
-2402 -1154 -1032 -1038 0
-2402 -1154 -1129 0
-2402 -1154 -1187 0
-2402 -1154 -1244 0
-2402 -1155 0
-2403 1039 0
-2403 1290 0
-2403 -1147 0
-2403 -1148 0
-2403 -1149 0
-2403 -1152 1293 0
-2403 -1152 -1033 -1036 0
-2403 -1152 -1133 0
-2403 -1152 -1191 0
-2403 -1152 -1248 0
-2403 -1153 1294 0
-2403 -1153 -1033 -1037 0
-2403 -1153 -1135 0
-2403 -1153 -1193 0
-2403 -1153 -1250 0
-2403 -1154 1295 0
-2403 -1154 -1033 -1038 0
-2403 -1154 -1137 0
-2403 -1154 -1195 0
-2403 -1154 -1252 0
-2403 -1155 0
-2404 1039 0
-2404 1291 0
-2404 -1147 0
-2404 -1148 0
-2404 -1149 0
-2404 -1150 0
-2404 -1152 1293 0
-2404 -1152 -1034 -1036 0
-2404 -1152 -1141 0
-2404 -1152 -1199 0
-2404 -1152 -1256 0
-2404 -1153 1294 0
-2404 -1153 -1034 -1037 0
-2404 -1153 -1143 0
-2404 -1153 -1201 0
-2404 -1153 -1258 0
-2404 -1154 1295 0
-2404 -1154 -1034 -1038 0
-2404 -1154 -1145 0
-2404 -1154 -1203 0
-2404 -1154 -1260 0
-2404 -1155 0
-2405 1039 0
-2405 1286 0
-2405 -1206 0
-2405 -1207 0
-2405 -1208 0
-2405 -1209 1293 0
-2405 -1209 -1029 -1036 0
-2405 -1209 -1101 0
-2405 -1209 -1159 0
-2405 -1209 -1216 0
-2405 -1210 1294 0
-2405 -1210 -1029 -1037 0
-2405 -1210 -1103 0
-2405 -1210 -1161 0
-2405 -1210 -1218 0
-2405 -1211 1295 0
-2405 -1211 -1029 -1038 0
-2405 -1211 -1105 0
-2405 -1211 -1163 0
-2405 -1211 -1220 0
-2405 -1212 0
-2406 1039 0
-2406 1287 0
-2406 -1207 0
-2406 -1208 0
-2406 -1209 1293 0
-2406 -1209 -1030 -1036 0
-2406 -1209 -1109 0
-2406 -1209 -1167 0
-2406 -1209 -1224 0
-2406 -1210 1294 0
-2406 -1210 -1030 -1037 0
-2406 -1210 -1111 0
-2406 -1210 -1169 0
-2406 -1210 -1226 0
-2406 -1211 1295 0
-2406 -1211 -1030 -1038 0
-2406 -1211 -1113 0
-2406 -1211 -1171 0
-2406 -1211 -1228 0
-2406 -1212 0
-2407 1039 0
-2407 1288 0
-2407 -1208 0
-2407 -1209 1293 0
-2407 -1209 -1031 -1036 0
-2407 -1209 -1117 0
-2407 -1209 -1175 0
-2407 -1209 -1232 0
-2407 -1210 1294 0
-2407 -1210 -1031 -1037 0
-2407 -1210 -1119 0
-2407 -1210 -1177 0
-2407 -1210 -1234 0
-2407 -1211 1295 0
-2407 -1211 -1031 -1038 0
-2407 -1211 -1121 0
-2407 -1211 -1179 0
-2407 -1211 -1236 0
-2407 -1212 0
-2408 1039 0
-2408 1289 0
-2408 -1205 0
-2408 -1209 1293 0
-2408 -1209 -1032 -1036 0
-2408 -1209 -1125 0
-2408 -1209 -1183 0
-2408 -1209 -1240 0
-2408 -1210 1294 0
-2408 -1210 -1032 -1037 0
-2408 -1210 -1127 0
-2408 -1210 -1185 0
-2408 -1210 -1242 0
-2408 -1211 1295 0
-2408 -1211 -1032 -1038 0
-2408 -1211 -1129 0
-2408 -1211 -1187 0
-2408 -1211 -1244 0
-2408 -1212 0
-2409 1039 0
-2409 1290 0
-2409 -1205 0
-2409 -1206 0
-2409 -1209 1293 0
-2409 -1209 -1033 -1036 0
-2409 -1209 -1133 0
-2409 -1209 -1191 0
-2409 -1209 -1248 0
-2409 -1210 1294 0
-2409 -1210 -1033 -1037 0
-2409 -1210 -1135 0
-2409 -1210 -1193 0
-2409 -1210 -1250 0
-2409 -1211 1295 0
-2409 -1211 -1033 -1038 0
-2409 -1211 -1137 0
-2409 -1211 -1195 0
-2409 -1211 -1252 0
-2409 -1212 0
-2410 1039 0
-2410 1291 0
-2410 -1205 0
-2410 -1206 0
-2410 -1207 0
-2410 -1209 1293 0
-2410 -1209 -1034 -1036 0
-2410 -1209 -1141 0
-2410 -1209 -1199 0
-2410 -1209 -1256 0
-2410 -1210 1294 0
-2410 -1210 -1034 -1037 0
-2410 -1210 -1143 0
-2410 -1210 -1201 0
-2410 -1210 -1258 0
-2410 -1211 1295 0
-2410 -1211 -1034 -1038 0
-2410 -1211 -1145 0
-2410 -1211 -1203 0
-2410 -1211 -1260 0
-2410 -1212 0
-2411 1039 0
-2411 1286 0
-2411 1292 0
-2411 -1029 -1035 0
-2411 -1099 0
-2411 -1157 0
-2411 -1214 0
-2412 1039 0
-2412 1287 0
-2412 1292 0
-2412 -1030 -1035 0
-2412 -1107 0
-2412 -1165 0
-2412 -1222 0
-2413 1039 0
-2413 1288 0
-2413 1292 0
-2413 -1031 -1035 0
-2413 -1115 0
-2413 -1173 0
-2413 -1230 0
-2414 1039 0
-2414 1289 0
-2414 1292 0
-2414 -1032 -1035 0
-2414 -1123 0
-2414 -1181 0
-2414 -1238 0
-2415 1039 0
-2415 1290 0
-2415 1292 0
-2415 -1033 -1035 0
-2415 -1131 0
-2415 -1189 0
-2415 -1246 0
-2416 1039 0
-2416 1291 0
-2416 1292 0
-2416 -1034 -1035 0
-2416 -1139 0
-2416 -1197 0
-2416 -1254 0
-2417 1098 0
-2417 1345 0
-2417 -1030 0
-2417 -1031 0
-2417 -1032 0
-2417 -1033 0
-2417 -1034 0
-2417 -1035 1352 0
-2417 -1035 -1088 -1095 0
-2417 -1035 -1042 0
-2417 -1035 -1159 0
-2417 -1035 -1216 0
-2417 -1036 1353 0
-2417 -1036 -1088 -1096 0
-2417 -1036 -1044 0
-2417 -1036 -1161 0
-2417 -1036 -1218 0
-2417 -1037 1354 0
-2417 -1037 -1088 -1097 0
-2417 -1037 -1046 0
-2417 -1037 -1163 0
-2417 -1037 -1220 0
-2417 -1038 0
-2418 1098 0
-2418 1346 0
-2418 -1029 0
-2418 -1031 0
-2418 -1032 0
-2418 -1033 0
-2418 -1034 0
-2418 -1035 1352 0
-2418 -1035 -1089 -1095 0
-2418 -1035 -1050 0
-2418 -1035 -1167 0
-2418 -1035 -1224 0
-2418 -1036 1353 0
-2418 -1036 -1089 -1096 0
-2418 -1036 -1052 0
-2418 -1036 -1169 0
-2418 -1036 -1226 0
-2418 -1037 1354 0
-2418 -1037 -1089 -1097 0
-2418 -1037 -1054 0
-2418 -1037 -1171 0
-2418 -1037 -1228 0
-2418 -1038 0
-2419 1098 0
-2419 1347 0
-2419 -1029 0
-2419 -1030 0
-2419 -1032 0
-2419 -1033 0
-2419 -1034 0
-2419 -1035 1352 0
-2419 -1035 -1090 -1095 0
-2419 -1035 -1058 0
-2419 -1035 -1175 0
-2419 -1035 -1232 0
-2419 -1036 1353 0
-2419 -1036 -1090 -1096 0
-2419 -1036 -1060 0
-2419 -1036 -1177 0
-2419 -1036 -1234 0
-2419 -1037 1354 0
-2419 -1037 -1090 -1097 0
-2419 -1037 -1062 0
-2419 -1037 -1179 0
-2419 -1037 -1236 0
-2419 -1038 0
-2420 1098 0
-2420 1348 0
-2420 -1029 0
-2420 -1030 0
-2420 -1031 0
-2420 -1033 0
-2420 -1034 0
-2420 -1035 1352 0
-2420 -1035 -1091 -1095 0
-2420 -1035 -1066 0
-2420 -1035 -1183 0
-2420 -1035 -1240 0
-2420 -1036 1353 0
-2420 -1036 -1091 -1096 0
-2420 -1036 -1068 0
-2420 -1036 -1185 0
-2420 -1036 -1242 0
-2420 -1037 1354 0
-2420 -1037 -1091 -1097 0
-2420 -1037 -1070 0
-2420 -1037 -1187 0
-2420 -1037 -1244 0
-2420 -1038 0
-2421 1098 0
-2421 1349 0
-2421 -1029 0
-2421 -1030 0
-2421 -1031 0
-2421 -1032 0
-2421 -1034 0
-2421 -1035 1352 0
-2421 -1035 -1092 -1095 0
-2421 -1035 -1074 0
-2421 -1035 -1191 0
-2421 -1035 -1248 0
-2421 -1036 1353 0
-2421 -1036 -1092 -1096 0
-2421 -1036 -1076 0
-2421 -1036 -1193 0
-2421 -1036 -1250 0
-2421 -1037 1354 0
-2421 -1037 -1092 -1097 0
-2421 -1037 -1078 0
-2421 -1037 -1195 0
-2421 -1037 -1252 0
-2421 -1038 0
-2422 1098 0
-2422 1350 0
-2422 -1029 0
-2422 -1030 0
-2422 -1031 0
-2422 -1032 0
-2422 -1033 0
-2422 -1035 1352 0
-2422 -1035 -1093 -1095 0
-2422 -1035 -1082 0
-2422 -1035 -1199 0
-2422 -1035 -1256 0
-2422 -1036 1353 0
-2422 -1036 -1093 -1096 0
-2422 -1036 -1084 0
-2422 -1036 -1201 0
-2422 -1036 -1258 0
-2422 -1037 1354 0
-2422 -1037 -1093 -1097 0
-2422 -1037 -1086 0
-2422 -1037 -1203 0
-2422 -1037 -1260 0
-2422 -1038 0
-2423 1098 0
-2423 1345 0
-2423 -1148 0
-2423 -1149 0
-2423 -1150 0
-2423 -1151 0
-2423 -1152 1352 0
-2423 -1152 -1088 -1095 0
-2423 -1152 -1042 0
-2423 -1152 -1159 0
-2423 -1152 -1216 0
-2423 -1153 1353 0
-2423 -1153 -1088 -1096 0
-2423 -1153 -1044 0
-2423 -1153 -1161 0
-2423 -1153 -1218 0
-2423 -1154 1354 0
-2423 -1154 -1088 -1097 0
-2423 -1154 -1046 0
-2423 -1154 -1163 0
-2423 -1154 -1220 0
-2423 -1155 0
-2424 1098 0
-2424 1346 0
-2424 -1149 0
-2424 -1150 0
-2424 -1151 0
-2424 -1152 1352 0
-2424 -1152 -1089 -1095 0
-2424 -1152 -1050 0
-2424 -1152 -1167 0
-2424 -1152 -1224 0
-2424 -1153 1353 0
-2424 -1153 -1089 -1096 0
-2424 -1153 -1052 0
-2424 -1153 -1169 0
-2424 -1153 -1226 0
-2424 -1154 1354 0
-2424 -1154 -1089 -1097 0
-2424 -1154 -1054 0
-2424 -1154 -1171 0
-2424 -1154 -1228 0
-2424 -1155 0
-2425 1098 0
-2425 1347 0
-2425 -1147 0
-2425 -1150 0
-2425 -1151 0
-2425 -1152 1352 0
-2425 -1152 -1090 -1095 0
-2425 -1152 -1058 0
-2425 -1152 -1175 0
-2425 -1152 -1232 0
-2425 -1153 1353 0
-2425 -1153 -1090 -1096 0
-2425 -1153 -1060 0
-2425 -1153 -1177 0
-2425 -1153 -1234 0
-2425 -1154 1354 0
-2425 -1154 -1090 -1097 0
-2425 -1154 -1062 0
-2425 -1154 -1179 0
-2425 -1154 -1236 0
-2425 -1155 0
-2426 1098 0
-2426 1348 0
-2426 -1147 0
-2426 -1148 0
-2426 -1151 0
-2426 -1152 1352 0
-2426 -1152 -1091 -1095 0
-2426 -1152 -1066 0
-2426 -1152 -1183 0
-2426 -1152 -1240 0
-2426 -1153 1353 0
-2426 -1153 -1091 -1096 0
-2426 -1153 -1068 0
-2426 -1153 -1185 0
-2426 -1153 -1242 0
-2426 -1154 1354 0
-2426 -1154 -1091 -1097 0
-2426 -1154 -1070 0
-2426 -1154 -1187 0
-2426 -1154 -1244 0
-2426 -1155 0
-2427 1098 0
-2427 1349 0
-2427 -1147 0
-2427 -1148 0
-2427 -1149 0
-2427 -1152 1352 0
-2427 -1152 -1092 -1095 0
-2427 -1152 -1074 0
-2427 -1152 -1191 0
-2427 -1152 -1248 0
-2427 -1153 1353 0
-2427 -1153 -1092 -1096 0
-2427 -1153 -1076 0
-2427 -1153 -1193 0
-2427 -1153 -1250 0
-2427 -1154 1354 0
-2427 -1154 -1092 -1097 0
-2427 -1154 -1078 0
-2427 -1154 -1195 0
-2427 -1154 -1252 0
-2427 -1155 0
-2428 1098 0
-2428 1350 0
-2428 -1147 0
-2428 -1148 0
-2428 -1149 0
-2428 -1150 0
-2428 -1152 1352 0
-2428 -1152 -1093 -1095 0
-2428 -1152 -1082 0
-2428 -1152 -1199 0
-2428 -1152 -1256 0
-2428 -1153 1353 0
-2428 -1153 -1093 -1096 0
-2428 -1153 -1084 0
-2428 -1153 -1201 0
-2428 -1153 -1258 0
-2428 -1154 1354 0
-2428 -1154 -1093 -1097 0
-2428 -1154 -1086 0
-2428 -1154 -1203 0
-2428 -1154 -1260 0
-2428 -1155 0
-2429 1098 0
-2429 1345 0
-2429 -1206 0
-2429 -1207 0
-2429 -1208 0
-2429 -1209 1352 0
-2429 -1209 -1088 -1095 0
-2429 -1209 -1042 0
-2429 -1209 -1159 0
-2429 -1209 -1216 0
-2429 -1210 1353 0
-2429 -1210 -1088 -1096 0
-2429 -1210 -1044 0
-2429 -1210 -1161 0
-2429 -1210 -1218 0
-2429 -1211 1354 0
-2429 -1211 -1088 -1097 0
-2429 -1211 -1046 0
-2429 -1211 -1163 0
-2429 -1211 -1220 0
-2429 -1212 0
-2430 1098 0
-2430 1346 0
-2430 -1207 0
-2430 -1208 0
-2430 -1209 1352 0
-2430 -1209 -1089 -1095 0
-2430 -1209 -1050 0
-2430 -1209 -1167 0
-2430 -1209 -1224 0
-2430 -1210 1353 0
-2430 -1210 -1089 -1096 0
-2430 -1210 -1052 0
-2430 -1210 -1169 0
-2430 -1210 -1226 0
-2430 -1211 1354 0
-2430 -1211 -1089 -1097 0
-2430 -1211 -1054 0
-2430 -1211 -1171 0
-2430 -1211 -1228 0
-2430 -1212 0
-2431 1098 0
-2431 1347 0
-2431 -1208 0
-2431 -1209 1352 0
-2431 -1209 -1090 -1095 0
-2431 -1209 -1058 0
-2431 -1209 -1175 0
-2431 -1209 -1232 0
-2431 -1210 1353 0
-2431 -1210 -1090 -1096 0
-2431 -1210 -1060 0
-2431 -1210 -1177 0
-2431 -1210 -1234 0
-2431 -1211 1354 0
-2431 -1211 -1090 -1097 0
-2431 -1211 -1062 0
-2431 -1211 -1179 0
-2431 -1211 -1236 0
-2431 -1212 0
-2432 1098 0
-2432 1348 0
-2432 -1205 0
-2432 -1209 1352 0
-2432 -1209 -1091 -1095 0
-2432 -1209 -1066 0
-2432 -1209 -1183 0
-2432 -1209 -1240 0
-2432 -1210 1353 0
-2432 -1210 -1091 -1096 0
-2432 -1210 -1068 0
-2432 -1210 -1185 0
-2432 -1210 -1242 0
-2432 -1211 1354 0
-2432 -1211 -1091 -1097 0
-2432 -1211 -1070 0
-2432 -1211 -1187 0
-2432 -1211 -1244 0
-2432 -1212 0
-2433 1098 0
-2433 1349 0
-2433 -1205 0
-2433 -1206 0
-2433 -1209 1352 0
-2433 -1209 -1092 -1095 0
-2433 -1209 -1074 0
-2433 -1209 -1191 0
-2433 -1209 -1248 0
-2433 -1210 1353 0
-2433 -1210 -1092 -1096 0
-2433 -1210 -1076 0
-2433 -1210 -1193 0
-2433 -1210 -1250 0
-2433 -1211 1354 0
-2433 -1211 -1092 -1097 0
-2433 -1211 -1078 0
-2433 -1211 -1195 0
-2433 -1211 -1252 0
-2433 -1212 0
-2434 1098 0
-2434 1350 0
-2434 -1205 0
-2434 -1206 0
-2434 -1207 0
-2434 -1209 1352 0
-2434 -1209 -1093 -1095 0
-2434 -1209 -1082 0
-2434 -1209 -1199 0
-2434 -1209 -1256 0
-2434 -1210 1353 0
-2434 -1210 -1093 -1096 0
-2434 -1210 -1084 0
-2434 -1210 -1201 0
-2434 -1210 -1258 0
-2434 -1211 1354 0
-2434 -1211 -1093 -1097 0
-2434 -1211 -1086 0
-2434 -1211 -1203 0
-2434 -1211 -1260 0
-2434 -1212 0
-2435 1098 0
-2435 1345 0
-2435 1351 0
-2435 -1088 -1094 0
-2435 -1040 0
-2435 -1157 0
-2435 -1214 0
-2436 1098 0
-2436 1346 0
-2436 1351 0
-2436 -1089 -1094 0
-2436 -1048 0
-2436 -1165 0
-2436 -1222 0
-2437 1098 0
-2437 1347 0
-2437 1351 0
-2437 -1090 -1094 0
-2437 -1056 0
-2437 -1173 0
-2437 -1230 0
-2438 1098 0
-2438 1348 0
-2438 1351 0
-2438 -1091 -1094 0
-2438 -1064 0
-2438 -1181 0
-2438 -1238 0
-2439 1098 0
-2439 1349 0
-2439 1351 0
-2439 -1092 -1094 0
-2439 -1072 0
-2439 -1189 0
-2439 -1246 0
-2440 1098 0
-2440 1350 0
-2440 1351 0
-2440 -1093 -1094 0
-2440 -1080 0
-2440 -1197 0
-2440 -1254 0
-2441 1156 0
-2441 1404 0
-2441 -1031 0
-2441 -1032 0
-2441 -1033 0
-2441 -1034 0
-2441 -1035 1410 0
-2441 -1035 -1147 -1153 0
-2441 -1035 -1042 0
-2441 -1035 -1050 0
-2441 -1035 -1101 0
-2441 -1035 -1109 0
-2441 -1035 -1216 0
-2441 -1035 -1224 0
-2441 -1036 1411 0
-2441 -1036 -1147 -1154 0
-2441 -1036 -1044 0
-2441 -1036 -1052 0
-2441 -1036 -1103 0
-2441 -1036 -1111 0
-2441 -1036 -1218 0
-2441 -1036 -1226 0
-2441 -1037 1412 0
-2441 -1037 -1147 -1155 0
-2441 -1037 -1046 0
-2441 -1037 -1054 0
-2441 -1037 -1105 0
-2441 -1037 -1113 0
-2441 -1037 -1220 0
-2441 -1037 -1228 0
-2441 -1038 0
-2442 1156 0
-2442 1405 0
-2442 -1029 0
-2442 -1032 0
-2442 -1033 0
-2442 -1034 0
-2442 -1035 1410 0
-2442 -1035 -1148 -1153 0
-2442 -1035 -1050 0
-2442 -1035 -1058 0
-2442 -1035 -1109 0
-2442 -1035 -1117 0
-2442 -1035 -1224 0
-2442 -1035 -1232 0
-2442 -1036 1411 0
-2442 -1036 -1148 -1154 0
-2442 -1036 -1052 0
-2442 -1036 -1060 0
-2442 -1036 -1111 0
-2442 -1036 -1119 0
-2442 -1036 -1226 0
-2442 -1036 -1234 0
-2442 -1037 1412 0
-2442 -1037 -1148 -1155 0
-2442 -1037 -1054 0
-2442 -1037 -1062 0
-2442 -1037 -1113 0
-2442 -1037 -1121 0
-2442 -1037 -1228 0
-2442 -1037 -1236 0
-2442 -1038 0
-2443 1156 0
-2443 1406 0
-2443 -1029 0
-2443 -1030 0
-2443 -1033 0
-2443 -1034 0
-2443 -1035 1410 0
-2443 -1035 -1149 -1153 0
-2443 -1035 -1058 0
-2443 -1035 -1066 0
-2443 -1035 -1117 0
-2443 -1035 -1125 0
-2443 -1035 -1232 0
-2443 -1035 -1240 0
-2443 -1036 1411 0
-2443 -1036 -1149 -1154 0
-2443 -1036 -1060 0
-2443 -1036 -1068 0
-2443 -1036 -1119 0
-2443 -1036 -1127 0
-2443 -1036 -1234 0
-2443 -1036 -1242 0
-2443 -1037 1412 0
-2443 -1037 -1149 -1155 0
-2443 -1037 -1062 0
-2443 -1037 -1070 0
-2443 -1037 -1121 0
-2443 -1037 -1129 0
-2443 -1037 -1236 0
-2443 -1037 -1244 0
-2443 -1038 0
-2444 1156 0
-2444 1407 0
-2444 -1029 0
-2444 -1030 0
-2444 -1031 0
-2444 -1034 0
-2444 -1035 1410 0
-2444 -1035 -1150 -1153 0
-2444 -1035 -1066 0
-2444 -1035 -1074 0
-2444 -1035 -1125 0
-2444 -1035 -1133 0
-2444 -1035 -1240 0
-2444 -1035 -1248 0
-2444 -1036 1411 0
-2444 -1036 -1150 -1154 0
-2444 -1036 -1068 0
-2444 -1036 -1076 0
-2444 -1036 -1127 0
-2444 -1036 -1135 0
-2444 -1036 -1242 0
-2444 -1036 -1250 0
-2444 -1037 1412 0
-2444 -1037 -1150 -1155 0
-2444 -1037 -1070 0
-2444 -1037 -1078 0
-2444 -1037 -1129 0
-2444 -1037 -1137 0
-2444 -1037 -1244 0
-2444 -1037 -1252 0
-2444 -1038 0
-2445 1156 0
-2445 1408 0
-2445 -1029 0
-2445 -1030 0
-2445 -1031 0
-2445 -1032 0
-2445 -1035 1410 0
-2445 -1035 -1151 -1153 0
-2445 -1035 -1074 0
-2445 -1035 -1082 0
-2445 -1035 -1133 0
-2445 -1035 -1141 0
-2445 -1035 -1248 0
-2445 -1035 -1256 0
-2445 -1036 1411 0
-2445 -1036 -1151 -1154 0
-2445 -1036 -1076 0
-2445 -1036 -1084 0
-2445 -1036 -1135 0
-2445 -1036 -1143 0
-2445 -1036 -1250 0
-2445 -1036 -1258 0
-2445 -1037 1412 0
-2445 -1037 -1151 -1155 0
-2445 -1037 -1078 0
-2445 -1037 -1086 0
-2445 -1037 -1137 0
-2445 -1037 -1145 0
-2445 -1037 -1252 0
-2445 -1037 -1260 0
-2445 -1038 0
-2446 1156 0
-2446 1404 0
-2446 -1090 0
-2446 -1091 0
-2446 -1092 0
-2446 -1093 0
-2446 -1094 1410 0
-2446 -1094 -1147 -1153 0
-2446 -1094 -1042 0
-2446 -1094 -1050 0
-2446 -1094 -1101 0
-2446 -1094 -1109 0
-2446 -1094 -1216 0
-2446 -1094 -1224 0
-2446 -1095 1411 0
-2446 -1095 -1147 -1154 0
-2446 -1095 -1044 0
-2446 -1095 -1052 0
-2446 -1095 -1103 0
-2446 -1095 -1111 0
-2446 -1095 -1218 0
-2446 -1095 -1226 0
-2446 -1096 1412 0
-2446 -1096 -1147 -1155 0
-2446 -1096 -1046 0
-2446 -1096 -1054 0
-2446 -1096 -1105 0
-2446 -1096 -1113 0
-2446 -1096 -1220 0
-2446 -1096 -1228 0
-2446 -1097 0
-2447 1156 0
-2447 1405 0
-2447 -1088 0
-2447 -1091 0
-2447 -1092 0
-2447 -1093 0
-2447 -1094 1410 0
-2447 -1094 -1148 -1153 0
-2447 -1094 -1050 0
-2447 -1094 -1058 0
-2447 -1094 -1109 0
-2447 -1094 -1117 0
-2447 -1094 -1224 0
-2447 -1094 -1232 0
-2447 -1095 1411 0
-2447 -1095 -1148 -1154 0
-2447 -1095 -1052 0
-2447 -1095 -1060 0
-2447 -1095 -1111 0
-2447 -1095 -1119 0
-2447 -1095 -1226 0
-2447 -1095 -1234 0
-2447 -1096 1412 0
-2447 -1096 -1148 -1155 0
-2447 -1096 -1054 0
-2447 -1096 -1062 0
-2447 -1096 -1113 0
-2447 -1096 -1121 0
-2447 -1096 -1228 0
-2447 -1096 -1236 0
-2447 -1097 0
-2448 1156 0
-2448 1406 0
-2448 -1088 0
-2448 -1089 0
-2448 -1092 0
-2448 -1093 0
-2448 -1094 1410 0
-2448 -1094 -1149 -1153 0
-2448 -1094 -1058 0
-2448 -1094 -1066 0
-2448 -1094 -1117 0
-2448 -1094 -1125 0
-2448 -1094 -1232 0
-2448 -1094 -1240 0
-2448 -1095 1411 0
-2448 -1095 -1149 -1154 0
-2448 -1095 -1060 0
-2448 -1095 -1068 0
-2448 -1095 -1119 0
-2448 -1095 -1127 0
-2448 -1095 -1234 0
-2448 -1095 -1242 0
-2448 -1096 1412 0
-2448 -1096 -1149 -1155 0
-2448 -1096 -1062 0
-2448 -1096 -1070 0
-2448 -1096 -1121 0
-2448 -1096 -1129 0
-2448 -1096 -1236 0
-2448 -1096 -1244 0
-2448 -1097 0
-2449 1156 0
-2449 1407 0
-2449 -1088 0
-2449 -1089 0
-2449 -1090 0
-2449 -1093 0
-2449 -1094 1410 0
-2449 -1094 -1150 -1153 0
-2449 -1094 -1066 0
-2449 -1094 -1074 0
-2449 -1094 -1125 0
-2449 -1094 -1133 0
-2449 -1094 -1240 0
-2449 -1094 -1248 0
-2449 -1095 1411 0
-2449 -1095 -1150 -1154 0
-2449 -1095 -1068 0
-2449 -1095 -1076 0
-2449 -1095 -1127 0
-2449 -1095 -1135 0
-2449 -1095 -1242 0
-2449 -1095 -1250 0
-2449 -1096 1412 0
-2449 -1096 -1150 -1155 0
-2449 -1096 -1070 0
-2449 -1096 -1078 0
-2449 -1096 -1129 0
-2449 -1096 -1137 0
-2449 -1096 -1244 0
-2449 -1096 -1252 0
-2449 -1097 0
-2450 1156 0
-2450 1408 0
-2450 -1088 0
-2450 -1089 0
-2450 -1090 0
-2450 -1091 0
-2450 -1094 1410 0
-2450 -1094 -1151 -1153 0
-2450 -1094 -1074 0
-2450 -1094 -1082 0
-2450 -1094 -1133 0
-2450 -1094 -1141 0
-2450 -1094 -1248 0
-2450 -1094 -1256 0
-2450 -1095 1411 0
-2450 -1095 -1151 -1154 0
-2450 -1095 -1076 0
-2450 -1095 -1084 0
-2450 -1095 -1135 0
-2450 -1095 -1143 0
-2450 -1095 -1250 0
-2450 -1095 -1258 0
-2450 -1096 1412 0
-2450 -1096 -1151 -1155 0
-2450 -1096 -1078 0
-2450 -1096 -1086 0
-2450 -1096 -1137 0
-2450 -1096 -1145 0
-2450 -1096 -1252 0
-2450 -1096 -1260 0
-2450 -1097 0
-2451 1156 0
-2451 1404 0
-2451 -1207 0
-2451 -1208 0
-2451 -1209 1410 0
-2451 -1209 -1147 -1153 0
-2451 -1209 -1042 0
-2451 -1209 -1050 0
-2451 -1209 -1101 0
-2451 -1209 -1109 0
-2451 -1209 -1216 0
-2451 -1209 -1224 0
-2451 -1210 1411 0
-2451 -1210 -1147 -1154 0
-2451 -1210 -1044 0
-2451 -1210 -1052 0
-2451 -1210 -1103 0
-2451 -1210 -1111 0
-2451 -1210 -1218 0
-2451 -1210 -1226 0
-2451 -1211 1412 0
-2451 -1211 -1147 -1155 0
-2451 -1211 -1046 0
-2451 -1211 -1054 0
-2451 -1211 -1105 0
-2451 -1211 -1113 0
-2451 -1211 -1220 0
-2451 -1211 -1228 0
-2451 -1212 0
-2452 1156 0
-2452 1405 0
-2452 -1208 0
-2452 -1209 1410 0
-2452 -1209 -1148 -1153 0
-2452 -1209 -1050 0
-2452 -1209 -1058 0
-2452 -1209 -1109 0
-2452 -1209 -1117 0
-2452 -1209 -1224 0
-2452 -1209 -1232 0
-2452 -1210 1411 0
-2452 -1210 -1148 -1154 0
-2452 -1210 -1052 0
-2452 -1210 -1060 0
-2452 -1210 -1111 0
-2452 -1210 -1119 0
-2452 -1210 -1226 0
-2452 -1210 -1234 0
-2452 -1211 1412 0
-2452 -1211 -1148 -1155 0
-2452 -1211 -1054 0
-2452 -1211 -1062 0
-2452 -1211 -1113 0
-2452 -1211 -1121 0
-2452 -1211 -1228 0
-2452 -1211 -1236 0
-2452 -1212 0
-2453 1156 0
-2453 1406 0
-2453 -1209 1410 0
-2453 -1209 -1149 -1153 0
-2453 -1209 -1058 0
-2453 -1209 -1066 0
-2453 -1209 -1117 0
-2453 -1209 -1125 0
-2453 -1209 -1232 0
-2453 -1209 -1240 0
-2453 -1210 1411 0
-2453 -1210 -1149 -1154 0
-2453 -1210 -1060 0
-2453 -1210 -1068 0
-2453 -1210 -1119 0
-2453 -1210 -1127 0
-2453 -1210 -1234 0
-2453 -1210 -1242 0
-2453 -1211 1412 0
-2453 -1211 -1149 -1155 0
-2453 -1211 -1062 0
-2453 -1211 -1070 0
-2453 -1211 -1121 0
-2453 -1211 -1129 0
-2453 -1211 -1236 0
-2453 -1211 -1244 0
-2453 -1212 0
-2454 1156 0
-2454 1407 0
-2454 -1205 0
-2454 -1209 1410 0
-2454 -1209 -1150 -1153 0
-2454 -1209 -1066 0
-2454 -1209 -1074 0
-2454 -1209 -1125 0
-2454 -1209 -1133 0
-2454 -1209 -1240 0
-2454 -1209 -1248 0
-2454 -1210 1411 0
-2454 -1210 -1150 -1154 0
-2454 -1210 -1068 0
-2454 -1210 -1076 0
-2454 -1210 -1127 0
-2454 -1210 -1135 0
-2454 -1210 -1242 0
-2454 -1210 -1250 0
-2454 -1211 1412 0
-2454 -1211 -1150 -1155 0
-2454 -1211 -1070 0
-2454 -1211 -1078 0
-2454 -1211 -1129 0
-2454 -1211 -1137 0
-2454 -1211 -1244 0
-2454 -1211 -1252 0
-2454 -1212 0
-2455 1156 0
-2455 1408 0
-2455 -1205 0
-2455 -1206 0
-2455 -1209 1410 0
-2455 -1209 -1151 -1153 0
-2455 -1209 -1074 0
-2455 -1209 -1082 0
-2455 -1209 -1133 0
-2455 -1209 -1141 0
-2455 -1209 -1248 0
-2455 -1209 -1256 0
-2455 -1210 1411 0
-2455 -1210 -1151 -1154 0
-2455 -1210 -1076 0
-2455 -1210 -1084 0
-2455 -1210 -1135 0
-2455 -1210 -1143 0
-2455 -1210 -1250 0
-2455 -1210 -1258 0
-2455 -1211 1412 0
-2455 -1211 -1151 -1155 0
-2455 -1211 -1078 0
-2455 -1211 -1086 0
-2455 -1211 -1137 0
-2455 -1211 -1145 0
-2455 -1211 -1252 0
-2455 -1211 -1260 0
-2455 -1212 0
-2456 1156 0
-2456 1404 0
-2456 1409 0
-2456 -1147 -1152 0
-2456 -1040 0
-2456 -1048 0
-2456 -1099 0
-2456 -1107 0
-2456 -1214 0
-2456 -1222 0
-2457 1156 0
-2457 1405 0
-2457 1409 0
-2457 -1148 -1152 0
-2457 -1048 0
-2457 -1056 0
-2457 -1107 0
-2457 -1115 0
-2457 -1222 0
-2457 -1230 0
-2458 1156 0
-2458 1406 0
-2458 1409 0
-2458 -1149 -1152 0
-2458 -1056 0
-2458 -1064 0
-2458 -1115 0
-2458 -1123 0
-2458 -1230 0
-2458 -1238 0
-2459 1156 0
-2459 1407 0
-2459 1409 0
-2459 -1150 -1152 0
-2459 -1064 0
-2459 -1072 0
-2459 -1123 0
-2459 -1131 0
-2459 -1238 0
-2459 -1246 0
-2460 1156 0
-2460 1408 0
-2460 1409 0
-2460 -1151 -1152 0
-2460 -1072 0
-2460 -1080 0
-2460 -1131 0
-2460 -1139 0
-2460 -1246 0
-2460 -1254 0
-2461 1213 0
-2461 1462 0
-2461 -1032 0
-2461 -1033 0
-2461 -1034 0
-2461 -1035 1467 0
-2461 -1035 -1205 -1210 0
-2461 -1035 -1042 0
-2461 -1035 -1050 0
-2461 -1035 -1058 0
-2461 -1035 -1101 0
-2461 -1035 -1109 0
-2461 -1035 -1117 0
-2461 -1035 -1159 0
-2461 -1035 -1167 0
-2461 -1035 -1175 0
-2461 -1036 1468 0
-2461 -1036 -1205 -1211 0
-2461 -1036 -1044 0
-2461 -1036 -1052 0
-2461 -1036 -1060 0
-2461 -1036 -1103 0
-2461 -1036 -1111 0
-2461 -1036 -1119 0
-2461 -1036 -1161 0
-2461 -1036 -1169 0
-2461 -1036 -1177 0
-2461 -1037 1469 0
-2461 -1037 -1205 -1212 0
-2461 -1037 -1046 0
-2461 -1037 -1054 0
-2461 -1037 -1062 0
-2461 -1037 -1105 0
-2461 -1037 -1113 0
-2461 -1037 -1121 0
-2461 -1037 -1163 0
-2461 -1037 -1171 0
-2461 -1037 -1179 0
-2461 -1038 0
-2462 1213 0
-2462 1463 0
-2462 -1029 0
-2462 -1033 0
-2462 -1034 0
-2462 -1035 1467 0
-2462 -1035 -1206 -1210 0
-2462 -1035 -1050 0
-2462 -1035 -1058 0
-2462 -1035 -1066 0
-2462 -1035 -1109 0
-2462 -1035 -1117 0
-2462 -1035 -1125 0
-2462 -1035 -1167 0
-2462 -1035 -1175 0
-2462 -1035 -1183 0
-2462 -1036 1468 0
-2462 -1036 -1206 -1211 0
-2462 -1036 -1052 0
-2462 -1036 -1060 0
-2462 -1036 -1068 0
-2462 -1036 -1111 0
-2462 -1036 -1119 0
-2462 -1036 -1127 0
-2462 -1036 -1169 0
-2462 -1036 -1177 0
-2462 -1036 -1185 0
-2462 -1037 1469 0
-2462 -1037 -1206 -1212 0
-2462 -1037 -1054 0
-2462 -1037 -1062 0
-2462 -1037 -1070 0
-2462 -1037 -1113 0
-2462 -1037 -1121 0
-2462 -1037 -1129 0
-2462 -1037 -1171 0
-2462 -1037 -1179 0
-2462 -1037 -1187 0
-2462 -1038 0
-2463 1213 0
-2463 1464 0
-2463 -1029 0
-2463 -1030 0
-2463 -1034 0
-2463 -1035 1467 0
-2463 -1035 -1207 -1210 0
-2463 -1035 -1058 0
-2463 -1035 -1066 0
-2463 -1035 -1074 0
-2463 -1035 -1117 0
-2463 -1035 -1125 0
-2463 -1035 -1133 0
-2463 -1035 -1175 0
-2463 -1035 -1183 0
-2463 -1035 -1191 0
-2463 -1036 1468 0
-2463 -1036 -1207 -1211 0
-2463 -1036 -1060 0
-2463 -1036 -1068 0
-2463 -1036 -1076 0
-2463 -1036 -1119 0
-2463 -1036 -1127 0
-2463 -1036 -1135 0
-2463 -1036 -1177 0
-2463 -1036 -1185 0
-2463 -1036 -1193 0
-2463 -1037 1469 0
-2463 -1037 -1207 -1212 0
-2463 -1037 -1062 0
-2463 -1037 -1070 0
-2463 -1037 -1078 0
-2463 -1037 -1121 0
-2463 -1037 -1129 0
-2463 -1037 -1137 0
-2463 -1037 -1179 0
-2463 -1037 -1187 0
-2463 -1037 -1195 0
-2463 -1038 0
-2464 1213 0
-2464 1465 0
-2464 -1029 0
-2464 -1030 0
-2464 -1031 0
-2464 -1035 1467 0
-2464 -1035 -1208 -1210 0
-2464 -1035 -1066 0
-2464 -1035 -1074 0
-2464 -1035 -1082 0
-2464 -1035 -1125 0
-2464 -1035 -1133 0
-2464 -1035 -1141 0
-2464 -1035 -1183 0
-2464 -1035 -1191 0
-2464 -1035 -1199 0
-2464 -1036 1468 0
-2464 -1036 -1208 -1211 0
-2464 -1036 -1068 0
-2464 -1036 -1076 0
-2464 -1036 -1084 0
-2464 -1036 -1127 0
-2464 -1036 -1135 0
-2464 -1036 -1143 0
-2464 -1036 -1185 0
-2464 -1036 -1193 0
-2464 -1036 -1201 0
-2464 -1037 1469 0
-2464 -1037 -1208 -1212 0
-2464 -1037 -1070 0
-2464 -1037 -1078 0
-2464 -1037 -1086 0
-2464 -1037 -1129 0
-2464 -1037 -1137 0
-2464 -1037 -1145 0
-2464 -1037 -1187 0
-2464 -1037 -1195 0
-2464 -1037 -1203 0
-2464 -1038 0
-2465 1213 0
-2465 1462 0
-2465 -1091 0
-2465 -1092 0
-2465 -1093 0
-2465 -1094 1467 0
-2465 -1094 -1205 -1210 0
-2465 -1094 -1042 0
-2465 -1094 -1050 0
-2465 -1094 -1058 0
-2465 -1094 -1101 0
-2465 -1094 -1109 0
-2465 -1094 -1117 0
-2465 -1094 -1159 0
-2465 -1094 -1167 0
-2465 -1094 -1175 0
-2465 -1095 1468 0
-2465 -1095 -1205 -1211 0
-2465 -1095 -1044 0
-2465 -1095 -1052 0
-2465 -1095 -1060 0
-2465 -1095 -1103 0
-2465 -1095 -1111 0
-2465 -1095 -1119 0
-2465 -1095 -1161 0
-2465 -1095 -1169 0
-2465 -1095 -1177 0
-2465 -1096 1469 0
-2465 -1096 -1205 -1212 0
-2465 -1096 -1046 0
-2465 -1096 -1054 0
-2465 -1096 -1062 0
-2465 -1096 -1105 0
-2465 -1096 -1113 0
-2465 -1096 -1121 0
-2465 -1096 -1163 0
-2465 -1096 -1171 0
-2465 -1096 -1179 0
-2465 -1097 0
-2466 1213 0
-2466 1463 0
-2466 -1088 0
-2466 -1092 0
-2466 -1093 0
-2466 -1094 1467 0
-2466 -1094 -1206 -1210 0
-2466 -1094 -1050 0
-2466 -1094 -1058 0
-2466 -1094 -1066 0
-2466 -1094 -1109 0
-2466 -1094 -1117 0
-2466 -1094 -1125 0
-2466 -1094 -1167 0
-2466 -1094 -1175 0
-2466 -1094 -1183 0
-2466 -1095 1468 0
-2466 -1095 -1206 -1211 0
-2466 -1095 -1052 0
-2466 -1095 -1060 0
-2466 -1095 -1068 0
-2466 -1095 -1111 0
-2466 -1095 -1119 0
-2466 -1095 -1127 0
-2466 -1095 -1169 0
-2466 -1095 -1177 0
-2466 -1095 -1185 0
-2466 -1096 1469 0
-2466 -1096 -1206 -1212 0
-2466 -1096 -1054 0
-2466 -1096 -1062 0
-2466 -1096 -1070 0
-2466 -1096 -1113 0
-2466 -1096 -1121 0
-2466 -1096 -1129 0
-2466 -1096 -1171 0
-2466 -1096 -1179 0
-2466 -1096 -1187 0
-2466 -1097 0
-2467 1213 0
-2467 1464 0
-2467 -1088 0
-2467 -1089 0
-2467 -1093 0
-2467 -1094 1467 0
-2467 -1094 -1207 -1210 0
-2467 -1094 -1058 0
-2467 -1094 -1066 0
-2467 -1094 -1074 0
-2467 -1094 -1117 0
-2467 -1094 -1125 0
-2467 -1094 -1133 0
-2467 -1094 -1175 0
-2467 -1094 -1183 0
-2467 -1094 -1191 0
-2467 -1095 1468 0
-2467 -1095 -1207 -1211 0
-2467 -1095 -1060 0
-2467 -1095 -1068 0
-2467 -1095 -1076 0
-2467 -1095 -1119 0
-2467 -1095 -1127 0
-2467 -1095 -1135 0
-2467 -1095 -1177 0
-2467 -1095 -1185 0
-2467 -1095 -1193 0
-2467 -1096 1469 0
-2467 -1096 -1207 -1212 0
-2467 -1096 -1062 0
-2467 -1096 -1070 0
-2467 -1096 -1078 0
-2467 -1096 -1121 0
-2467 -1096 -1129 0
-2467 -1096 -1137 0
-2467 -1096 -1179 0
-2467 -1096 -1187 0
-2467 -1096 -1195 0
-2467 -1097 0
-2468 1213 0
-2468 1465 0
-2468 -1088 0
-2468 -1089 0
-2468 -1090 0
-2468 -1094 1467 0
-2468 -1094 -1208 -1210 0
-2468 -1094 -1066 0
-2468 -1094 -1074 0
-2468 -1094 -1082 0
-2468 -1094 -1125 0
-2468 -1094 -1133 0
-2468 -1094 -1141 0
-2468 -1094 -1183 0
-2468 -1094 -1191 0
-2468 -1094 -1199 0
-2468 -1095 1468 0
-2468 -1095 -1208 -1211 0
-2468 -1095 -1068 0
-2468 -1095 -1076 0
-2468 -1095 -1084 0
-2468 -1095 -1127 0
-2468 -1095 -1135 0
-2468 -1095 -1143 0
-2468 -1095 -1185 0
-2468 -1095 -1193 0
-2468 -1095 -1201 0
-2468 -1096 1469 0
-2468 -1096 -1208 -1212 0
-2468 -1096 -1070 0
-2468 -1096 -1078 0
-2468 -1096 -1086 0
-2468 -1096 -1129 0
-2468 -1096 -1137 0
-2468 -1096 -1145 0
-2468 -1096 -1187 0
-2468 -1096 -1195 0
-2468 -1096 -1203 0
-2468 -1097 0
-2469 1213 0
-2469 1462 0
-2469 -1150 0
-2469 -1151 0
-2469 -1152 1467 0
-2469 -1152 -1205 -1210 0
-2469 -1152 -1042 0
-2469 -1152 -1050 0
-2469 -1152 -1058 0
-2469 -1152 -1101 0
-2469 -1152 -1109 0
-2469 -1152 -1117 0
-2469 -1152 -1159 0
-2469 -1152 -1167 0
-2469 -1152 -1175 0
-2469 -1153 1468 0
-2469 -1153 -1205 -1211 0
-2469 -1153 -1044 0
-2469 -1153 -1052 0
-2469 -1153 -1060 0
-2469 -1153 -1103 0
-2469 -1153 -1111 0
-2469 -1153 -1119 0
-2469 -1153 -1161 0
-2469 -1153 -1169 0
-2469 -1153 -1177 0
-2469 -1154 1469 0
-2469 -1154 -1205 -1212 0
-2469 -1154 -1046 0
-2469 -1154 -1054 0
-2469 -1154 -1062 0
-2469 -1154 -1105 0
-2469 -1154 -1113 0
-2469 -1154 -1121 0
-2469 -1154 -1163 0
-2469 -1154 -1171 0
-2469 -1154 -1179 0
-2469 -1155 0
-2470 1213 0
-2470 1463 0
-2470 -1151 0
-2470 -1152 1467 0
-2470 -1152 -1206 -1210 0
-2470 -1152 -1050 0
-2470 -1152 -1058 0
-2470 -1152 -1066 0
-2470 -1152 -1109 0
-2470 -1152 -1117 0
-2470 -1152 -1125 0
-2470 -1152 -1167 0
-2470 -1152 -1175 0
-2470 -1152 -1183 0
-2470 -1153 1468 0
-2470 -1153 -1206 -1211 0
-2470 -1153 -1052 0
-2470 -1153 -1060 0
-2470 -1153 -1068 0
-2470 -1153 -1111 0
-2470 -1153 -1119 0
-2470 -1153 -1127 0
-2470 -1153 -1169 0
-2470 -1153 -1177 0
-2470 -1153 -1185 0
-2470 -1154 1469 0
-2470 -1154 -1206 -1212 0
-2470 -1154 -1054 0
-2470 -1154 -1062 0
-2470 -1154 -1070 0
-2470 -1154 -1113 0
-2470 -1154 -1121 0
-2470 -1154 -1129 0
-2470 -1154 -1171 0
-2470 -1154 -1179 0
-2470 -1154 -1187 0
-2470 -1155 0
-2471 1213 0
-2471 1464 0
-2471 -1147 0
-2471 -1152 1467 0
-2471 -1152 -1207 -1210 0
-2471 -1152 -1058 0
-2471 -1152 -1066 0
-2471 -1152 -1074 0
-2471 -1152 -1117 0
-2471 -1152 -1125 0
-2471 -1152 -1133 0
-2471 -1152 -1175 0
-2471 -1152 -1183 0
-2471 -1152 -1191 0
-2471 -1153 1468 0
-2471 -1153 -1207 -1211 0
-2471 -1153 -1060 0
-2471 -1153 -1068 0
-2471 -1153 -1076 0
-2471 -1153 -1119 0
-2471 -1153 -1127 0
-2471 -1153 -1135 0
-2471 -1153 -1177 0
-2471 -1153 -1185 0
-2471 -1153 -1193 0
-2471 -1154 1469 0
-2471 -1154 -1207 -1212 0
-2471 -1154 -1062 0
-2471 -1154 -1070 0
-2471 -1154 -1078 0
-2471 -1154 -1121 0
-2471 -1154 -1129 0
-2471 -1154 -1137 0
-2471 -1154 -1179 0
-2471 -1154 -1187 0
-2471 -1154 -1195 0
-2471 -1155 0
-2472 1213 0
-2472 1465 0
-2472 -1147 0
-2472 -1148 0
-2472 -1152 1467 0
-2472 -1152 -1208 -1210 0
-2472 -1152 -1066 0
-2472 -1152 -1074 0
-2472 -1152 -1082 0
-2472 -1152 -1125 0
-2472 -1152 -1133 0
-2472 -1152 -1141 0
-2472 -1152 -1183 0
-2472 -1152 -1191 0
-2472 -1152 -1199 0
-2472 -1153 1468 0
-2472 -1153 -1208 -1211 0
-2472 -1153 -1068 0
-2472 -1153 -1076 0
-2472 -1153 -1084 0
-2472 -1153 -1127 0
-2472 -1153 -1135 0
-2472 -1153 -1143 0
-2472 -1153 -1185 0
-2472 -1153 -1193 0
-2472 -1153 -1201 0
-2472 -1154 1469 0
-2472 -1154 -1208 -1212 0
-2472 -1154 -1070 0
-2472 -1154 -1078 0
-2472 -1154 -1086 0
-2472 -1154 -1129 0
-2472 -1154 -1137 0
-2472 -1154 -1145 0
-2472 -1154 -1187 0
-2472 -1154 -1195 0
-2472 -1154 -1203 0
-2472 -1155 0
-2473 1213 0
-2473 1462 0
-2473 1466 0
-2473 -1205 -1209 0
-2473 -1040 0
-2473 -1048 0
-2473 -1056 0
-2473 -1099 0
-2473 -1107 0
-2473 -1115 0
-2473 -1157 0
-2473 -1165 0
-2473 -1173 0
-2474 1213 0
-2474 1463 0
-2474 1466 0
-2474 -1206 -1209 0
-2474 -1048 0
-2474 -1056 0
-2474 -1064 0
-2474 -1107 0
-2474 -1115 0
-2474 -1123 0
-2474 -1165 0
-2474 -1173 0
-2474 -1181 0
-2475 1213 0
-2475 1464 0
-2475 1466 0
-2475 -1207 -1209 0
-2475 -1056 0
-2475 -1064 0
-2475 -1072 0
-2475 -1115 0
-2475 -1123 0
-2475 -1131 0
-2475 -1173 0
-2475 -1181 0
-2475 -1189 0
-2476 1213 0
-2476 1465 0
-2476 1466 0
-2476 -1208 -1209 0
-2476 -1064 0
-2476 -1072 0
-2476 -1080 0
-2476 -1123 0
-2476 -1131 0
-2476 -1139 0
-2476 -1181 0
-2476 -1189 0
-2476 -1197 0
-1029 1286 2393 2394 2395 2396 2397 2398 2399 2400 2401 2402 2403 2404 2405 2406 2407 2408 2409 2410 2411 2412 2413 2414 2415 2416 0
-1030 1287 2393 2394 2395 2396 2397 2398 2399 2400 2401 2402 2403 2404 2405 2406 2407 2408 2409 2410 2411 2412 2413 2414 2415 2416 0
-1031 1288 2393 2394 2395 2396 2397 2398 2399 2400 2401 2402 2403 2404 2405 2406 2407 2408 2409 2410 2411 2412 2413 2414 2415 2416 0
-1032 1289 2393 2394 2395 2396 2397 2398 2399 2400 2401 2402 2403 2404 2405 2406 2407 2408 2409 2410 2411 2412 2413 2414 2415 2416 0
-1033 1290 2393 2394 2395 2396 2397 2398 2399 2400 2401 2402 2403 2404 2405 2406 2407 2408 2409 2410 2411 2412 2413 2414 2415 2416 0
-1034 1291 2393 2394 2395 2396 2397 2398 2399 2400 2401 2402 2403 2404 2405 2406 2407 2408 2409 2410 2411 2412 2413 2414 2415 2416 0
-1035 1292 2393 2394 2395 2396 2397 2398 2399 2400 2401 2402 2403 2404 2405 2406 2407 2408 2409 2410 2411 2412 2413 2414 2415 2416 0
-1036 1293 2393 2394 2395 2396 2397 2398 2399 2400 2401 2402 2403 2404 2405 2406 2407 2408 2409 2410 2411 2412 2413 2414 2415 2416 0
-1037 1294 2393 2394 2395 2396 2397 2398 2399 2400 2401 2402 2403 2404 2405 2406 2407 2408 2409 2410 2411 2412 2413 2414 2415 2416 0
-1038 1295 2393 2394 2395 2396 2397 2398 2399 2400 2401 2402 2403 2404 2405 2406 2407 2408 2409 2410 2411 2412 2413 2414 2415 2416 0
-1088 1345 2417 2418 2419 2420 2421 2422 2423 2424 2425 2426 2427 2428 2429 2430 2431 2432 2433 2434 2435 2436 2437 2438 2439 2440 0
-1089 1346 2417 2418 2419 2420 2421 2422 2423 2424 2425 2426 2427 2428 2429 2430 2431 2432 2433 2434 2435 2436 2437 2438 2439 2440 0
-1090 1347 2417 2418 2419 2420 2421 2422 2423 2424 2425 2426 2427 2428 2429 2430 2431 2432 2433 2434 2435 2436 2437 2438 2439 2440 0
-1091 1348 2417 2418 2419 2420 2421 2422 2423 2424 2425 2426 2427 2428 2429 2430 2431 2432 2433 2434 2435 2436 2437 2438 2439 2440 0
-1092 1349 2417 2418 2419 2420 2421 2422 2423 2424 2425 2426 2427 2428 2429 2430 2431 2432 2433 2434 2435 2436 2437 2438 2439 2440 0
-1093 1350 2417 2418 2419 2420 2421 2422 2423 2424 2425 2426 2427 2428 2429 2430 2431 2432 2433 2434 2435 2436 2437 2438 2439 2440 0
-1094 1351 2417 2418 2419 2420 2421 2422 2423 2424 2425 2426 2427 2428 2429 2430 2431 2432 2433 2434 2435 2436 2437 2438 2439 2440 0
-1095 1352 2417 2418 2419 2420 2421 2422 2423 2424 2425 2426 2427 2428 2429 2430 2431 2432 2433 2434 2435 2436 2437 2438 2439 2440 0
-1096 1353 2417 2418 2419 2420 2421 2422 2423 2424 2425 2426 2427 2428 2429 2430 2431 2432 2433 2434 2435 2436 2437 2438 2439 2440 0
-1097 1354 2417 2418 2419 2420 2421 2422 2423 2424 2425 2426 2427 2428 2429 2430 2431 2432 2433 2434 2435 2436 2437 2438 2439 2440 0
-1147 1404 2441 2442 2443 2444 2445 2446 2447 2448 2449 2450 2451 2452 2453 2454 2455 2456 2457 2458 2459 2460 0
-1148 1405 2441 2442 2443 2444 2445 2446 2447 2448 2449 2450 2451 2452 2453 2454 2455 2456 2457 2458 2459 2460 0
-1149 1406 2441 2442 2443 2444 2445 2446 2447 2448 2449 2450 2451 2452 2453 2454 2455 2456 2457 2458 2459 2460 0
-1150 1407 2441 2442 2443 2444 2445 2446 2447 2448 2449 2450 2451 2452 2453 2454 2455 2456 2457 2458 2459 2460 0
-1151 1408 2441 2442 2443 2444 2445 2446 2447 2448 2449 2450 2451 2452 2453 2454 2455 2456 2457 2458 2459 2460 0
-1152 1409 2441 2442 2443 2444 2445 2446 2447 2448 2449 2450 2451 2452 2453 2454 2455 2456 2457 2458 2459 2460 0
-1153 1410 2441 2442 2443 2444 2445 2446 2447 2448 2449 2450 2451 2452 2453 2454 2455 2456 2457 2458 2459 2460 0
-1154 1411 2441 2442 2443 2444 2445 2446 2447 2448 2449 2450 2451 2452 2453 2454 2455 2456 2457 2458 2459 2460 0
-1155 1412 2441 2442 2443 2444 2445 2446 2447 2448 2449 2450 2451 2452 2453 2454 2455 2456 2457 2458 2459 2460 0
-1205 1462 2461 2462 2463 2464 2465 2466 2467 2468 2469 2470 2471 2472 2473 2474 2475 2476 0
-1206 1463 2461 2462 2463 2464 2465 2466 2467 2468 2469 2470 2471 2472 2473 2474 2475 2476 0
-1207 1464 2461 2462 2463 2464 2465 2466 2467 2468 2469 2470 2471 2472 2473 2474 2475 2476 0
-1208 1465 2461 2462 2463 2464 2465 2466 2467 2468 2469 2470 2471 2472 2473 2474 2475 2476 0
-1209 1466 2461 2462 2463 2464 2465 2466 2467 2468 2469 2470 2471 2472 2473 2474 2475 2476 0
-1210 1467 2461 2462 2463 2464 2465 2466 2467 2468 2469 2470 2471 2472 2473 2474 2475 2476 0
-1211 1468 2461 2462 2463 2464 2465 2466 2467 2468 2469 2470 2471 2472 2473 2474 2475 2476 0
-1212 1469 2461 2462 2463 2464 2465 2466 2467 2468 2469 2470 2471 2472 2473 2474 2475 2476 0
-2477 -2478 0
-2477 -2479 0
-2477 -2480 0
-2477 -2481 0
-2477 -2482 0
-2477 -2483 0
-2477 -2484 0
-2477 -2485 0
-2477 -2486 0
-2477 -2487 0
-2477 -2488 0
-2477 -2489 0
-2477 -2490 0
-2477 -2491 0
-2477 -2492 0
-2477 -2493 0
-2477 -2494 0
-2477 -2495 0
-2477 -2496 0
-2477 -2497 0
-2477 -2498 0
-2477 -2499 0
-2477 -2500 0
-2477 -2501 0
-2477 -2502 0
-2477 -2503 0
-2477 -2504 0
-2477 -2505 0
-2477 -2506 0
-2477 -2507 0
-2477 -2508 0
-2477 -2509 0
-2477 -2510 0
-2477 -2511 0
-2477 -2512 0
-2477 -2513 0
-2477 -2514 0
-2477 -2515 0
-2477 -2516 0
-2477 -2517 0
-2477 -2518 0
-2477 -2519 0
-2477 -2520 0
-2477 -2521 0
-2477 -2522 0
-2477 -2523 0
-2477 -2524 0
-2477 -2525 0
-2477 -2526 0
-2477 -2527 0
-2477 -2528 0
-2477 -2529 0
-2477 -2530 0
-2477 -2531 0
-2477 -2532 0
-2477 -2533 0
-2477 -2534 0
-2477 -2535 0
-2477 -2536 0
-2477 -2537 0
-2477 -2538 0
-2477 -2539 0
-2477 -2540 0
-2477 -2541 0
-2477 -2542 0
-2477 -2543 0
-2477 -2544 0
-2477 -2545 0
-2477 -2546 0
-2477 -2547 0
-2477 -2548 0
-2477 -2549 0
-2477 -2550 0
-2477 -2551 0
-2477 -2552 0
-2477 -2553 0
-2477 -2554 0
-2477 -2555 0
-2477 -2556 0
-2477 -2557 0
-2477 -2558 0
-2477 -2559 0
-2477 -2560 0
-2478 -2479 0
-2478 -2480 0
-2478 -2481 0
-2478 -2482 0
-2478 -2483 0
-2478 -2484 0
-2478 -2485 0
-2478 -2486 0
-2478 -2487 0
-2478 -2488 0
-2478 -2489 0
-2478 -2490 0
-2478 -2491 0
-2478 -2492 0
-2478 -2493 0
-2478 -2494 0
-2478 -2495 0
-2478 -2496 0
-2478 -2497 0
-2478 -2498 0
-2478 -2499 0
-2478 -2500 0
-2478 -2501 0
-2478 -2502 0
-2478 -2503 0
-2478 -2504 0
-2478 -2505 0
-2478 -2506 0
-2478 -2507 0
-2478 -2508 0
-2478 -2509 0
-2478 -2510 0
-2478 -2511 0
-2478 -2512 0
-2478 -2513 0
-2478 -2514 0
-2478 -2515 0
-2478 -2516 0
-2478 -2517 0
-2478 -2518 0
-2478 -2519 0
-2478 -2520 0
-2478 -2521 0
-2478 -2522 0
-2478 -2523 0
-2478 -2524 0
-2478 -2525 0
-2478 -2526 0
-2478 -2527 0
-2478 -2528 0
-2478 -2529 0
-2478 -2530 0
-2478 -2531 0
-2478 -2532 0
-2478 -2533 0
-2478 -2534 0
-2478 -2535 0
-2478 -2536 0
-2478 -2537 0
-2478 -2538 0
-2478 -2539 0
-2478 -2540 0
-2478 -2541 0
-2478 -2542 0
-2478 -2543 0
-2478 -2544 0
-2478 -2545 0
-2478 -2546 0
-2478 -2547 0
-2478 -2548 0
-2478 -2549 0
-2478 -2550 0
-2478 -2551 0
-2478 -2552 0
-2478 -2553 0
-2478 -2554 0
-2478 -2555 0
-2478 -2556 0
-2478 -2557 0
-2478 -2558 0
-2478 -2559 0
-2478 -2560 0
-2479 -2480 0
-2479 -2481 0
-2479 -2482 0
-2479 -2483 0
-2479 -2484 0
-2479 -2485 0
-2479 -2486 0
-2479 -2487 0
-2479 -2488 0
-2479 -2489 0
-2479 -2490 0
-2479 -2491 0
-2479 -2492 0
-2479 -2493 0
-2479 -2494 0
-2479 -2495 0
-2479 -2496 0
-2479 -2497 0
-2479 -2498 0
-2479 -2499 0
-2479 -2500 0
-2479 -2501 0
-2479 -2502 0
-2479 -2503 0
-2479 -2504 0
-2479 -2505 0
-2479 -2506 0
-2479 -2507 0
-2479 -2508 0
-2479 -2509 0
-2479 -2510 0
-2479 -2511 0
-2479 -2512 0
-2479 -2513 0
-2479 -2514 0
-2479 -2515 0
-2479 -2516 0
-2479 -2517 0
-2479 -2518 0
-2479 -2519 0
-2479 -2520 0
-2479 -2521 0
-2479 -2522 0
-2479 -2523 0
-2479 -2524 0
-2479 -2525 0
-2479 -2526 0
-2479 -2527 0
-2479 -2528 0
-2479 -2529 0
-2479 -2530 0
-2479 -2531 0
-2479 -2532 0
-2479 -2533 0
-2479 -2534 0
-2479 -2535 0
-2479 -2536 0
-2479 -2537 0
-2479 -2538 0
-2479 -2539 0
-2479 -2540 0
-2479 -2541 0
-2479 -2542 0
-2479 -2543 0
-2479 -2544 0
-2479 -2545 0
-2479 -2546 0
-2479 -2547 0
-2479 -2548 0
-2479 -2549 0
-2479 -2550 0
-2479 -2551 0
-2479 -2552 0
-2479 -2553 0
-2479 -2554 0
-2479 -2555 0
-2479 -2556 0
-2479 -2557 0
-2479 -2558 0
-2479 -2559 0
-2479 -2560 0
-2480 -2481 0
-2480 -2482 0
-2480 -2483 0
-2480 -2484 0
-2480 -2485 0
-2480 -2486 0
-2480 -2487 0
-2480 -2488 0
-2480 -2489 0
-2480 -2490 0
-2480 -2491 0
-2480 -2492 0
-2480 -2493 0
-2480 -2494 0
-2480 -2495 0
-2480 -2496 0
-2480 -2497 0
-2480 -2498 0
-2480 -2499 0
-2480 -2500 0
-2480 -2501 0
-2480 -2502 0
-2480 -2503 0
-2480 -2504 0
-2480 -2505 0
-2480 -2506 0
-2480 -2507 0
-2480 -2508 0
-2480 -2509 0
-2480 -2510 0
-2480 -2511 0
-2480 -2512 0
-2480 -2513 0
-2480 -2514 0
-2480 -2515 0
-2480 -2516 0
-2480 -2517 0
-2480 -2518 0
-2480 -2519 0
-2480 -2520 0
-2480 -2521 0
-2480 -2522 0
-2480 -2523 0
-2480 -2524 0
-2480 -2525 0
-2480 -2526 0
-2480 -2527 0
-2480 -2528 0
-2480 -2529 0
-2480 -2530 0
-2480 -2531 0
-2480 -2532 0
-2480 -2533 0
-2480 -2534 0
-2480 -2535 0
-2480 -2536 0
-2480 -2537 0
-2480 -2538 0
-2480 -2539 0
-2480 -2540 0
-2480 -2541 0
-2480 -2542 0
-2480 -2543 0
-2480 -2544 0
-2480 -2545 0
-2480 -2546 0
-2480 -2547 0
-2480 -2548 0
-2480 -2549 0
-2480 -2550 0
-2480 -2551 0
-2480 -2552 0
-2480 -2553 0
-2480 -2554 0
-2480 -2555 0
-2480 -2556 0
-2480 -2557 0
-2480 -2558 0
-2480 -2559 0
-2480 -2560 0
-2481 -2482 0
-2481 -2483 0
-2481 -2484 0
-2481 -2485 0
-2481 -2486 0
-2481 -2487 0
-2481 -2488 0
-2481 -2489 0
-2481 -2490 0
-2481 -2491 0
-2481 -2492 0
-2481 -2493 0
-2481 -2494 0
-2481 -2495 0
-2481 -2496 0
-2481 -2497 0
-2481 -2498 0
-2481 -2499 0
-2481 -2500 0
-2481 -2501 0
-2481 -2502 0
-2481 -2503 0
-2481 -2504 0
-2481 -2505 0
-2481 -2506 0
-2481 -2507 0
-2481 -2508 0
-2481 -2509 0
-2481 -2510 0
-2481 -2511 0
-2481 -2512 0
-2481 -2513 0
-2481 -2514 0
-2481 -2515 0
-2481 -2516 0
-2481 -2517 0
-2481 -2518 0
-2481 -2519 0
-2481 -2520 0
-2481 -2521 0
-2481 -2522 0
-2481 -2523 0
-2481 -2524 0
-2481 -2525 0
-2481 -2526 0
-2481 -2527 0
-2481 -2528 0
-2481 -2529 0
-2481 -2530 0
-2481 -2531 0
-2481 -2532 0
-2481 -2533 0
-2481 -2534 0
-2481 -2535 0
-2481 -2536 0
-2481 -2537 0
-2481 -2538 0
-2481 -2539 0
-2481 -2540 0
-2481 -2541 0
-2481 -2542 0
-2481 -2543 0
-2481 -2544 0
-2481 -2545 0
-2481 -2546 0
-2481 -2547 0
-2481 -2548 0
-2481 -2549 0
-2481 -2550 0
-2481 -2551 0
-2481 -2552 0
-2481 -2553 0
-2481 -2554 0
-2481 -2555 0
-2481 -2556 0
-2481 -2557 0
-2481 -2558 0
-2481 -2559 0
-2481 -2560 0
-2482 -2483 0
-2482 -2484 0
-2482 -2485 0
-2482 -2486 0
-2482 -2487 0
-2482 -2488 0
-2482 -2489 0
-2482 -2490 0
-2482 -2491 0
-2482 -2492 0
-2482 -2493 0
-2482 -2494 0
-2482 -2495 0
-2482 -2496 0
-2482 -2497 0
-2482 -2498 0
-2482 -2499 0
-2482 -2500 0
-2482 -2501 0
-2482 -2502 0
-2482 -2503 0
-2482 -2504 0
-2482 -2505 0
-2482 -2506 0
-2482 -2507 0
-2482 -2508 0
-2482 -2509 0
-2482 -2510 0
-2482 -2511 0
-2482 -2512 0
-2482 -2513 0
-2482 -2514 0
-2482 -2515 0
-2482 -2516 0
-2482 -2517 0
-2482 -2518 0
-2482 -2519 0
-2482 -2520 0
-2482 -2521 0
-2482 -2522 0
-2482 -2523 0
-2482 -2524 0
-2482 -2525 0
-2482 -2526 0
-2482 -2527 0
-2482 -2528 0
-2482 -2529 0
-2482 -2530 0
-2482 -2531 0
-2482 -2532 0
-2482 -2533 0
-2482 -2534 0
-2482 -2535 0
-2482 -2536 0
-2482 -2537 0
-2482 -2538 0
-2482 -2539 0
-2482 -2540 0
-2482 -2541 0
-2482 -2542 0
-2482 -2543 0
-2482 -2544 0
-2482 -2545 0
-2482 -2546 0
-2482 -2547 0
-2482 -2548 0
-2482 -2549 0
-2482 -2550 0
-2482 -2551 0
-2482 -2552 0
-2482 -2553 0
-2482 -2554 0
-2482 -2555 0
-2482 -2556 0
-2482 -2557 0
-2482 -2558 0
-2482 -2559 0
-2482 -2560 0
-2483 -2484 0
-2483 -2485 0
-2483 -2486 0
-2483 -2487 0
-2483 -2488 0
-2483 -2489 0
-2483 -2490 0
-2483 -2491 0
-2483 -2492 0
-2483 -2493 0
-2483 -2494 0
-2483 -2495 0
-2483 -2496 0
-2483 -2497 0
-2483 -2498 0
-2483 -2499 0
-2483 -2500 0
-2483 -2501 0
-2483 -2502 0
-2483 -2503 0
-2483 -2504 0
-2483 -2505 0
-2483 -2506 0
-2483 -2507 0
-2483 -2508 0
-2483 -2509 0
-2483 -2510 0
-2483 -2511 0
-2483 -2512 0
-2483 -2513 0
-2483 -2514 0
-2483 -2515 0
-2483 -2516 0
-2483 -2517 0
-2483 -2518 0
-2483 -2519 0
-2483 -2520 0
-2483 -2521 0
-2483 -2522 0
-2483 -2523 0
-2483 -2524 0
-2483 -2525 0
-2483 -2526 0
-2483 -2527 0
-2483 -2528 0
-2483 -2529 0
-2483 -2530 0
-2483 -2531 0
-2483 -2532 0
-2483 -2533 0
-2483 -2534 0
-2483 -2535 0
-2483 -2536 0
-2483 -2537 0
-2483 -2538 0
-2483 -2539 0
-2483 -2540 0
-2483 -2541 0
-2483 -2542 0
-2483 -2543 0
-2483 -2544 0
-2483 -2545 0
-2483 -2546 0
-2483 -2547 0
-2483 -2548 0
-2483 -2549 0
-2483 -2550 0
-2483 -2551 0
-2483 -2552 0
-2483 -2553 0
-2483 -2554 0
-2483 -2555 0
-2483 -2556 0
-2483 -2557 0
-2483 -2558 0
-2483 -2559 0
-2483 -2560 0
-2484 -2485 0
-2484 -2486 0
-2484 -2487 0
-2484 -2488 0
-2484 -2489 0
-2484 -2490 0
-2484 -2491 0
-2484 -2492 0
-2484 -2493 0
-2484 -2494 0
-2484 -2495 0
-2484 -2496 0
-2484 -2497 0
-2484 -2498 0
-2484 -2499 0
-2484 -2500 0
-2484 -2501 0
-2484 -2502 0
-2484 -2503 0
-2484 -2504 0
-2484 -2505 0
-2484 -2506 0
-2484 -2507 0
-2484 -2508 0
-2484 -2509 0
-2484 -2510 0
-2484 -2511 0
-2484 -2512 0
-2484 -2513 0
-2484 -2514 0
-2484 -2515 0
-2484 -2516 0
-2484 -2517 0
-2484 -2518 0
-2484 -2519 0
-2484 -2520 0
-2484 -2521 0
-2484 -2522 0
-2484 -2523 0
-2484 -2524 0
-2484 -2525 0
-2484 -2526 0
-2484 -2527 0
-2484 -2528 0
-2484 -2529 0
-2484 -2530 0
-2484 -2531 0
-2484 -2532 0
-2484 -2533 0
-2484 -2534 0
-2484 -2535 0
-2484 -2536 0
-2484 -2537 0
-2484 -2538 0
-2484 -2539 0
-2484 -2540 0
-2484 -2541 0
-2484 -2542 0
-2484 -2543 0
-2484 -2544 0
-2484 -2545 0
-2484 -2546 0
-2484 -2547 0
-2484 -2548 0
-2484 -2549 0
-2484 -2550 0
-2484 -2551 0
-2484 -2552 0
-2484 -2553 0
-2484 -2554 0
-2484 -2555 0
-2484 -2556 0
-2484 -2557 0
-2484 -2558 0
-2484 -2559 0
-2484 -2560 0
-2485 -2486 0
-2485 -2487 0
-2485 -2488 0
-2485 -2489 0
-2485 -2490 0
-2485 -2491 0
-2485 -2492 0
-2485 -2493 0
-2485 -2494 0
-2485 -2495 0
-2485 -2496 0
-2485 -2497 0
-2485 -2498 0
-2485 -2499 0
-2485 -2500 0
-2485 -2501 0
-2485 -2502 0
-2485 -2503 0
-2485 -2504 0
-2485 -2505 0
-2485 -2506 0
-2485 -2507 0
-2485 -2508 0
-2485 -2509 0
-2485 -2510 0
-2485 -2511 0
-2485 -2512 0
-2485 -2513 0
-2485 -2514 0
-2485 -2515 0
-2485 -2516 0
-2485 -2517 0
-2485 -2518 0
-2485 -2519 0
-2485 -2520 0
-2485 -2521 0
-2485 -2522 0
-2485 -2523 0
-2485 -2524 0
-2485 -2525 0
-2485 -2526 0
-2485 -2527 0
-2485 -2528 0
-2485 -2529 0
-2485 -2530 0
-2485 -2531 0
-2485 -2532 0
-2485 -2533 0
-2485 -2534 0
-2485 -2535 0
-2485 -2536 0
-2485 -2537 0
-2485 -2538 0
-2485 -2539 0
-2485 -2540 0
-2485 -2541 0
-2485 -2542 0
-2485 -2543 0
-2485 -2544 0
-2485 -2545 0
-2485 -2546 0
-2485 -2547 0
-2485 -2548 0
-2485 -2549 0
-2485 -2550 0
-2485 -2551 0
-2485 -2552 0
-2485 -2553 0
-2485 -2554 0
-2485 -2555 0
-2485 -2556 0
-2485 -2557 0
-2485 -2558 0
-2485 -2559 0
-2485 -2560 0
-2486 -2487 0
-2486 -2488 0
-2486 -2489 0
-2486 -2490 0
-2486 -2491 0
-2486 -2492 0
-2486 -2493 0
-2486 -2494 0
-2486 -2495 0
-2486 -2496 0
-2486 -2497 0
-2486 -2498 0
-2486 -2499 0
-2486 -2500 0
-2486 -2501 0
-2486 -2502 0
-2486 -2503 0
-2486 -2504 0
-2486 -2505 0
-2486 -2506 0
-2486 -2507 0
-2486 -2508 0
-2486 -2509 0
-2486 -2510 0
-2486 -2511 0
-2486 -2512 0
-2486 -2513 0
-2486 -2514 0
-2486 -2515 0
-2486 -2516 0
-2486 -2517 0
-2486 -2518 0
-2486 -2519 0
-2486 -2520 0
-2486 -2521 0
-2486 -2522 0
-2486 -2523 0
-2486 -2524 0
-2486 -2525 0
-2486 -2526 0
-2486 -2527 0
-2486 -2528 0
-2486 -2529 0
-2486 -2530 0
-2486 -2531 0
-2486 -2532 0
-2486 -2533 0
-2486 -2534 0
-2486 -2535 0
-2486 -2536 0
-2486 -2537 0
-2486 -2538 0
-2486 -2539 0
-2486 -2540 0
-2486 -2541 0
-2486 -2542 0
-2486 -2543 0
-2486 -2544 0
-2486 -2545 0
-2486 -2546 0
-2486 -2547 0
-2486 -2548 0
-2486 -2549 0
-2486 -2550 0
-2486 -2551 0
-2486 -2552 0
-2486 -2553 0
-2486 -2554 0
-2486 -2555 0
-2486 -2556 0
-2486 -2557 0
-2486 -2558 0
-2486 -2559 0
-2486 -2560 0
-2487 -2488 0
-2487 -2489 0
-2487 -2490 0
-2487 -2491 0
-2487 -2492 0
-2487 -2493 0
-2487 -2494 0
-2487 -2495 0
-2487 -2496 0
-2487 -2497 0
-2487 -2498 0
-2487 -2499 0
-2487 -2500 0
-2487 -2501 0
-2487 -2502 0
-2487 -2503 0
-2487 -2504 0
-2487 -2505 0
-2487 -2506 0
-2487 -2507 0
-2487 -2508 0
-2487 -2509 0
-2487 -2510 0
-2487 -2511 0
-2487 -2512 0
-2487 -2513 0
-2487 -2514 0
-2487 -2515 0
-2487 -2516 0
-2487 -2517 0
-2487 -2518 0
-2487 -2519 0
-2487 -2520 0
-2487 -2521 0
-2487 -2522 0
-2487 -2523 0
-2487 -2524 0
-2487 -2525 0
-2487 -2526 0
-2487 -2527 0
-2487 -2528 0
-2487 -2529 0
-2487 -2530 0
-2487 -2531 0
-2487 -2532 0
-2487 -2533 0
-2487 -2534 0
-2487 -2535 0
-2487 -2536 0
-2487 -2537 0
-2487 -2538 0
-2487 -2539 0
-2487 -2540 0
-2487 -2541 0
-2487 -2542 0
-2487 -2543 0
-2487 -2544 0
-2487 -2545 0
-2487 -2546 0
-2487 -2547 0
-2487 -2548 0
-2487 -2549 0
-2487 -2550 0
-2487 -2551 0
-2487 -2552 0
-2487 -2553 0
-2487 -2554 0
-2487 -2555 0
-2487 -2556 0
-2487 -2557 0
-2487 -2558 0
-2487 -2559 0
-2487 -2560 0
-2488 -2489 0
-2488 -2490 0
-2488 -2491 0
-2488 -2492 0
-2488 -2493 0
-2488 -2494 0
-2488 -2495 0
-2488 -2496 0
-2488 -2497 0
-2488 -2498 0
-2488 -2499 0
-2488 -2500 0
-2488 -2501 0
-2488 -2502 0
-2488 -2503 0
-2488 -2504 0
-2488 -2505 0
-2488 -2506 0
-2488 -2507 0
-2488 -2508 0
-2488 -2509 0
-2488 -2510 0
-2488 -2511 0
-2488 -2512 0
-2488 -2513 0
-2488 -2514 0
-2488 -2515 0
-2488 -2516 0
-2488 -2517 0
-2488 -2518 0
-2488 -2519 0
-2488 -2520 0
-2488 -2521 0
-2488 -2522 0
-2488 -2523 0
-2488 -2524 0
-2488 -2525 0
-2488 -2526 0
-2488 -2527 0
-2488 -2528 0
-2488 -2529 0
-2488 -2530 0
-2488 -2531 0
-2488 -2532 0
-2488 -2533 0
-2488 -2534 0
-2488 -2535 0
-2488 -2536 0
-2488 -2537 0
-2488 -2538 0
-2488 -2539 0
-2488 -2540 0
-2488 -2541 0
-2488 -2542 0
-2488 -2543 0
-2488 -2544 0
-2488 -2545 0
-2488 -2546 0
-2488 -2547 0
-2488 -2548 0
-2488 -2549 0
-2488 -2550 0
-2488 -2551 0
-2488 -2552 0
-2488 -2553 0
-2488 -2554 0
-2488 -2555 0
-2488 -2556 0
-2488 -2557 0
-2488 -2558 0
-2488 -2559 0
-2488 -2560 0
-2489 -2490 0
-2489 -2491 0
-2489 -2492 0
-2489 -2493 0
-2489 -2494 0
-2489 -2495 0
-2489 -2496 0
-2489 -2497 0
-2489 -2498 0
-2489 -2499 0
-2489 -2500 0
-2489 -2501 0
-2489 -2502 0
-2489 -2503 0
-2489 -2504 0
-2489 -2505 0
-2489 -2506 0
-2489 -2507 0
-2489 -2508 0
-2489 -2509 0
-2489 -2510 0
-2489 -2511 0
-2489 -2512 0
-2489 -2513 0
-2489 -2514 0
-2489 -2515 0
-2489 -2516 0
-2489 -2517 0
-2489 -2518 0
-2489 -2519 0
-2489 -2520 0
-2489 -2521 0
-2489 -2522 0
-2489 -2523 0
-2489 -2524 0
-2489 -2525 0
-2489 -2526 0
-2489 -2527 0
-2489 -2528 0
-2489 -2529 0
-2489 -2530 0
-2489 -2531 0
-2489 -2532 0
-2489 -2533 0
-2489 -2534 0
-2489 -2535 0
-2489 -2536 0
-2489 -2537 0
-2489 -2538 0
-2489 -2539 0
-2489 -2540 0
-2489 -2541 0
-2489 -2542 0
-2489 -2543 0
-2489 -2544 0
-2489 -2545 0
-2489 -2546 0
-2489 -2547 0
-2489 -2548 0
-2489 -2549 0
-2489 -2550 0
-2489 -2551 0
-2489 -2552 0
-2489 -2553 0
-2489 -2554 0
-2489 -2555 0
-2489 -2556 0
-2489 -2557 0
-2489 -2558 0
-2489 -2559 0
-2489 -2560 0
-2490 -2491 0
-2490 -2492 0
-2490 -2493 0
-2490 -2494 0
-2490 -2495 0
-2490 -2496 0
-2490 -2497 0
-2490 -2498 0
-2490 -2499 0
-2490 -2500 0
-2490 -2501 0
-2490 -2502 0
-2490 -2503 0
-2490 -2504 0
-2490 -2505 0
-2490 -2506 0
-2490 -2507 0
-2490 -2508 0
-2490 -2509 0
-2490 -2510 0
-2490 -2511 0
-2490 -2512 0
-2490 -2513 0
-2490 -2514 0
-2490 -2515 0
-2490 -2516 0
-2490 -2517 0
-2490 -2518 0
-2490 -2519 0
-2490 -2520 0
-2490 -2521 0
-2490 -2522 0
-2490 -2523 0
-2490 -2524 0
-2490 -2525 0
-2490 -2526 0
-2490 -2527 0
-2490 -2528 0
-2490 -2529 0
-2490 -2530 0
-2490 -2531 0
-2490 -2532 0
-2490 -2533 0
-2490 -2534 0
-2490 -2535 0
-2490 -2536 0
-2490 -2537 0
-2490 -2538 0
-2490 -2539 0
-2490 -2540 0
-2490 -2541 0
-2490 -2542 0
-2490 -2543 0
-2490 -2544 0
-2490 -2545 0
-2490 -2546 0
-2490 -2547 0
-2490 -2548 0
-2490 -2549 0
-2490 -2550 0
-2490 -2551 0
-2490 -2552 0
-2490 -2553 0
-2490 -2554 0
-2490 -2555 0
-2490 -2556 0
-2490 -2557 0
-2490 -2558 0
-2490 -2559 0
-2490 -2560 0
-2491 -2492 0
-2491 -2493 0
-2491 -2494 0
-2491 -2495 0
-2491 -2496 0
-2491 -2497 0
-2491 -2498 0
-2491 -2499 0
-2491 -2500 0
-2491 -2501 0
-2491 -2502 0
-2491 -2503 0
-2491 -2504 0
-2491 -2505 0
-2491 -2506 0
-2491 -2507 0
-2491 -2508 0
-2491 -2509 0
-2491 -2510 0
-2491 -2511 0
-2491 -2512 0
-2491 -2513 0
-2491 -2514 0
-2491 -2515 0
-2491 -2516 0
-2491 -2517 0
-2491 -2518 0
-2491 -2519 0
-2491 -2520 0
-2491 -2521 0
-2491 -2522 0
-2491 -2523 0
-2491 -2524 0
-2491 -2525 0
-2491 -2526 0
-2491 -2527 0
-2491 -2528 0
-2491 -2529 0
-2491 -2530 0
-2491 -2531 0
-2491 -2532 0
-2491 -2533 0
-2491 -2534 0
-2491 -2535 0
-2491 -2536 0
-2491 -2537 0
-2491 -2538 0
-2491 -2539 0
-2491 -2540 0
-2491 -2541 0
-2491 -2542 0
-2491 -2543 0
-2491 -2544 0
-2491 -2545 0
-2491 -2546 0
-2491 -2547 0
-2491 -2548 0
-2491 -2549 0
-2491 -2550 0
-2491 -2551 0
-2491 -2552 0
-2491 -2553 0
-2491 -2554 0
-2491 -2555 0
-2491 -2556 0
-2491 -2557 0
-2491 -2558 0
-2491 -2559 0
-2491 -2560 0
-2492 -2493 0
-2492 -2494 0
-2492 -2495 0
-2492 -2496 0
-2492 -2497 0
-2492 -2498 0
-2492 -2499 0
-2492 -2500 0
-2492 -2501 0
-2492 -2502 0
-2492 -2503 0
-2492 -2504 0
-2492 -2505 0
-2492 -2506 0
-2492 -2507 0
-2492 -2508 0
-2492 -2509 0
-2492 -2510 0
-2492 -2511 0
-2492 -2512 0
-2492 -2513 0
-2492 -2514 0
-2492 -2515 0
-2492 -2516 0
-2492 -2517 0
-2492 -2518 0
-2492 -2519 0
-2492 -2520 0
-2492 -2521 0
-2492 -2522 0
-2492 -2523 0
-2492 -2524 0
-2492 -2525 0
-2492 -2526 0
-2492 -2527 0
-2492 -2528 0
-2492 -2529 0
-2492 -2530 0
-2492 -2531 0
-2492 -2532 0
-2492 -2533 0
-2492 -2534 0
-2492 -2535 0
-2492 -2536 0
-2492 -2537 0
-2492 -2538 0
-2492 -2539 0
-2492 -2540 0
-2492 -2541 0
-2492 -2542 0
-2492 -2543 0
-2492 -2544 0
-2492 -2545 0
-2492 -2546 0
-2492 -2547 0
-2492 -2548 0
-2492 -2549 0
-2492 -2550 0
-2492 -2551 0
-2492 -2552 0
-2492 -2553 0
-2492 -2554 0
-2492 -2555 0
-2492 -2556 0
-2492 -2557 0
-2492 -2558 0
-2492 -2559 0
-2492 -2560 0
-2493 -2494 0
-2493 -2495 0
-2493 -2496 0
-2493 -2497 0
-2493 -2498 0
-2493 -2499 0
-2493 -2500 0
-2493 -2501 0
-2493 -2502 0
-2493 -2503 0
-2493 -2504 0
-2493 -2505 0
-2493 -2506 0
-2493 -2507 0
-2493 -2508 0
-2493 -2509 0
-2493 -2510 0
-2493 -2511 0
-2493 -2512 0
-2493 -2513 0
-2493 -2514 0
-2493 -2515 0
-2493 -2516 0
-2493 -2517 0
-2493 -2518 0
-2493 -2519 0
-2493 -2520 0
-2493 -2521 0
-2493 -2522 0
-2493 -2523 0
-2493 -2524 0
-2493 -2525 0
-2493 -2526 0
-2493 -2527 0
-2493 -2528 0
-2493 -2529 0
-2493 -2530 0
-2493 -2531 0
-2493 -2532 0
-2493 -2533 0
-2493 -2534 0
-2493 -2535 0
-2493 -2536 0
-2493 -2537 0
-2493 -2538 0
-2493 -2539 0
-2493 -2540 0
-2493 -2541 0
-2493 -2542 0
-2493 -2543 0
-2493 -2544 0
-2493 -2545 0
-2493 -2546 0
-2493 -2547 0
-2493 -2548 0
-2493 -2549 0
-2493 -2550 0
-2493 -2551 0
-2493 -2552 0
-2493 -2553 0
-2493 -2554 0
-2493 -2555 0
-2493 -2556 0
-2493 -2557 0
-2493 -2558 0
-2493 -2559 0
-2493 -2560 0
-2494 -2495 0
-2494 -2496 0
-2494 -2497 0
-2494 -2498 0
-2494 -2499 0
-2494 -2500 0
-2494 -2501 0
-2494 -2502 0
-2494 -2503 0
-2494 -2504 0
-2494 -2505 0
-2494 -2506 0
-2494 -2507 0
-2494 -2508 0
-2494 -2509 0
-2494 -2510 0
-2494 -2511 0
-2494 -2512 0
-2494 -2513 0
-2494 -2514 0
-2494 -2515 0
-2494 -2516 0
-2494 -2517 0
-2494 -2518 0
-2494 -2519 0
-2494 -2520 0
-2494 -2521 0
-2494 -2522 0
-2494 -2523 0
-2494 -2524 0
-2494 -2525 0
-2494 -2526 0
-2494 -2527 0
-2494 -2528 0
-2494 -2529 0
-2494 -2530 0
-2494 -2531 0
-2494 -2532 0
-2494 -2533 0
-2494 -2534 0
-2494 -2535 0
-2494 -2536 0
-2494 -2537 0
-2494 -2538 0
-2494 -2539 0
-2494 -2540 0
-2494 -2541 0
-2494 -2542 0
-2494 -2543 0
-2494 -2544 0
-2494 -2545 0
-2494 -2546 0
-2494 -2547 0
-2494 -2548 0
-2494 -2549 0
-2494 -2550 0
-2494 -2551 0
-2494 -2552 0
-2494 -2553 0
-2494 -2554 0
-2494 -2555 0
-2494 -2556 0
-2494 -2557 0
-2494 -2558 0
-2494 -2559 0
-2494 -2560 0
-2495 -2496 0
-2495 -2497 0
-2495 -2498 0
-2495 -2499 0
-2495 -2500 0
-2495 -2501 0
-2495 -2502 0
-2495 -2503 0
-2495 -2504 0
-2495 -2505 0
-2495 -2506 0
-2495 -2507 0
-2495 -2508 0
-2495 -2509 0
-2495 -2510 0
-2495 -2511 0
-2495 -2512 0
-2495 -2513 0
-2495 -2514 0
-2495 -2515 0
-2495 -2516 0
-2495 -2517 0
-2495 -2518 0
-2495 -2519 0
-2495 -2520 0
-2495 -2521 0
-2495 -2522 0
-2495 -2523 0
-2495 -2524 0
-2495 -2525 0
-2495 -2526 0
-2495 -2527 0
-2495 -2528 0
-2495 -2529 0
-2495 -2530 0
-2495 -2531 0
-2495 -2532 0
-2495 -2533 0
-2495 -2534 0
-2495 -2535 0
-2495 -2536 0
-2495 -2537 0
-2495 -2538 0
-2495 -2539 0
-2495 -2540 0
-2495 -2541 0
-2495 -2542 0
-2495 -2543 0
-2495 -2544 0
-2495 -2545 0
-2495 -2546 0
-2495 -2547 0
-2495 -2548 0
-2495 -2549 0
-2495 -2550 0
-2495 -2551 0
-2495 -2552 0
-2495 -2553 0
-2495 -2554 0
-2495 -2555 0
-2495 -2556 0
-2495 -2557 0
-2495 -2558 0
-2495 -2559 0
-2495 -2560 0
-2496 -2497 0
-2496 -2498 0
-2496 -2499 0
-2496 -2500 0
-2496 -2501 0
-2496 -2502 0
-2496 -2503 0
-2496 -2504 0
-2496 -2505 0
-2496 -2506 0
-2496 -2507 0
-2496 -2508 0
-2496 -2509 0
-2496 -2510 0
-2496 -2511 0
-2496 -2512 0
-2496 -2513 0
-2496 -2514 0
-2496 -2515 0
-2496 -2516 0
-2496 -2517 0
-2496 -2518 0
-2496 -2519 0
-2496 -2520 0
-2496 -2521 0
-2496 -2522 0
-2496 -2523 0
-2496 -2524 0
-2496 -2525 0
-2496 -2526 0
-2496 -2527 0
-2496 -2528 0
-2496 -2529 0
-2496 -2530 0
-2496 -2531 0
-2496 -2532 0
-2496 -2533 0
-2496 -2534 0
-2496 -2535 0
-2496 -2536 0
-2496 -2537 0
-2496 -2538 0
-2496 -2539 0
-2496 -2540 0
-2496 -2541 0
-2496 -2542 0
-2496 -2543 0
-2496 -2544 0
-2496 -2545 0
-2496 -2546 0
-2496 -2547 0
-2496 -2548 0
-2496 -2549 0
-2496 -2550 0
-2496 -2551 0
-2496 -2552 0
-2496 -2553 0
-2496 -2554 0
-2496 -2555 0
-2496 -2556 0
-2496 -2557 0
-2496 -2558 0
-2496 -2559 0
-2496 -2560 0
-2497 -2498 0
-2497 -2499 0
-2497 -2500 0
-2497 -2501 0
-2497 -2502 0
-2497 -2503 0
-2497 -2504 0
-2497 -2505 0
-2497 -2506 0
-2497 -2507 0
-2497 -2508 0
-2497 -2509 0
-2497 -2510 0
-2497 -2511 0
-2497 -2512 0
-2497 -2513 0
-2497 -2514 0
-2497 -2515 0
-2497 -2516 0
-2497 -2517 0
-2497 -2518 0
-2497 -2519 0
-2497 -2520 0
-2497 -2521 0
-2497 -2522 0
-2497 -2523 0
-2497 -2524 0
-2497 -2525 0
-2497 -2526 0
-2497 -2527 0
-2497 -2528 0
-2497 -2529 0
-2497 -2530 0
-2497 -2531 0
-2497 -2532 0
-2497 -2533 0
-2497 -2534 0
-2497 -2535 0
-2497 -2536 0
-2497 -2537 0
-2497 -2538 0
-2497 -2539 0
-2497 -2540 0
-2497 -2541 0
-2497 -2542 0
-2497 -2543 0
-2497 -2544 0
-2497 -2545 0
-2497 -2546 0
-2497 -2547 0
-2497 -2548 0
-2497 -2549 0
-2497 -2550 0
-2497 -2551 0
-2497 -2552 0
-2497 -2553 0
-2497 -2554 0
-2497 -2555 0
-2497 -2556 0
-2497 -2557 0
-2497 -2558 0
-2497 -2559 0
-2497 -2560 0
-2498 -2499 0
-2498 -2500 0
-2498 -2501 0
-2498 -2502 0
-2498 -2503 0
-2498 -2504 0
-2498 -2505 0
-2498 -2506 0
-2498 -2507 0
-2498 -2508 0
-2498 -2509 0
-2498 -2510 0
-2498 -2511 0
-2498 -2512 0
-2498 -2513 0
-2498 -2514 0
-2498 -2515 0
-2498 -2516 0
-2498 -2517 0
-2498 -2518 0
-2498 -2519 0
-2498 -2520 0
-2498 -2521 0
-2498 -2522 0
-2498 -2523 0
-2498 -2524 0
-2498 -2525 0
-2498 -2526 0
-2498 -2527 0
-2498 -2528 0
-2498 -2529 0
-2498 -2530 0
-2498 -2531 0
-2498 -2532 0
-2498 -2533 0
-2498 -2534 0
-2498 -2535 0
-2498 -2536 0
-2498 -2537 0
-2498 -2538 0
-2498 -2539 0
-2498 -2540 0
-2498 -2541 0
-2498 -2542 0
-2498 -2543 0
-2498 -2544 0
-2498 -2545 0
-2498 -2546 0
-2498 -2547 0
-2498 -2548 0
-2498 -2549 0
-2498 -2550 0
-2498 -2551 0
-2498 -2552 0
-2498 -2553 0
-2498 -2554 0
-2498 -2555 0
-2498 -2556 0
-2498 -2557 0
-2498 -2558 0
-2498 -2559 0
-2498 -2560 0
-2499 -2500 0
-2499 -2501 0
-2499 -2502 0
-2499 -2503 0
-2499 -2504 0
-2499 -2505 0
-2499 -2506 0
-2499 -2507 0
-2499 -2508 0
-2499 -2509 0
-2499 -2510 0
-2499 -2511 0
-2499 -2512 0
-2499 -2513 0
-2499 -2514 0
-2499 -2515 0
-2499 -2516 0
-2499 -2517 0
-2499 -2518 0
-2499 -2519 0
-2499 -2520 0
-2499 -2521 0
-2499 -2522 0
-2499 -2523 0
-2499 -2524 0
-2499 -2525 0
-2499 -2526 0
-2499 -2527 0
-2499 -2528 0
-2499 -2529 0
-2499 -2530 0
-2499 -2531 0
-2499 -2532 0
-2499 -2533 0
-2499 -2534 0
-2499 -2535 0
-2499 -2536 0
-2499 -2537 0
-2499 -2538 0
-2499 -2539 0
-2499 -2540 0
-2499 -2541 0
-2499 -2542 0
-2499 -2543 0
-2499 -2544 0
-2499 -2545 0
-2499 -2546 0
-2499 -2547 0
-2499 -2548 0
-2499 -2549 0
-2499 -2550 0
-2499 -2551 0
-2499 -2552 0
-2499 -2553 0
-2499 -2554 0
-2499 -2555 0
-2499 -2556 0
-2499 -2557 0
-2499 -2558 0
-2499 -2559 0
-2499 -2560 0
-2500 -2501 0
-2500 -2502 0
-2500 -2503 0
-2500 -2504 0
-2500 -2505 0
-2500 -2506 0
-2500 -2507 0
-2500 -2508 0
-2500 -2509 0
-2500 -2510 0
-2500 -2511 0
-2500 -2512 0
-2500 -2513 0
-2500 -2514 0
-2500 -2515 0
-2500 -2516 0
-2500 -2517 0
-2500 -2518 0
-2500 -2519 0
-2500 -2520 0
-2500 -2521 0
-2500 -2522 0
-2500 -2523 0
-2500 -2524 0
-2500 -2525 0
-2500 -2526 0
-2500 -2527 0
-2500 -2528 0
-2500 -2529 0
-2500 -2530 0
-2500 -2531 0
-2500 -2532 0
-2500 -2533 0
-2500 -2534 0
-2500 -2535 0
-2500 -2536 0
-2500 -2537 0
-2500 -2538 0
-2500 -2539 0
-2500 -2540 0
-2500 -2541 0
-2500 -2542 0
-2500 -2543 0
-2500 -2544 0
-2500 -2545 0
-2500 -2546 0
-2500 -2547 0
-2500 -2548 0
-2500 -2549 0
-2500 -2550 0
-2500 -2551 0
-2500 -2552 0
-2500 -2553 0
-2500 -2554 0
-2500 -2555 0
-2500 -2556 0
-2500 -2557 0
-2500 -2558 0
-2500 -2559 0
-2500 -2560 0
-2501 -2502 0
-2501 -2503 0
-2501 -2504 0
-2501 -2505 0
-2501 -2506 0
-2501 -2507 0
-2501 -2508 0
-2501 -2509 0
-2501 -2510 0
-2501 -2511 0
-2501 -2512 0
-2501 -2513 0
-2501 -2514 0
-2501 -2515 0
-2501 -2516 0
-2501 -2517 0
-2501 -2518 0
-2501 -2519 0
-2501 -2520 0
-2501 -2521 0
-2501 -2522 0
-2501 -2523 0
-2501 -2524 0
-2501 -2525 0
-2501 -2526 0
-2501 -2527 0
-2501 -2528 0
-2501 -2529 0
-2501 -2530 0
-2501 -2531 0
-2501 -2532 0
-2501 -2533 0
-2501 -2534 0
-2501 -2535 0
-2501 -2536 0
-2501 -2537 0
-2501 -2538 0
-2501 -2539 0
-2501 -2540 0
-2501 -2541 0
-2501 -2542 0
-2501 -2543 0
-2501 -2544 0
-2501 -2545 0
-2501 -2546 0
-2501 -2547 0
-2501 -2548 0
-2501 -2549 0
-2501 -2550 0
-2501 -2551 0
-2501 -2552 0
-2501 -2553 0
-2501 -2554 0
-2501 -2555 0
-2501 -2556 0
-2501 -2557 0
-2501 -2558 0
-2501 -2559 0
-2501 -2560 0
-2502 -2503 0
-2502 -2504 0
-2502 -2505 0
-2502 -2506 0
-2502 -2507 0
-2502 -2508 0
-2502 -2509 0
-2502 -2510 0
-2502 -2511 0
-2502 -2512 0
-2502 -2513 0
-2502 -2514 0
-2502 -2515 0
-2502 -2516 0
-2502 -2517 0
-2502 -2518 0
-2502 -2519 0
-2502 -2520 0
-2502 -2521 0
-2502 -2522 0
-2502 -2523 0
-2502 -2524 0
-2502 -2525 0
-2502 -2526 0
-2502 -2527 0
-2502 -2528 0
-2502 -2529 0
-2502 -2530 0
-2502 -2531 0
-2502 -2532 0
-2502 -2533 0
-2502 -2534 0
-2502 -2535 0
-2502 -2536 0
-2502 -2537 0
-2502 -2538 0
-2502 -2539 0
-2502 -2540 0
-2502 -2541 0
-2502 -2542 0
-2502 -2543 0
-2502 -2544 0
-2502 -2545 0
-2502 -2546 0
-2502 -2547 0
-2502 -2548 0
-2502 -2549 0
-2502 -2550 0
-2502 -2551 0
-2502 -2552 0
-2502 -2553 0
-2502 -2554 0
-2502 -2555 0
-2502 -2556 0
-2502 -2557 0
-2502 -2558 0
-2502 -2559 0
-2502 -2560 0
-2503 -2504 0
-2503 -2505 0
-2503 -2506 0
-2503 -2507 0
-2503 -2508 0
-2503 -2509 0
-2503 -2510 0
-2503 -2511 0
-2503 -2512 0
-2503 -2513 0
-2503 -2514 0
-2503 -2515 0
-2503 -2516 0
-2503 -2517 0
-2503 -2518 0
-2503 -2519 0
-2503 -2520 0
-2503 -2521 0
-2503 -2522 0
-2503 -2523 0
-2503 -2524 0
-2503 -2525 0
-2503 -2526 0
-2503 -2527 0
-2503 -2528 0
-2503 -2529 0
-2503 -2530 0
-2503 -2531 0
-2503 -2532 0
-2503 -2533 0
-2503 -2534 0
-2503 -2535 0
-2503 -2536 0
-2503 -2537 0
-2503 -2538 0
-2503 -2539 0
-2503 -2540 0
-2503 -2541 0
-2503 -2542 0
-2503 -2543 0
-2503 -2544 0
-2503 -2545 0
-2503 -2546 0
-2503 -2547 0
-2503 -2548 0
-2503 -2549 0
-2503 -2550 0
-2503 -2551 0
-2503 -2552 0
-2503 -2553 0
-2503 -2554 0
-2503 -2555 0
-2503 -2556 0
-2503 -2557 0
-2503 -2558 0
-2503 -2559 0
-2503 -2560 0
-2504 -2505 0
-2504 -2506 0
-2504 -2507 0
-2504 -2508 0
-2504 -2509 0
-2504 -2510 0
-2504 -2511 0
-2504 -2512 0
-2504 -2513 0
-2504 -2514 0
-2504 -2515 0
-2504 -2516 0
-2504 -2517 0
-2504 -2518 0
-2504 -2519 0
-2504 -2520 0
-2504 -2521 0
-2504 -2522 0
-2504 -2523 0
-2504 -2524 0
-2504 -2525 0
-2504 -2526 0
-2504 -2527 0
-2504 -2528 0
-2504 -2529 0
-2504 -2530 0
-2504 -2531 0
-2504 -2532 0
-2504 -2533 0
-2504 -2534 0
-2504 -2535 0
-2504 -2536 0
-2504 -2537 0
-2504 -2538 0
-2504 -2539 0
-2504 -2540 0
-2504 -2541 0
-2504 -2542 0
-2504 -2543 0
-2504 -2544 0
-2504 -2545 0
-2504 -2546 0
-2504 -2547 0
-2504 -2548 0
-2504 -2549 0
-2504 -2550 0
-2504 -2551 0
-2504 -2552 0
-2504 -2553 0
-2504 -2554 0
-2504 -2555 0
-2504 -2556 0
-2504 -2557 0
-2504 -2558 0
-2504 -2559 0
-2504 -2560 0
-2505 -2506 0
-2505 -2507 0
-2505 -2508 0
-2505 -2509 0
-2505 -2510 0
-2505 -2511 0
-2505 -2512 0
-2505 -2513 0
-2505 -2514 0
-2505 -2515 0
-2505 -2516 0
-2505 -2517 0
-2505 -2518 0
-2505 -2519 0
-2505 -2520 0
-2505 -2521 0
-2505 -2522 0
-2505 -2523 0
-2505 -2524 0
-2505 -2525 0
-2505 -2526 0
-2505 -2527 0
-2505 -2528 0
-2505 -2529 0
-2505 -2530 0
-2505 -2531 0
-2505 -2532 0
-2505 -2533 0
-2505 -2534 0
-2505 -2535 0
-2505 -2536 0
-2505 -2537 0
-2505 -2538 0
-2505 -2539 0
-2505 -2540 0
-2505 -2541 0
-2505 -2542 0
-2505 -2543 0
-2505 -2544 0
-2505 -2545 0
-2505 -2546 0
-2505 -2547 0
-2505 -2548 0
-2505 -2549 0
-2505 -2550 0
-2505 -2551 0
-2505 -2552 0
-2505 -2553 0
-2505 -2554 0
-2505 -2555 0
-2505 -2556 0
-2505 -2557 0
-2505 -2558 0
-2505 -2559 0
-2505 -2560 0
-2506 -2507 0
-2506 -2508 0
-2506 -2509 0
-2506 -2510 0
-2506 -2511 0
-2506 -2512 0
-2506 -2513 0
-2506 -2514 0
-2506 -2515 0
-2506 -2516 0
-2506 -2517 0
-2506 -2518 0
-2506 -2519 0
-2506 -2520 0
-2506 -2521 0
-2506 -2522 0
-2506 -2523 0
-2506 -2524 0
-2506 -2525 0
-2506 -2526 0
-2506 -2527 0
-2506 -2528 0
-2506 -2529 0
-2506 -2530 0
-2506 -2531 0
-2506 -2532 0
-2506 -2533 0
-2506 -2534 0
-2506 -2535 0
-2506 -2536 0
-2506 -2537 0
-2506 -2538 0
-2506 -2539 0
-2506 -2540 0
-2506 -2541 0
-2506 -2542 0
-2506 -2543 0
-2506 -2544 0
-2506 -2545 0
-2506 -2546 0
-2506 -2547 0
-2506 -2548 0
-2506 -2549 0
-2506 -2550 0
-2506 -2551 0
-2506 -2552 0
-2506 -2553 0
-2506 -2554 0
-2506 -2555 0
-2506 -2556 0
-2506 -2557 0
-2506 -2558 0
-2506 -2559 0
-2506 -2560 0
-2507 -2508 0
-2507 -2509 0
-2507 -2510 0
-2507 -2511 0
-2507 -2512 0
-2507 -2513 0
-2507 -2514 0
-2507 -2515 0
-2507 -2516 0
-2507 -2517 0
-2507 -2518 0
-2507 -2519 0
-2507 -2520 0
-2507 -2521 0
-2507 -2522 0
-2507 -2523 0
-2507 -2524 0
-2507 -2525 0
-2507 -2526 0
-2507 -2527 0
-2507 -2528 0
-2507 -2529 0
-2507 -2530 0
-2507 -2531 0
-2507 -2532 0
-2507 -2533 0
-2507 -2534 0
-2507 -2535 0
-2507 -2536 0
-2507 -2537 0
-2507 -2538 0
-2507 -2539 0
-2507 -2540 0
-2507 -2541 0
-2507 -2542 0
-2507 -2543 0
-2507 -2544 0
-2507 -2545 0
-2507 -2546 0
-2507 -2547 0
-2507 -2548 0
-2507 -2549 0
-2507 -2550 0
-2507 -2551 0
-2507 -2552 0
-2507 -2553 0
-2507 -2554 0
-2507 -2555 0
-2507 -2556 0
-2507 -2557 0
-2507 -2558 0
-2507 -2559 0
-2507 -2560 0
-2508 -2509 0
-2508 -2510 0
-2508 -2511 0
-2508 -2512 0
-2508 -2513 0
-2508 -2514 0
-2508 -2515 0
-2508 -2516 0
-2508 -2517 0
-2508 -2518 0
-2508 -2519 0
-2508 -2520 0
-2508 -2521 0
-2508 -2522 0
-2508 -2523 0
-2508 -2524 0
-2508 -2525 0
-2508 -2526 0
-2508 -2527 0
-2508 -2528 0
-2508 -2529 0
-2508 -2530 0
-2508 -2531 0
-2508 -2532 0
-2508 -2533 0
-2508 -2534 0
-2508 -2535 0
-2508 -2536 0
-2508 -2537 0
-2508 -2538 0
-2508 -2539 0
-2508 -2540 0
-2508 -2541 0
-2508 -2542 0
-2508 -2543 0
-2508 -2544 0
-2508 -2545 0
-2508 -2546 0
-2508 -2547 0
-2508 -2548 0
-2508 -2549 0
-2508 -2550 0
-2508 -2551 0
-2508 -2552 0
-2508 -2553 0
-2508 -2554 0
-2508 -2555 0
-2508 -2556 0
-2508 -2557 0
-2508 -2558 0
-2508 -2559 0
-2508 -2560 0
-2509 -2510 0
-2509 -2511 0
-2509 -2512 0
-2509 -2513 0
-2509 -2514 0
-2509 -2515 0
-2509 -2516 0
-2509 -2517 0
-2509 -2518 0
-2509 -2519 0
-2509 -2520 0
-2509 -2521 0
-2509 -2522 0
-2509 -2523 0
-2509 -2524 0
-2509 -2525 0
-2509 -2526 0
-2509 -2527 0
-2509 -2528 0
-2509 -2529 0
-2509 -2530 0
-2509 -2531 0
-2509 -2532 0
-2509 -2533 0
-2509 -2534 0
-2509 -2535 0
-2509 -2536 0
-2509 -2537 0
-2509 -2538 0
-2509 -2539 0
-2509 -2540 0
-2509 -2541 0
-2509 -2542 0
-2509 -2543 0
-2509 -2544 0
-2509 -2545 0
-2509 -2546 0
-2509 -2547 0
-2509 -2548 0
-2509 -2549 0
-2509 -2550 0
-2509 -2551 0
-2509 -2552 0
-2509 -2553 0
-2509 -2554 0
-2509 -2555 0
-2509 -2556 0
-2509 -2557 0
-2509 -2558 0
-2509 -2559 0
-2509 -2560 0
-2510 -2511 0
-2510 -2512 0
-2510 -2513 0
-2510 -2514 0
-2510 -2515 0
-2510 -2516 0
-2510 -2517 0
-2510 -2518 0
-2510 -2519 0
-2510 -2520 0
-2510 -2521 0
-2510 -2522 0
-2510 -2523 0
-2510 -2524 0
-2510 -2525 0
-2510 -2526 0
-2510 -2527 0
-2510 -2528 0
-2510 -2529 0
-2510 -2530 0
-2510 -2531 0
-2510 -2532 0
-2510 -2533 0
-2510 -2534 0
-2510 -2535 0
-2510 -2536 0
-2510 -2537 0
-2510 -2538 0
-2510 -2539 0
-2510 -2540 0
-2510 -2541 0
-2510 -2542 0
-2510 -2543 0
-2510 -2544 0
-2510 -2545 0
-2510 -2546 0
-2510 -2547 0
-2510 -2548 0
-2510 -2549 0
-2510 -2550 0
-2510 -2551 0
-2510 -2552 0
-2510 -2553 0
-2510 -2554 0
-2510 -2555 0
-2510 -2556 0
-2510 -2557 0
-2510 -2558 0
-2510 -2559 0
-2510 -2560 0
-2511 -2512 0
-2511 -2513 0
-2511 -2514 0
-2511 -2515 0
-2511 -2516 0
-2511 -2517 0
-2511 -2518 0
-2511 -2519 0
-2511 -2520 0
-2511 -2521 0
-2511 -2522 0
-2511 -2523 0
-2511 -2524 0
-2511 -2525 0
-2511 -2526 0
-2511 -2527 0
-2511 -2528 0
-2511 -2529 0
-2511 -2530 0
-2511 -2531 0
-2511 -2532 0
-2511 -2533 0
-2511 -2534 0
-2511 -2535 0
-2511 -2536 0
-2511 -2537 0
-2511 -2538 0
-2511 -2539 0
-2511 -2540 0
-2511 -2541 0
-2511 -2542 0
-2511 -2543 0
-2511 -2544 0
-2511 -2545 0
-2511 -2546 0
-2511 -2547 0
-2511 -2548 0
-2511 -2549 0
-2511 -2550 0
-2511 -2551 0
-2511 -2552 0
-2511 -2553 0
-2511 -2554 0
-2511 -2555 0
-2511 -2556 0
-2511 -2557 0
-2511 -2558 0
-2511 -2559 0
-2511 -2560 0
-2512 -2513 0
-2512 -2514 0
-2512 -2515 0
-2512 -2516 0
-2512 -2517 0
-2512 -2518 0
-2512 -2519 0
-2512 -2520 0
-2512 -2521 0
-2512 -2522 0
-2512 -2523 0
-2512 -2524 0
-2512 -2525 0
-2512 -2526 0
-2512 -2527 0
-2512 -2528 0
-2512 -2529 0
-2512 -2530 0
-2512 -2531 0
-2512 -2532 0
-2512 -2533 0
-2512 -2534 0
-2512 -2535 0
-2512 -2536 0
-2512 -2537 0
-2512 -2538 0
-2512 -2539 0
-2512 -2540 0
-2512 -2541 0
-2512 -2542 0
-2512 -2543 0
-2512 -2544 0
-2512 -2545 0
-2512 -2546 0
-2512 -2547 0
-2512 -2548 0
-2512 -2549 0
-2512 -2550 0
-2512 -2551 0
-2512 -2552 0
-2512 -2553 0
-2512 -2554 0
-2512 -2555 0
-2512 -2556 0
-2512 -2557 0
-2512 -2558 0
-2512 -2559 0
-2512 -2560 0
-2513 -2514 0
-2513 -2515 0
-2513 -2516 0
-2513 -2517 0
-2513 -2518 0
-2513 -2519 0
-2513 -2520 0
-2513 -2521 0
-2513 -2522 0
-2513 -2523 0
-2513 -2524 0
-2513 -2525 0
-2513 -2526 0
-2513 -2527 0
-2513 -2528 0
-2513 -2529 0
-2513 -2530 0
-2513 -2531 0
-2513 -2532 0
-2513 -2533 0
-2513 -2534 0
-2513 -2535 0
-2513 -2536 0
-2513 -2537 0
-2513 -2538 0
-2513 -2539 0
-2513 -2540 0
-2513 -2541 0
-2513 -2542 0
-2513 -2543 0
-2513 -2544 0
-2513 -2545 0
-2513 -2546 0
-2513 -2547 0
-2513 -2548 0
-2513 -2549 0
-2513 -2550 0
-2513 -2551 0
-2513 -2552 0
-2513 -2553 0
-2513 -2554 0
-2513 -2555 0
-2513 -2556 0
-2513 -2557 0
-2513 -2558 0
-2513 -2559 0
-2513 -2560 0
-2514 -2515 0
-2514 -2516 0
-2514 -2517 0
-2514 -2518 0
-2514 -2519 0
-2514 -2520 0
-2514 -2521 0
-2514 -2522 0
-2514 -2523 0
-2514 -2524 0
-2514 -2525 0
-2514 -2526 0
-2514 -2527 0
-2514 -2528 0
-2514 -2529 0
-2514 -2530 0
-2514 -2531 0
-2514 -2532 0
-2514 -2533 0
-2514 -2534 0
-2514 -2535 0
-2514 -2536 0
-2514 -2537 0
-2514 -2538 0
-2514 -2539 0
-2514 -2540 0
-2514 -2541 0
-2514 -2542 0
-2514 -2543 0
-2514 -2544 0
-2514 -2545 0
-2514 -2546 0
-2514 -2547 0
-2514 -2548 0
-2514 -2549 0
-2514 -2550 0
-2514 -2551 0
-2514 -2552 0
-2514 -2553 0
-2514 -2554 0
-2514 -2555 0
-2514 -2556 0
-2514 -2557 0
-2514 -2558 0
-2514 -2559 0
-2514 -2560 0
-2515 -2516 0
-2515 -2517 0
-2515 -2518 0
-2515 -2519 0
-2515 -2520 0
-2515 -2521 0
-2515 -2522 0
-2515 -2523 0
-2515 -2524 0
-2515 -2525 0
-2515 -2526 0
-2515 -2527 0
-2515 -2528 0
-2515 -2529 0
-2515 -2530 0
-2515 -2531 0
-2515 -2532 0
-2515 -2533 0
-2515 -2534 0
-2515 -2535 0
-2515 -2536 0
-2515 -2537 0
-2515 -2538 0
-2515 -2539 0
-2515 -2540 0
-2515 -2541 0
-2515 -2542 0
-2515 -2543 0
-2515 -2544 0
-2515 -2545 0
-2515 -2546 0
-2515 -2547 0
-2515 -2548 0
-2515 -2549 0
-2515 -2550 0
-2515 -2551 0
-2515 -2552 0
-2515 -2553 0
-2515 -2554 0
-2515 -2555 0
-2515 -2556 0
-2515 -2557 0
-2515 -2558 0
-2515 -2559 0
-2515 -2560 0
-2516 -2517 0
-2516 -2518 0
-2516 -2519 0
-2516 -2520 0
-2516 -2521 0
-2516 -2522 0
-2516 -2523 0
-2516 -2524 0
-2516 -2525 0
-2516 -2526 0
-2516 -2527 0
-2516 -2528 0
-2516 -2529 0
-2516 -2530 0
-2516 -2531 0
-2516 -2532 0
-2516 -2533 0
-2516 -2534 0
-2516 -2535 0
-2516 -2536 0
-2516 -2537 0
-2516 -2538 0
-2516 -2539 0
-2516 -2540 0
-2516 -2541 0
-2516 -2542 0
-2516 -2543 0
-2516 -2544 0
-2516 -2545 0
-2516 -2546 0
-2516 -2547 0
-2516 -2548 0
-2516 -2549 0
-2516 -2550 0
-2516 -2551 0
-2516 -2552 0
-2516 -2553 0
-2516 -2554 0
-2516 -2555 0
-2516 -2556 0
-2516 -2557 0
-2516 -2558 0
-2516 -2559 0
-2516 -2560 0
-2517 -2518 0
-2517 -2519 0
-2517 -2520 0
-2517 -2521 0
-2517 -2522 0
-2517 -2523 0
-2517 -2524 0
-2517 -2525 0
-2517 -2526 0
-2517 -2527 0
-2517 -2528 0
-2517 -2529 0
-2517 -2530 0
-2517 -2531 0
-2517 -2532 0
-2517 -2533 0
-2517 -2534 0
-2517 -2535 0
-2517 -2536 0
-2517 -2537 0
-2517 -2538 0
-2517 -2539 0
-2517 -2540 0
-2517 -2541 0
-2517 -2542 0
-2517 -2543 0
-2517 -2544 0
-2517 -2545 0
-2517 -2546 0
-2517 -2547 0
-2517 -2548 0
-2517 -2549 0
-2517 -2550 0
-2517 -2551 0
-2517 -2552 0
-2517 -2553 0
-2517 -2554 0
-2517 -2555 0
-2517 -2556 0
-2517 -2557 0
-2517 -2558 0
-2517 -2559 0
-2517 -2560 0
-2518 -2519 0
-2518 -2520 0
-2518 -2521 0
-2518 -2522 0
-2518 -2523 0
-2518 -2524 0
-2518 -2525 0
-2518 -2526 0
-2518 -2527 0
-2518 -2528 0
-2518 -2529 0
-2518 -2530 0
-2518 -2531 0
-2518 -2532 0
-2518 -2533 0
-2518 -2534 0
-2518 -2535 0
-2518 -2536 0
-2518 -2537 0
-2518 -2538 0
-2518 -2539 0
-2518 -2540 0
-2518 -2541 0
-2518 -2542 0
-2518 -2543 0
-2518 -2544 0
-2518 -2545 0
-2518 -2546 0
-2518 -2547 0
-2518 -2548 0
-2518 -2549 0
-2518 -2550 0
-2518 -2551 0
-2518 -2552 0
-2518 -2553 0
-2518 -2554 0
-2518 -2555 0
-2518 -2556 0
-2518 -2557 0
-2518 -2558 0
-2518 -2559 0
-2518 -2560 0
-2519 -2520 0
-2519 -2521 0
-2519 -2522 0
-2519 -2523 0
-2519 -2524 0
-2519 -2525 0
-2519 -2526 0
-2519 -2527 0
-2519 -2528 0
-2519 -2529 0
-2519 -2530 0
-2519 -2531 0
-2519 -2532 0
-2519 -2533 0
-2519 -2534 0
-2519 -2535 0
-2519 -2536 0
-2519 -2537 0
-2519 -2538 0
-2519 -2539 0
-2519 -2540 0
-2519 -2541 0
-2519 -2542 0
-2519 -2543 0
-2519 -2544 0
-2519 -2545 0
-2519 -2546 0
-2519 -2547 0
-2519 -2548 0
-2519 -2549 0
-2519 -2550 0
-2519 -2551 0
-2519 -2552 0
-2519 -2553 0
-2519 -2554 0
-2519 -2555 0
-2519 -2556 0
-2519 -2557 0
-2519 -2558 0
-2519 -2559 0
-2519 -2560 0
-2520 -2521 0
-2520 -2522 0
-2520 -2523 0
-2520 -2524 0
-2520 -2525 0
-2520 -2526 0
-2520 -2527 0
-2520 -2528 0
-2520 -2529 0
-2520 -2530 0
-2520 -2531 0
-2520 -2532 0
-2520 -2533 0
-2520 -2534 0
-2520 -2535 0
-2520 -2536 0
-2520 -2537 0
-2520 -2538 0
-2520 -2539 0
-2520 -2540 0
-2520 -2541 0
-2520 -2542 0
-2520 -2543 0
-2520 -2544 0
-2520 -2545 0
-2520 -2546 0
-2520 -2547 0
-2520 -2548 0
-2520 -2549 0
-2520 -2550 0
-2520 -2551 0
-2520 -2552 0
-2520 -2553 0
-2520 -2554 0
-2520 -2555 0
-2520 -2556 0
-2520 -2557 0
-2520 -2558 0
-2520 -2559 0
-2520 -2560 0
-2521 -2522 0
-2521 -2523 0
-2521 -2524 0
-2521 -2525 0
-2521 -2526 0
-2521 -2527 0
-2521 -2528 0
-2521 -2529 0
-2521 -2530 0
-2521 -2531 0
-2521 -2532 0
-2521 -2533 0
-2521 -2534 0
-2521 -2535 0
-2521 -2536 0
-2521 -2537 0
-2521 -2538 0
-2521 -2539 0
-2521 -2540 0
-2521 -2541 0
-2521 -2542 0
-2521 -2543 0
-2521 -2544 0
-2521 -2545 0
-2521 -2546 0
-2521 -2547 0
-2521 -2548 0
-2521 -2549 0
-2521 -2550 0
-2521 -2551 0
-2521 -2552 0
-2521 -2553 0
-2521 -2554 0
-2521 -2555 0
-2521 -2556 0
-2521 -2557 0
-2521 -2558 0
-2521 -2559 0
-2521 -2560 0
-2522 -2523 0
-2522 -2524 0
-2522 -2525 0
-2522 -2526 0
-2522 -2527 0
-2522 -2528 0
-2522 -2529 0
-2522 -2530 0
-2522 -2531 0
-2522 -2532 0
-2522 -2533 0
-2522 -2534 0
-2522 -2535 0
-2522 -2536 0
-2522 -2537 0
-2522 -2538 0
-2522 -2539 0
-2522 -2540 0
-2522 -2541 0
-2522 -2542 0
-2522 -2543 0
-2522 -2544 0
-2522 -2545 0
-2522 -2546 0
-2522 -2547 0
-2522 -2548 0
-2522 -2549 0
-2522 -2550 0
-2522 -2551 0
-2522 -2552 0
-2522 -2553 0
-2522 -2554 0
-2522 -2555 0
-2522 -2556 0
-2522 -2557 0
-2522 -2558 0
-2522 -2559 0
-2522 -2560 0
-2523 -2524 0
-2523 -2525 0
-2523 -2526 0
-2523 -2527 0
-2523 -2528 0
-2523 -2529 0
-2523 -2530 0
-2523 -2531 0
-2523 -2532 0
-2523 -2533 0
-2523 -2534 0
-2523 -2535 0
-2523 -2536 0
-2523 -2537 0
-2523 -2538 0
-2523 -2539 0
-2523 -2540 0
-2523 -2541 0
-2523 -2542 0
-2523 -2543 0
-2523 -2544 0
-2523 -2545 0
-2523 -2546 0
-2523 -2547 0
-2523 -2548 0
-2523 -2549 0
-2523 -2550 0
-2523 -2551 0
-2523 -2552 0
-2523 -2553 0
-2523 -2554 0
-2523 -2555 0
-2523 -2556 0
-2523 -2557 0
-2523 -2558 0
-2523 -2559 0
-2523 -2560 0
-2524 -2525 0
-2524 -2526 0
-2524 -2527 0
-2524 -2528 0
-2524 -2529 0
-2524 -2530 0
-2524 -2531 0
-2524 -2532 0
-2524 -2533 0
-2524 -2534 0
-2524 -2535 0
-2524 -2536 0
-2524 -2537 0
-2524 -2538 0
-2524 -2539 0
-2524 -2540 0
-2524 -2541 0
-2524 -2542 0
-2524 -2543 0
-2524 -2544 0
-2524 -2545 0
-2524 -2546 0
-2524 -2547 0
-2524 -2548 0
-2524 -2549 0
-2524 -2550 0
-2524 -2551 0
-2524 -2552 0
-2524 -2553 0
-2524 -2554 0
-2524 -2555 0
-2524 -2556 0
-2524 -2557 0
-2524 -2558 0
-2524 -2559 0
-2524 -2560 0
-2525 -2526 0
-2525 -2527 0
-2525 -2528 0
-2525 -2529 0
-2525 -2530 0
-2525 -2531 0
-2525 -2532 0
-2525 -2533 0
-2525 -2534 0
-2525 -2535 0
-2525 -2536 0
-2525 -2537 0
-2525 -2538 0
-2525 -2539 0
-2525 -2540 0
-2525 -2541 0
-2525 -2542 0
-2525 -2543 0
-2525 -2544 0
-2525 -2545 0
-2525 -2546 0
-2525 -2547 0
-2525 -2548 0
-2525 -2549 0
-2525 -2550 0
-2525 -2551 0
-2525 -2552 0
-2525 -2553 0
-2525 -2554 0
-2525 -2555 0
-2525 -2556 0
-2525 -2557 0
-2525 -2558 0
-2525 -2559 0
-2525 -2560 0
-2526 -2527 0
-2526 -2528 0
-2526 -2529 0
-2526 -2530 0
-2526 -2531 0
-2526 -2532 0
-2526 -2533 0
-2526 -2534 0
-2526 -2535 0
-2526 -2536 0
-2526 -2537 0
-2526 -2538 0
-2526 -2539 0
-2526 -2540 0
-2526 -2541 0
-2526 -2542 0
-2526 -2543 0
-2526 -2544 0
-2526 -2545 0
-2526 -2546 0
-2526 -2547 0
-2526 -2548 0
-2526 -2549 0
-2526 -2550 0
-2526 -2551 0
-2526 -2552 0
-2526 -2553 0
-2526 -2554 0
-2526 -2555 0
-2526 -2556 0
-2526 -2557 0
-2526 -2558 0
-2526 -2559 0
-2526 -2560 0
-2527 -2528 0
-2527 -2529 0
-2527 -2530 0
-2527 -2531 0
-2527 -2532 0
-2527 -2533 0
-2527 -2534 0
-2527 -2535 0
-2527 -2536 0
-2527 -2537 0
-2527 -2538 0
-2527 -2539 0
-2527 -2540 0
-2527 -2541 0
-2527 -2542 0
-2527 -2543 0
-2527 -2544 0
-2527 -2545 0
-2527 -2546 0
-2527 -2547 0
-2527 -2548 0
-2527 -2549 0
-2527 -2550 0
-2527 -2551 0
-2527 -2552 0
-2527 -2553 0
-2527 -2554 0
-2527 -2555 0
-2527 -2556 0
-2527 -2557 0
-2527 -2558 0
-2527 -2559 0
-2527 -2560 0
-2528 -2529 0
-2528 -2530 0
-2528 -2531 0
-2528 -2532 0
-2528 -2533 0
-2528 -2534 0
-2528 -2535 0
-2528 -2536 0
-2528 -2537 0
-2528 -2538 0
-2528 -2539 0
-2528 -2540 0
-2528 -2541 0
-2528 -2542 0
-2528 -2543 0
-2528 -2544 0
-2528 -2545 0
-2528 -2546 0
-2528 -2547 0
-2528 -2548 0
-2528 -2549 0
-2528 -2550 0
-2528 -2551 0
-2528 -2552 0
-2528 -2553 0
-2528 -2554 0
-2528 -2555 0
-2528 -2556 0
-2528 -2557 0
-2528 -2558 0
-2528 -2559 0
-2528 -2560 0
-2529 -2530 0
-2529 -2531 0
-2529 -2532 0
-2529 -2533 0
-2529 -2534 0
-2529 -2535 0
-2529 -2536 0
-2529 -2537 0
-2529 -2538 0
-2529 -2539 0
-2529 -2540 0
-2529 -2541 0
-2529 -2542 0
-2529 -2543 0
-2529 -2544 0
-2529 -2545 0
-2529 -2546 0
-2529 -2547 0
-2529 -2548 0
-2529 -2549 0
-2529 -2550 0
-2529 -2551 0
-2529 -2552 0
-2529 -2553 0
-2529 -2554 0
-2529 -2555 0
-2529 -2556 0
-2529 -2557 0
-2529 -2558 0
-2529 -2559 0
-2529 -2560 0
-2530 -2531 0
-2530 -2532 0
-2530 -2533 0
-2530 -2534 0
-2530 -2535 0
-2530 -2536 0
-2530 -2537 0
-2530 -2538 0
-2530 -2539 0
-2530 -2540 0
-2530 -2541 0
-2530 -2542 0
-2530 -2543 0
-2530 -2544 0
-2530 -2545 0
-2530 -2546 0
-2530 -2547 0
-2530 -2548 0
-2530 -2549 0
-2530 -2550 0
-2530 -2551 0
-2530 -2552 0
-2530 -2553 0
-2530 -2554 0
-2530 -2555 0
-2530 -2556 0
-2530 -2557 0
-2530 -2558 0
-2530 -2559 0
-2530 -2560 0
-2531 -2532 0
-2531 -2533 0
-2531 -2534 0
-2531 -2535 0
-2531 -2536 0
-2531 -2537 0
-2531 -2538 0
-2531 -2539 0
-2531 -2540 0
-2531 -2541 0
-2531 -2542 0
-2531 -2543 0
-2531 -2544 0
-2531 -2545 0
-2531 -2546 0
-2531 -2547 0
-2531 -2548 0
-2531 -2549 0
-2531 -2550 0
-2531 -2551 0
-2531 -2552 0
-2531 -2553 0
-2531 -2554 0
-2531 -2555 0
-2531 -2556 0
-2531 -2557 0
-2531 -2558 0
-2531 -2559 0
-2531 -2560 0
-2532 -2533 0
-2532 -2534 0
-2532 -2535 0
-2532 -2536 0
-2532 -2537 0
-2532 -2538 0
-2532 -2539 0
-2532 -2540 0
-2532 -2541 0
-2532 -2542 0
-2532 -2543 0
-2532 -2544 0
-2532 -2545 0
-2532 -2546 0
-2532 -2547 0
-2532 -2548 0
-2532 -2549 0
-2532 -2550 0
-2532 -2551 0
-2532 -2552 0
-2532 -2553 0
-2532 -2554 0
-2532 -2555 0
-2532 -2556 0
-2532 -2557 0
-2532 -2558 0
-2532 -2559 0
-2532 -2560 0
-2533 -2534 0
-2533 -2535 0
-2533 -2536 0
-2533 -2537 0
-2533 -2538 0
-2533 -2539 0
-2533 -2540 0
-2533 -2541 0
-2533 -2542 0
-2533 -2543 0
-2533 -2544 0
-2533 -2545 0
-2533 -2546 0
-2533 -2547 0
-2533 -2548 0
-2533 -2549 0
-2533 -2550 0
-2533 -2551 0
-2533 -2552 0
-2533 -2553 0
-2533 -2554 0
-2533 -2555 0
-2533 -2556 0
-2533 -2557 0
-2533 -2558 0
-2533 -2559 0
-2533 -2560 0
-2534 -2535 0
-2534 -2536 0
-2534 -2537 0
-2534 -2538 0
-2534 -2539 0
-2534 -2540 0
-2534 -2541 0
-2534 -2542 0
-2534 -2543 0
-2534 -2544 0
-2534 -2545 0
-2534 -2546 0
-2534 -2547 0
-2534 -2548 0
-2534 -2549 0
-2534 -2550 0
-2534 -2551 0
-2534 -2552 0
-2534 -2553 0
-2534 -2554 0
-2534 -2555 0
-2534 -2556 0
-2534 -2557 0
-2534 -2558 0
-2534 -2559 0
-2534 -2560 0
-2535 -2536 0
-2535 -2537 0
-2535 -2538 0
-2535 -2539 0
-2535 -2540 0
-2535 -2541 0
-2535 -2542 0
-2535 -2543 0
-2535 -2544 0
-2535 -2545 0
-2535 -2546 0
-2535 -2547 0
-2535 -2548 0
-2535 -2549 0
-2535 -2550 0
-2535 -2551 0
-2535 -2552 0
-2535 -2553 0
-2535 -2554 0
-2535 -2555 0
-2535 -2556 0
-2535 -2557 0
-2535 -2558 0
-2535 -2559 0
-2535 -2560 0
-2536 -2537 0
-2536 -2538 0
-2536 -2539 0
-2536 -2540 0
-2536 -2541 0
-2536 -2542 0
-2536 -2543 0
-2536 -2544 0
-2536 -2545 0
-2536 -2546 0
-2536 -2547 0
-2536 -2548 0
-2536 -2549 0
-2536 -2550 0
-2536 -2551 0
-2536 -2552 0
-2536 -2553 0
-2536 -2554 0
-2536 -2555 0
-2536 -2556 0
-2536 -2557 0
-2536 -2558 0
-2536 -2559 0
-2536 -2560 0
-2537 -2538 0
-2537 -2539 0
-2537 -2540 0
-2537 -2541 0
-2537 -2542 0
-2537 -2543 0
-2537 -2544 0
-2537 -2545 0
-2537 -2546 0
-2537 -2547 0
-2537 -2548 0
-2537 -2549 0
-2537 -2550 0
-2537 -2551 0
-2537 -2552 0
-2537 -2553 0
-2537 -2554 0
-2537 -2555 0
-2537 -2556 0
-2537 -2557 0
-2537 -2558 0
-2537 -2559 0
-2537 -2560 0
-2538 -2539 0
-2538 -2540 0
-2538 -2541 0
-2538 -2542 0
-2538 -2543 0
-2538 -2544 0
-2538 -2545 0
-2538 -2546 0
-2538 -2547 0
-2538 -2548 0
-2538 -2549 0
-2538 -2550 0
-2538 -2551 0
-2538 -2552 0
-2538 -2553 0
-2538 -2554 0
-2538 -2555 0
-2538 -2556 0
-2538 -2557 0
-2538 -2558 0
-2538 -2559 0
-2538 -2560 0
-2539 -2540 0
-2539 -2541 0
-2539 -2542 0
-2539 -2543 0
-2539 -2544 0
-2539 -2545 0
-2539 -2546 0
-2539 -2547 0
-2539 -2548 0
-2539 -2549 0
-2539 -2550 0
-2539 -2551 0
-2539 -2552 0
-2539 -2553 0
-2539 -2554 0
-2539 -2555 0
-2539 -2556 0
-2539 -2557 0
-2539 -2558 0
-2539 -2559 0
-2539 -2560 0
-2540 -2541 0
-2540 -2542 0
-2540 -2543 0
-2540 -2544 0
-2540 -2545 0
-2540 -2546 0
-2540 -2547 0
-2540 -2548 0
-2540 -2549 0
-2540 -2550 0
-2540 -2551 0
-2540 -2552 0
-2540 -2553 0
-2540 -2554 0
-2540 -2555 0
-2540 -2556 0
-2540 -2557 0
-2540 -2558 0
-2540 -2559 0
-2540 -2560 0
-2541 -2542 0
-2541 -2543 0
-2541 -2544 0
-2541 -2545 0
-2541 -2546 0
-2541 -2547 0
-2541 -2548 0
-2541 -2549 0
-2541 -2550 0
-2541 -2551 0
-2541 -2552 0
-2541 -2553 0
-2541 -2554 0
-2541 -2555 0
-2541 -2556 0
-2541 -2557 0
-2541 -2558 0
-2541 -2559 0
-2541 -2560 0
-2542 -2543 0
-2542 -2544 0
-2542 -2545 0
-2542 -2546 0
-2542 -2547 0
-2542 -2548 0
-2542 -2549 0
-2542 -2550 0
-2542 -2551 0
-2542 -2552 0
-2542 -2553 0
-2542 -2554 0
-2542 -2555 0
-2542 -2556 0
-2542 -2557 0
-2542 -2558 0
-2542 -2559 0
-2542 -2560 0
-2543 -2544 0
-2543 -2545 0
-2543 -2546 0
-2543 -2547 0
-2543 -2548 0
-2543 -2549 0
-2543 -2550 0
-2543 -2551 0
-2543 -2552 0
-2543 -2553 0
-2543 -2554 0
-2543 -2555 0
-2543 -2556 0
-2543 -2557 0
-2543 -2558 0
-2543 -2559 0
-2543 -2560 0
-2544 -2545 0
-2544 -2546 0
-2544 -2547 0
-2544 -2548 0
-2544 -2549 0
-2544 -2550 0
-2544 -2551 0
-2544 -2552 0
-2544 -2553 0
-2544 -2554 0
-2544 -2555 0
-2544 -2556 0
-2544 -2557 0
-2544 -2558 0
-2544 -2559 0
-2544 -2560 0
-2545 -2546 0
-2545 -2547 0
-2545 -2548 0
-2545 -2549 0
-2545 -2550 0
-2545 -2551 0
-2545 -2552 0
-2545 -2553 0
-2545 -2554 0
-2545 -2555 0
-2545 -2556 0
-2545 -2557 0
-2545 -2558 0
-2545 -2559 0
-2545 -2560 0
-2546 -2547 0
-2546 -2548 0
-2546 -2549 0
-2546 -2550 0
-2546 -2551 0
-2546 -2552 0
-2546 -2553 0
-2546 -2554 0
-2546 -2555 0
-2546 -2556 0
-2546 -2557 0
-2546 -2558 0
-2546 -2559 0
-2546 -2560 0
-2547 -2548 0
-2547 -2549 0
-2547 -2550 0
-2547 -2551 0
-2547 -2552 0
-2547 -2553 0
-2547 -2554 0
-2547 -2555 0
-2547 -2556 0
-2547 -2557 0
-2547 -2558 0
-2547 -2559 0
-2547 -2560 0
-2548 -2549 0
-2548 -2550 0
-2548 -2551 0
-2548 -2552 0
-2548 -2553 0
-2548 -2554 0
-2548 -2555 0
-2548 -2556 0
-2548 -2557 0
-2548 -2558 0
-2548 -2559 0
-2548 -2560 0
-2549 -2550 0
-2549 -2551 0
-2549 -2552 0
-2549 -2553 0
-2549 -2554 0
-2549 -2555 0
-2549 -2556 0
-2549 -2557 0
-2549 -2558 0
-2549 -2559 0
-2549 -2560 0
-2550 -2551 0
-2550 -2552 0
-2550 -2553 0
-2550 -2554 0
-2550 -2555 0
-2550 -2556 0
-2550 -2557 0
-2550 -2558 0
-2550 -2559 0
-2550 -2560 0
-2551 -2552 0
-2551 -2553 0
-2551 -2554 0
-2551 -2555 0
-2551 -2556 0
-2551 -2557 0
-2551 -2558 0
-2551 -2559 0
-2551 -2560 0
-2552 -2553 0
-2552 -2554 0
-2552 -2555 0
-2552 -2556 0
-2552 -2557 0
-2552 -2558 0
-2552 -2559 0
-2552 -2560 0
-2553 -2554 0
-2553 -2555 0
-2553 -2556 0
-2553 -2557 0
-2553 -2558 0
-2553 -2559 0
-2553 -2560 0
-2554 -2555 0
-2554 -2556 0
-2554 -2557 0
-2554 -2558 0
-2554 -2559 0
-2554 -2560 0
-2555 -2556 0
-2555 -2557 0
-2555 -2558 0
-2555 -2559 0
-2555 -2560 0
-2556 -2557 0
-2556 -2558 0
-2556 -2559 0
-2556 -2560 0
-2557 -2558 0
-2557 -2559 0
-2557 -2560 0
-2558 -2559 0
-2558 -2560 0
-2559 -2560 0
-2477 1296 0
-2477 1543 0
-2477 -1346 0
-2477 -1347 0
-2477 -1348 0
-2477 -1349 0
-2477 -1350 0
-2477 -1351 1550 0
-2477 -1351 -1286 -1293 0
-2477 -1351 -1358 0
-2477 -1351 -1416 0
-2477 -1351 -1473 0
-2477 -1352 1551 0
-2477 -1352 -1286 -1294 0
-2477 -1352 -1360 0
-2477 -1352 -1418 0
-2477 -1352 -1475 0
-2477 -1353 1552 0
-2477 -1353 -1286 -1295 0
-2477 -1353 -1362 0
-2477 -1353 -1420 0
-2477 -1353 -1477 0
-2477 -1354 0
-2478 1296 0
-2478 1544 0
-2478 -1345 0
-2478 -1347 0
-2478 -1348 0
-2478 -1349 0
-2478 -1350 0
-2478 -1351 1550 0
-2478 -1351 -1287 -1293 0
-2478 -1351 -1366 0
-2478 -1351 -1424 0
-2478 -1351 -1481 0
-2478 -1352 1551 0
-2478 -1352 -1287 -1294 0
-2478 -1352 -1368 0
-2478 -1352 -1426 0
-2478 -1352 -1483 0
-2478 -1353 1552 0
-2478 -1353 -1287 -1295 0
-2478 -1353 -1370 0
-2478 -1353 -1428 0
-2478 -1353 -1485 0
-2478 -1354 0
-2479 1296 0
-2479 1545 0
-2479 -1345 0
-2479 -1346 0
-2479 -1348 0
-2479 -1349 0
-2479 -1350 0
-2479 -1351 1550 0
-2479 -1351 -1288 -1293 0
-2479 -1351 -1374 0
-2479 -1351 -1432 0
-2479 -1351 -1489 0
-2479 -1352 1551 0
-2479 -1352 -1288 -1294 0
-2479 -1352 -1376 0
-2479 -1352 -1434 0
-2479 -1352 -1491 0
-2479 -1353 1552 0
-2479 -1353 -1288 -1295 0
-2479 -1353 -1378 0
-2479 -1353 -1436 0
-2479 -1353 -1493 0
-2479 -1354 0
-2480 1296 0
-2480 1546 0
-2480 -1345 0
-2480 -1346 0
-2480 -1347 0
-2480 -1349 0
-2480 -1350 0
-2480 -1351 1550 0
-2480 -1351 -1289 -1293 0
-2480 -1351 -1382 0
-2480 -1351 -1440 0
-2480 -1351 -1497 0
-2480 -1352 1551 0
-2480 -1352 -1289 -1294 0
-2480 -1352 -1384 0
-2480 -1352 -1442 0
-2480 -1352 -1499 0
-2480 -1353 1552 0
-2480 -1353 -1289 -1295 0
-2480 -1353 -1386 0
-2480 -1353 -1444 0
-2480 -1353 -1501 0
-2480 -1354 0
-2481 1296 0
-2481 1547 0
-2481 -1345 0
-2481 -1346 0
-2481 -1347 0
-2481 -1348 0
-2481 -1350 0
-2481 -1351 1550 0
-2481 -1351 -1290 -1293 0
-2481 -1351 -1390 0
-2481 -1351 -1448 0
-2481 -1351 -1505 0
-2481 -1352 1551 0
-2481 -1352 -1290 -1294 0
-2481 -1352 -1392 0
-2481 -1352 -1450 0
-2481 -1352 -1507 0
-2481 -1353 1552 0
-2481 -1353 -1290 -1295 0
-2481 -1353 -1394 0
-2481 -1353 -1452 0
-2481 -1353 -1509 0
-2481 -1354 0
-2482 1296 0
-2482 1548 0
-2482 -1345 0
-2482 -1346 0
-2482 -1347 0
-2482 -1348 0
-2482 -1349 0
-2482 -1351 1550 0
-2482 -1351 -1291 -1293 0
-2482 -1351 -1398 0
-2482 -1351 -1456 0
-2482 -1351 -1513 0
-2482 -1352 1551 0
-2482 -1352 -1291 -1294 0
-2482 -1352 -1400 0
-2482 -1352 -1458 0
-2482 -1352 -1515 0
-2482 -1353 1552 0
-2482 -1353 -1291 -1295 0
-2482 -1353 -1402 0
-2482 -1353 -1460 0
-2482 -1353 -1517 0
-2482 -1354 0
-2483 1296 0
-2483 1543 0
-2483 -1405 0
-2483 -1406 0
-2483 -1407 0
-2483 -1408 0
-2483 -1409 1550 0
-2483 -1409 -1286 -1293 0
-2483 -1409 -1358 0
-2483 -1409 -1416 0
-2483 -1409 -1473 0
-2483 -1410 1551 0
-2483 -1410 -1286 -1294 0
-2483 -1410 -1360 0
-2483 -1410 -1418 0
-2483 -1410 -1475 0
-2483 -1411 1552 0
-2483 -1411 -1286 -1295 0
-2483 -1411 -1362 0
-2483 -1411 -1420 0
-2483 -1411 -1477 0
-2483 -1412 0
-2484 1296 0
-2484 1544 0
-2484 -1406 0
-2484 -1407 0
-2484 -1408 0
-2484 -1409 1550 0
-2484 -1409 -1287 -1293 0
-2484 -1409 -1366 0
-2484 -1409 -1424 0
-2484 -1409 -1481 0
-2484 -1410 1551 0
-2484 -1410 -1287 -1294 0
-2484 -1410 -1368 0
-2484 -1410 -1426 0
-2484 -1410 -1483 0
-2484 -1411 1552 0
-2484 -1411 -1287 -1295 0
-2484 -1411 -1370 0
-2484 -1411 -1428 0
-2484 -1411 -1485 0
-2484 -1412 0
-2485 1296 0
-2485 1545 0
-2485 -1404 0
-2485 -1407 0
-2485 -1408 0
-2485 -1409 1550 0
-2485 -1409 -1288 -1293 0
-2485 -1409 -1374 0
-2485 -1409 -1432 0
-2485 -1409 -1489 0
-2485 -1410 1551 0
-2485 -1410 -1288 -1294 0
-2485 -1410 -1376 0
-2485 -1410 -1434 0
-2485 -1410 -1491 0
-2485 -1411 1552 0
-2485 -1411 -1288 -1295 0
-2485 -1411 -1378 0
-2485 -1411 -1436 0
-2485 -1411 -1493 0
-2485 -1412 0
-2486 1296 0
-2486 1546 0
-2486 -1404 0
-2486 -1405 0
-2486 -1408 0
-2486 -1409 1550 0
-2486 -1409 -1289 -1293 0
-2486 -1409 -1382 0
-2486 -1409 -1440 0
-2486 -1409 -1497 0
-2486 -1410 1551 0
-2486 -1410 -1289 -1294 0
-2486 -1410 -1384 0
-2486 -1410 -1442 0
-2486 -1410 -1499 0
-2486 -1411 1552 0
-2486 -1411 -1289 -1295 0
-2486 -1411 -1386 0
-2486 -1411 -1444 0
-2486 -1411 -1501 0
-2486 -1412 0
-2487 1296 0
-2487 1547 0
-2487 -1404 0
-2487 -1405 0
-2487 -1406 0
-2487 -1409 1550 0
-2487 -1409 -1290 -1293 0
-2487 -1409 -1390 0
-2487 -1409 -1448 0
-2487 -1409 -1505 0
-2487 -1410 1551 0
-2487 -1410 -1290 -1294 0
-2487 -1410 -1392 0
-2487 -1410 -1450 0
-2487 -1410 -1507 0
-2487 -1411 1552 0
-2487 -1411 -1290 -1295 0
-2487 -1411 -1394 0
-2487 -1411 -1452 0
-2487 -1411 -1509 0
-2487 -1412 0
-2488 1296 0
-2488 1548 0
-2488 -1404 0
-2488 -1405 0
-2488 -1406 0
-2488 -1407 0
-2488 -1409 1550 0
-2488 -1409 -1291 -1293 0
-2488 -1409 -1398 0
-2488 -1409 -1456 0
-2488 -1409 -1513 0
-2488 -1410 1551 0
-2488 -1410 -1291 -1294 0
-2488 -1410 -1400 0
-2488 -1410 -1458 0
-2488 -1410 -1515 0
-2488 -1411 1552 0
-2488 -1411 -1291 -1295 0
-2488 -1411 -1402 0
-2488 -1411 -1460 0
-2488 -1411 -1517 0
-2488 -1412 0
-2489 1296 0
-2489 1543 0
-2489 -1463 0
-2489 -1464 0
-2489 -1465 0
-2489 -1466 1550 0
-2489 -1466 -1286 -1293 0
-2489 -1466 -1358 0
-2489 -1466 -1416 0
-2489 -1466 -1473 0
-2489 -1467 1551 0
-2489 -1467 -1286 -1294 0
-2489 -1467 -1360 0
-2489 -1467 -1418 0
-2489 -1467 -1475 0
-2489 -1468 1552 0
-2489 -1468 -1286 -1295 0
-2489 -1468 -1362 0
-2489 -1468 -1420 0
-2489 -1468 -1477 0
-2489 -1469 0
-2490 1296 0
-2490 1544 0
-2490 -1464 0
-2490 -1465 0
-2490 -1466 1550 0
-2490 -1466 -1287 -1293 0
-2490 -1466 -1366 0
-2490 -1466 -1424 0
-2490 -1466 -1481 0
-2490 -1467 1551 0
-2490 -1467 -1287 -1294 0
-2490 -1467 -1368 0
-2490 -1467 -1426 0
-2490 -1467 -1483 0
-2490 -1468 1552 0
-2490 -1468 -1287 -1295 0
-2490 -1468 -1370 0
-2490 -1468 -1428 0
-2490 -1468 -1485 0
-2490 -1469 0
-2491 1296 0
-2491 1545 0
-2491 -1465 0
-2491 -1466 1550 0
-2491 -1466 -1288 -1293 0
-2491 -1466 -1374 0
-2491 -1466 -1432 0
-2491 -1466 -1489 0
-2491 -1467 1551 0
-2491 -1467 -1288 -1294 0
-2491 -1467 -1376 0
-2491 -1467 -1434 0
-2491 -1467 -1491 0
-2491 -1468 1552 0
-2491 -1468 -1288 -1295 0
-2491 -1468 -1378 0
-2491 -1468 -1436 0
-2491 -1468 -1493 0
-2491 -1469 0
-2492 1296 0
-2492 1546 0
-2492 -1462 0
-2492 -1466 1550 0
-2492 -1466 -1289 -1293 0
-2492 -1466 -1382 0
-2492 -1466 -1440 0
-2492 -1466 -1497 0
-2492 -1467 1551 0
-2492 -1467 -1289 -1294 0
-2492 -1467 -1384 0
-2492 -1467 -1442 0
-2492 -1467 -1499 0
-2492 -1468 1552 0
-2492 -1468 -1289 -1295 0
-2492 -1468 -1386 0
-2492 -1468 -1444 0
-2492 -1468 -1501 0
-2492 -1469 0
-2493 1296 0
-2493 1547 0
-2493 -1462 0
-2493 -1463 0
-2493 -1466 1550 0
-2493 -1466 -1290 -1293 0
-2493 -1466 -1390 0
-2493 -1466 -1448 0
-2493 -1466 -1505 0
-2493 -1467 1551 0
-2493 -1467 -1290 -1294 0
-2493 -1467 -1392 0
-2493 -1467 -1450 0
-2493 -1467 -1507 0
-2493 -1468 1552 0
-2493 -1468 -1290 -1295 0
-2493 -1468 -1394 0
-2493 -1468 -1452 0
-2493 -1468 -1509 0
-2493 -1469 0
-2494 1296 0
-2494 1548 0
-2494 -1462 0
-2494 -1463 0
-2494 -1464 0
-2494 -1466 1550 0
-2494 -1466 -1291 -1293 0
-2494 -1466 -1398 0
-2494 -1466 -1456 0
-2494 -1466 -1513 0
-2494 -1467 1551 0
-2494 -1467 -1291 -1294 0
-2494 -1467 -1400 0
-2494 -1467 -1458 0
-2494 -1467 -1515 0
-2494 -1468 1552 0
-2494 -1468 -1291 -1295 0
-2494 -1468 -1402 0
-2494 -1468 -1460 0
-2494 -1468 -1517 0
-2494 -1469 0
-2495 1296 0
-2495 1543 0
-2495 1549 0
-2495 -1286 -1292 0
-2495 -1356 0
-2495 -1414 0
-2495 -1471 0
-2496 1296 0
-2496 1544 0
-2496 1549 0
-2496 -1287 -1292 0
-2496 -1364 0
-2496 -1422 0
-2496 -1479 0
-2497 1296 0
-2497 1545 0
-2497 1549 0
-2497 -1288 -1292 0
-2497 -1372 0
-2497 -1430 0
-2497 -1487 0
-2498 1296 0
-2498 1546 0
-2498 1549 0
-2498 -1289 -1292 0
-2498 -1380 0
-2498 -1438 0
-2498 -1495 0
-2499 1296 0
-2499 1547 0
-2499 1549 0
-2499 -1290 -1292 0
-2499 -1388 0
-2499 -1446 0
-2499 -1503 0
-2500 1296 0
-2500 1548 0
-2500 1549 0
-2500 -1291 -1292 0
-2500 -1396 0
-2500 -1454 0
-2500 -1511 0
-2501 1355 0
-2501 1602 0
-2501 -1287 0
-2501 -1288 0
-2501 -1289 0
-2501 -1290 0
-2501 -1291 0
-2501 -1292 1609 0
-2501 -1292 -1345 -1352 0
-2501 -1292 -1299 0
-2501 -1292 -1416 0
-2501 -1292 -1473 0
-2501 -1293 1610 0
-2501 -1293 -1345 -1353 0
-2501 -1293 -1301 0
-2501 -1293 -1418 0
-2501 -1293 -1475 0
-2501 -1294 1611 0
-2501 -1294 -1345 -1354 0
-2501 -1294 -1303 0
-2501 -1294 -1420 0
-2501 -1294 -1477 0
-2501 -1295 0
-2502 1355 0
-2502 1603 0
-2502 -1286 0
-2502 -1288 0
-2502 -1289 0
-2502 -1290 0
-2502 -1291 0
-2502 -1292 1609 0
-2502 -1292 -1346 -1352 0
-2502 -1292 -1307 0
-2502 -1292 -1424 0
-2502 -1292 -1481 0
-2502 -1293 1610 0
-2502 -1293 -1346 -1353 0
-2502 -1293 -1309 0
-2502 -1293 -1426 0
-2502 -1293 -1483 0
-2502 -1294 1611 0
-2502 -1294 -1346 -1354 0
-2502 -1294 -1311 0
-2502 -1294 -1428 0
-2502 -1294 -1485 0
-2502 -1295 0
-2503 1355 0
-2503 1604 0
-2503 -1286 0
-2503 -1287 0
-2503 -1289 0
-2503 -1290 0
-2503 -1291 0
-2503 -1292 1609 0
-2503 -1292 -1347 -1352 0
-2503 -1292 -1315 0
-2503 -1292 -1432 0
-2503 -1292 -1489 0
-2503 -1293 1610 0
-2503 -1293 -1347 -1353 0
-2503 -1293 -1317 0
-2503 -1293 -1434 0
-2503 -1293 -1491 0
-2503 -1294 1611 0
-2503 -1294 -1347 -1354 0
-2503 -1294 -1319 0
-2503 -1294 -1436 0
-2503 -1294 -1493 0
-2503 -1295 0
-2504 1355 0
-2504 1605 0
-2504 -1286 0
-2504 -1287 0
-2504 -1288 0
-2504 -1290 0
-2504 -1291 0
-2504 -1292 1609 0
-2504 -1292 -1348 -1352 0
-2504 -1292 -1323 0
-2504 -1292 -1440 0
-2504 -1292 -1497 0
-2504 -1293 1610 0
-2504 -1293 -1348 -1353 0
-2504 -1293 -1325 0
-2504 -1293 -1442 0
-2504 -1293 -1499 0
-2504 -1294 1611 0
-2504 -1294 -1348 -1354 0
-2504 -1294 -1327 0
-2504 -1294 -1444 0
-2504 -1294 -1501 0
-2504 -1295 0
-2505 1355 0
-2505 1606 0
-2505 -1286 0
-2505 -1287 0
-2505 -1288 0
-2505 -1289 0
-2505 -1291 0
-2505 -1292 1609 0
-2505 -1292 -1349 -1352 0
-2505 -1292 -1331 0
-2505 -1292 -1448 0
-2505 -1292 -1505 0
-2505 -1293 1610 0
-2505 -1293 -1349 -1353 0
-2505 -1293 -1333 0
-2505 -1293 -1450 0
-2505 -1293 -1507 0
-2505 -1294 1611 0
-2505 -1294 -1349 -1354 0
-2505 -1294 -1335 0
-2505 -1294 -1452 0
-2505 -1294 -1509 0
-2505 -1295 0
-2506 1355 0
-2506 1607 0
-2506 -1286 0
-2506 -1287 0
-2506 -1288 0
-2506 -1289 0
-2506 -1290 0
-2506 -1292 1609 0
-2506 -1292 -1350 -1352 0
-2506 -1292 -1339 0
-2506 -1292 -1456 0
-2506 -1292 -1513 0
-2506 -1293 1610 0
-2506 -1293 -1350 -1353 0
-2506 -1293 -1341 0
-2506 -1293 -1458 0
-2506 -1293 -1515 0
-2506 -1294 1611 0
-2506 -1294 -1350 -1354 0
-2506 -1294 -1343 0
-2506 -1294 -1460 0
-2506 -1294 -1517 0
-2506 -1295 0
-2507 1355 0
-2507 1602 0
-2507 -1405 0
-2507 -1406 0
-2507 -1407 0
-2507 -1408 0
-2507 -1409 1609 0
-2507 -1409 -1345 -1352 0
-2507 -1409 -1299 0
-2507 -1409 -1416 0
-2507 -1409 -1473 0
-2507 -1410 1610 0
-2507 -1410 -1345 -1353 0
-2507 -1410 -1301 0
-2507 -1410 -1418 0
-2507 -1410 -1475 0
-2507 -1411 1611 0
-2507 -1411 -1345 -1354 0
-2507 -1411 -1303 0
-2507 -1411 -1420 0
-2507 -1411 -1477 0
-2507 -1412 0
-2508 1355 0
-2508 1603 0
-2508 -1406 0
-2508 -1407 0
-2508 -1408 0
-2508 -1409 1609 0
-2508 -1409 -1346 -1352 0
-2508 -1409 -1307 0
-2508 -1409 -1424 0
-2508 -1409 -1481 0
-2508 -1410 1610 0
-2508 -1410 -1346 -1353 0
-2508 -1410 -1309 0
-2508 -1410 -1426 0
-2508 -1410 -1483 0
-2508 -1411 1611 0
-2508 -1411 -1346 -1354 0
-2508 -1411 -1311 0
-2508 -1411 -1428 0
-2508 -1411 -1485 0
-2508 -1412 0
-2509 1355 0
-2509 1604 0
-2509 -1404 0
-2509 -1407 0
-2509 -1408 0
-2509 -1409 1609 0
-2509 -1409 -1347 -1352 0
-2509 -1409 -1315 0
-2509 -1409 -1432 0
-2509 -1409 -1489 0
-2509 -1410 1610 0
-2509 -1410 -1347 -1353 0
-2509 -1410 -1317 0
-2509 -1410 -1434 0
-2509 -1410 -1491 0
-2509 -1411 1611 0
-2509 -1411 -1347 -1354 0
-2509 -1411 -1319 0
-2509 -1411 -1436 0
-2509 -1411 -1493 0
-2509 -1412 0
-2510 1355 0
-2510 1605 0
-2510 -1404 0
-2510 -1405 0
-2510 -1408 0
-2510 -1409 1609 0
-2510 -1409 -1348 -1352 0
-2510 -1409 -1323 0
-2510 -1409 -1440 0
-2510 -1409 -1497 0
-2510 -1410 1610 0
-2510 -1410 -1348 -1353 0
-2510 -1410 -1325 0
-2510 -1410 -1442 0
-2510 -1410 -1499 0
-2510 -1411 1611 0
-2510 -1411 -1348 -1354 0
-2510 -1411 -1327 0
-2510 -1411 -1444 0
-2510 -1411 -1501 0
-2510 -1412 0
-2511 1355 0
-2511 1606 0
-2511 -1404 0
-2511 -1405 0
-2511 -1406 0
-2511 -1409 1609 0
-2511 -1409 -1349 -1352 0
-2511 -1409 -1331 0
-2511 -1409 -1448 0
-2511 -1409 -1505 0
-2511 -1410 1610 0
-2511 -1410 -1349 -1353 0
-2511 -1410 -1333 0
-2511 -1410 -1450 0
-2511 -1410 -1507 0
-2511 -1411 1611 0
-2511 -1411 -1349 -1354 0
-2511 -1411 -1335 0
-2511 -1411 -1452 0
-2511 -1411 -1509 0
-2511 -1412 0
-2512 1355 0
-2512 1607 0
-2512 -1404 0
-2512 -1405 0
-2512 -1406 0
-2512 -1407 0
-2512 -1409 1609 0
-2512 -1409 -1350 -1352 0
-2512 -1409 -1339 0
-2512 -1409 -1456 0
-2512 -1409 -1513 0
-2512 -1410 1610 0
-2512 -1410 -1350 -1353 0
-2512 -1410 -1341 0
-2512 -1410 -1458 0
-2512 -1410 -1515 0
-2512 -1411 1611 0
-2512 -1411 -1350 -1354 0
-2512 -1411 -1343 0
-2512 -1411 -1460 0
-2512 -1411 -1517 0
-2512 -1412 0
-2513 1355 0
-2513 1602 0
-2513 -1463 0
-2513 -1464 0
-2513 -1465 0
-2513 -1466 1609 0
-2513 -1466 -1345 -1352 0
-2513 -1466 -1299 0
-2513 -1466 -1416 0
-2513 -1466 -1473 0
-2513 -1467 1610 0
-2513 -1467 -1345 -1353 0
-2513 -1467 -1301 0
-2513 -1467 -1418 0
-2513 -1467 -1475 0
-2513 -1468 1611 0
-2513 -1468 -1345 -1354 0
-2513 -1468 -1303 0
-2513 -1468 -1420 0
-2513 -1468 -1477 0
-2513 -1469 0
-2514 1355 0
-2514 1603 0
-2514 -1464 0
-2514 -1465 0
-2514 -1466 1609 0
-2514 -1466 -1346 -1352 0
-2514 -1466 -1307 0
-2514 -1466 -1424 0
-2514 -1466 -1481 0
-2514 -1467 1610 0
-2514 -1467 -1346 -1353 0
-2514 -1467 -1309 0
-2514 -1467 -1426 0
-2514 -1467 -1483 0
-2514 -1468 1611 0
-2514 -1468 -1346 -1354 0
-2514 -1468 -1311 0
-2514 -1468 -1428 0
-2514 -1468 -1485 0
-2514 -1469 0
-2515 1355 0
-2515 1604 0
-2515 -1465 0
-2515 -1466 1609 0
-2515 -1466 -1347 -1352 0
-2515 -1466 -1315 0
-2515 -1466 -1432 0
-2515 -1466 -1489 0
-2515 -1467 1610 0
-2515 -1467 -1347 -1353 0
-2515 -1467 -1317 0
-2515 -1467 -1434 0
-2515 -1467 -1491 0
-2515 -1468 1611 0
-2515 -1468 -1347 -1354 0
-2515 -1468 -1319 0
-2515 -1468 -1436 0
-2515 -1468 -1493 0
-2515 -1469 0
-2516 1355 0
-2516 1605 0
-2516 -1462 0
-2516 -1466 1609 0
-2516 -1466 -1348 -1352 0
-2516 -1466 -1323 0
-2516 -1466 -1440 0
-2516 -1466 -1497 0
-2516 -1467 1610 0
-2516 -1467 -1348 -1353 0
-2516 -1467 -1325 0
-2516 -1467 -1442 0
-2516 -1467 -1499 0
-2516 -1468 1611 0
-2516 -1468 -1348 -1354 0
-2516 -1468 -1327 0
-2516 -1468 -1444 0
-2516 -1468 -1501 0
-2516 -1469 0
-2517 1355 0
-2517 1606 0
-2517 -1462 0
-2517 -1463 0
-2517 -1466 1609 0
-2517 -1466 -1349 -1352 0
-2517 -1466 -1331 0
-2517 -1466 -1448 0
-2517 -1466 -1505 0
-2517 -1467 1610 0
-2517 -1467 -1349 -1353 0
-2517 -1467 -1333 0
-2517 -1467 -1450 0
-2517 -1467 -1507 0
-2517 -1468 1611 0
-2517 -1468 -1349 -1354 0
-2517 -1468 -1335 0
-2517 -1468 -1452 0
-2517 -1468 -1509 0
-2517 -1469 0
-2518 1355 0
-2518 1607 0
-2518 -1462 0
-2518 -1463 0
-2518 -1464 0
-2518 -1466 1609 0
-2518 -1466 -1350 -1352 0
-2518 -1466 -1339 0
-2518 -1466 -1456 0
-2518 -1466 -1513 0
-2518 -1467 1610 0
-2518 -1467 -1350 -1353 0
-2518 -1467 -1341 0
-2518 -1467 -1458 0
-2518 -1467 -1515 0
-2518 -1468 1611 0
-2518 -1468 -1350 -1354 0
-2518 -1468 -1343 0
-2518 -1468 -1460 0
-2518 -1468 -1517 0
-2518 -1469 0
-2519 1355 0
-2519 1602 0
-2519 1608 0
-2519 -1345 -1351 0
-2519 -1297 0
-2519 -1414 0
-2519 -1471 0
-2520 1355 0
-2520 1603 0
-2520 1608 0
-2520 -1346 -1351 0
-2520 -1305 0
-2520 -1422 0
-2520 -1479 0
-2521 1355 0
-2521 1604 0
-2521 1608 0
-2521 -1347 -1351 0
-2521 -1313 0
-2521 -1430 0
-2521 -1487 0
-2522 1355 0
-2522 1605 0
-2522 1608 0
-2522 -1348 -1351 0
-2522 -1321 0
-2522 -1438 0
-2522 -1495 0
-2523 1355 0
-2523 1606 0
-2523 1608 0
-2523 -1349 -1351 0
-2523 -1329 0
-2523 -1446 0
-2523 -1503 0
-2524 1355 0
-2524 1607 0
-2524 1608 0
-2524 -1350 -1351 0
-2524 -1337 0
-2524 -1454 0
-2524 -1511 0
-2525 1413 0
-2525 1661 0
-2525 -1288 0
-2525 -1289 0
-2525 -1290 0
-2525 -1291 0
-2525 -1292 1667 0
-2525 -1292 -1404 -1410 0
-2525 -1292 -1299 0
-2525 -1292 -1307 0
-2525 -1292 -1358 0
-2525 -1292 -1366 0
-2525 -1292 -1473 0
-2525 -1292 -1481 0
-2525 -1293 1668 0
-2525 -1293 -1404 -1411 0
-2525 -1293 -1301 0
-2525 -1293 -1309 0
-2525 -1293 -1360 0
-2525 -1293 -1368 0
-2525 -1293 -1475 0
-2525 -1293 -1483 0
-2525 -1294 1669 0
-2525 -1294 -1404 -1412 0
-2525 -1294 -1303 0
-2525 -1294 -1311 0
-2525 -1294 -1362 0
-2525 -1294 -1370 0
-2525 -1294 -1477 0
-2525 -1294 -1485 0
-2525 -1295 0
-2526 1413 0
-2526 1662 0
-2526 -1286 0
-2526 -1289 0
-2526 -1290 0
-2526 -1291 0
-2526 -1292 1667 0
-2526 -1292 -1405 -1410 0
-2526 -1292 -1307 0
-2526 -1292 -1315 0
-2526 -1292 -1366 0
-2526 -1292 -1374 0
-2526 -1292 -1481 0
-2526 -1292 -1489 0
-2526 -1293 1668 0
-2526 -1293 -1405 -1411 0
-2526 -1293 -1309 0
-2526 -1293 -1317 0
-2526 -1293 -1368 0
-2526 -1293 -1376 0
-2526 -1293 -1483 0
-2526 -1293 -1491 0
-2526 -1294 1669 0
-2526 -1294 -1405 -1412 0
-2526 -1294 -1311 0
-2526 -1294 -1319 0
-2526 -1294 -1370 0
-2526 -1294 -1378 0
-2526 -1294 -1485 0
-2526 -1294 -1493 0
-2526 -1295 0
-2527 1413 0
-2527 1663 0
-2527 -1286 0
-2527 -1287 0
-2527 -1290 0
-2527 -1291 0
-2527 -1292 1667 0
-2527 -1292 -1406 -1410 0
-2527 -1292 -1315 0
-2527 -1292 -1323 0
-2527 -1292 -1374 0
-2527 -1292 -1382 0
-2527 -1292 -1489 0
-2527 -1292 -1497 0
-2527 -1293 1668 0
-2527 -1293 -1406 -1411 0
-2527 -1293 -1317 0
-2527 -1293 -1325 0
-2527 -1293 -1376 0
-2527 -1293 -1384 0
-2527 -1293 -1491 0
-2527 -1293 -1499 0
-2527 -1294 1669 0
-2527 -1294 -1406 -1412 0
-2527 -1294 -1319 0
-2527 -1294 -1327 0
-2527 -1294 -1378 0
-2527 -1294 -1386 0
-2527 -1294 -1493 0
-2527 -1294 -1501 0
-2527 -1295 0
-2528 1413 0
-2528 1664 0
-2528 -1286 0
-2528 -1287 0
-2528 -1288 0
-2528 -1291 0
-2528 -1292 1667 0
-2528 -1292 -1407 -1410 0
-2528 -1292 -1323 0
-2528 -1292 -1331 0
-2528 -1292 -1382 0
-2528 -1292 -1390 0
-2528 -1292 -1497 0
-2528 -1292 -1505 0
-2528 -1293 1668 0
-2528 -1293 -1407 -1411 0
-2528 -1293 -1325 0
-2528 -1293 -1333 0
-2528 -1293 -1384 0
-2528 -1293 -1392 0
-2528 -1293 -1499 0
-2528 -1293 -1507 0
-2528 -1294 1669 0
-2528 -1294 -1407 -1412 0
-2528 -1294 -1327 0
-2528 -1294 -1335 0
-2528 -1294 -1386 0
-2528 -1294 -1394 0
-2528 -1294 -1501 0
-2528 -1294 -1509 0
-2528 -1295 0
-2529 1413 0
-2529 1665 0
-2529 -1286 0
-2529 -1287 0
-2529 -1288 0
-2529 -1289 0
-2529 -1292 1667 0
-2529 -1292 -1408 -1410 0
-2529 -1292 -1331 0
-2529 -1292 -1339 0
-2529 -1292 -1390 0
-2529 -1292 -1398 0
-2529 -1292 -1505 0
-2529 -1292 -1513 0
-2529 -1293 1668 0
-2529 -1293 -1408 -1411 0
-2529 -1293 -1333 0
-2529 -1293 -1341 0
-2529 -1293 -1392 0
-2529 -1293 -1400 0
-2529 -1293 -1507 0
-2529 -1293 -1515 0
-2529 -1294 1669 0
-2529 -1294 -1408 -1412 0
-2529 -1294 -1335 0
-2529 -1294 -1343 0
-2529 -1294 -1394 0
-2529 -1294 -1402 0
-2529 -1294 -1509 0
-2529 -1294 -1517 0
-2529 -1295 0
-2530 1413 0
-2530 1661 0
-2530 -1347 0
-2530 -1348 0
-2530 -1349 0
-2530 -1350 0
-2530 -1351 1667 0
-2530 -1351 -1404 -1410 0
-2530 -1351 -1299 0
-2530 -1351 -1307 0
-2530 -1351 -1358 0
-2530 -1351 -1366 0
-2530 -1351 -1473 0
-2530 -1351 -1481 0
-2530 -1352 1668 0
-2530 -1352 -1404 -1411 0
-2530 -1352 -1301 0
-2530 -1352 -1309 0
-2530 -1352 -1360 0
-2530 -1352 -1368 0
-2530 -1352 -1475 0
-2530 -1352 -1483 0
-2530 -1353 1669 0
-2530 -1353 -1404 -1412 0
-2530 -1353 -1303 0
-2530 -1353 -1311 0
-2530 -1353 -1362 0
-2530 -1353 -1370 0
-2530 -1353 -1477 0
-2530 -1353 -1485 0
-2530 -1354 0
-2531 1413 0
-2531 1662 0
-2531 -1345 0
-2531 -1348 0
-2531 -1349 0
-2531 -1350 0
-2531 -1351 1667 0
-2531 -1351 -1405 -1410 0
-2531 -1351 -1307 0
-2531 -1351 -1315 0
-2531 -1351 -1366 0
-2531 -1351 -1374 0
-2531 -1351 -1481 0
-2531 -1351 -1489 0
-2531 -1352 1668 0
-2531 -1352 -1405 -1411 0
-2531 -1352 -1309 0
-2531 -1352 -1317 0
-2531 -1352 -1368 0
-2531 -1352 -1376 0
-2531 -1352 -1483 0
-2531 -1352 -1491 0
-2531 -1353 1669 0
-2531 -1353 -1405 -1412 0
-2531 -1353 -1311 0
-2531 -1353 -1319 0
-2531 -1353 -1370 0
-2531 -1353 -1378 0
-2531 -1353 -1485 0
-2531 -1353 -1493 0
-2531 -1354 0
-2532 1413 0
-2532 1663 0
-2532 -1345 0
-2532 -1346 0
-2532 -1349 0
-2532 -1350 0
-2532 -1351 1667 0
-2532 -1351 -1406 -1410 0
-2532 -1351 -1315 0
-2532 -1351 -1323 0
-2532 -1351 -1374 0
-2532 -1351 -1382 0
-2532 -1351 -1489 0
-2532 -1351 -1497 0
-2532 -1352 1668 0
-2532 -1352 -1406 -1411 0
-2532 -1352 -1317 0
-2532 -1352 -1325 0
-2532 -1352 -1376 0
-2532 -1352 -1384 0
-2532 -1352 -1491 0
-2532 -1352 -1499 0
-2532 -1353 1669 0
-2532 -1353 -1406 -1412 0
-2532 -1353 -1319 0
-2532 -1353 -1327 0
-2532 -1353 -1378 0
-2532 -1353 -1386 0
-2532 -1353 -1493 0
-2532 -1353 -1501 0
-2532 -1354 0
-2533 1413 0
-2533 1664 0
-2533 -1345 0
-2533 -1346 0
-2533 -1347 0
-2533 -1350 0
-2533 -1351 1667 0
-2533 -1351 -1407 -1410 0
-2533 -1351 -1323 0
-2533 -1351 -1331 0
-2533 -1351 -1382 0
-2533 -1351 -1390 0
-2533 -1351 -1497 0
-2533 -1351 -1505 0
-2533 -1352 1668 0
-2533 -1352 -1407 -1411 0
-2533 -1352 -1325 0
-2533 -1352 -1333 0
-2533 -1352 -1384 0
-2533 -1352 -1392 0
-2533 -1352 -1499 0
-2533 -1352 -1507 0
-2533 -1353 1669 0
-2533 -1353 -1407 -1412 0
-2533 -1353 -1327 0
-2533 -1353 -1335 0
-2533 -1353 -1386 0
-2533 -1353 -1394 0
-2533 -1353 -1501 0
-2533 -1353 -1509 0
-2533 -1354 0
-2534 1413 0
-2534 1665 0
-2534 -1345 0
-2534 -1346 0
-2534 -1347 0
-2534 -1348 0
-2534 -1351 1667 0
-2534 -1351 -1408 -1410 0
-2534 -1351 -1331 0
-2534 -1351 -1339 0
-2534 -1351 -1390 0
-2534 -1351 -1398 0
-2534 -1351 -1505 0
-2534 -1351 -1513 0
-2534 -1352 1668 0
-2534 -1352 -1408 -1411 0
-2534 -1352 -1333 0
-2534 -1352 -1341 0
-2534 -1352 -1392 0
-2534 -1352 -1400 0
-2534 -1352 -1507 0
-2534 -1352 -1515 0
-2534 -1353 1669 0
-2534 -1353 -1408 -1412 0
-2534 -1353 -1335 0
-2534 -1353 -1343 0
-2534 -1353 -1394 0
-2534 -1353 -1402 0
-2534 -1353 -1509 0
-2534 -1353 -1517 0
-2534 -1354 0
-2535 1413 0
-2535 1661 0
-2535 -1464 0
-2535 -1465 0
-2535 -1466 1667 0
-2535 -1466 -1404 -1410 0
-2535 -1466 -1299 0
-2535 -1466 -1307 0
-2535 -1466 -1358 0
-2535 -1466 -1366 0
-2535 -1466 -1473 0
-2535 -1466 -1481 0
-2535 -1467 1668 0
-2535 -1467 -1404 -1411 0
-2535 -1467 -1301 0
-2535 -1467 -1309 0
-2535 -1467 -1360 0
-2535 -1467 -1368 0
-2535 -1467 -1475 0
-2535 -1467 -1483 0
-2535 -1468 1669 0
-2535 -1468 -1404 -1412 0
-2535 -1468 -1303 0
-2535 -1468 -1311 0
-2535 -1468 -1362 0
-2535 -1468 -1370 0
-2535 -1468 -1477 0
-2535 -1468 -1485 0
-2535 -1469 0
-2536 1413 0
-2536 1662 0
-2536 -1465 0
-2536 -1466 1667 0
-2536 -1466 -1405 -1410 0
-2536 -1466 -1307 0
-2536 -1466 -1315 0
-2536 -1466 -1366 0
-2536 -1466 -1374 0
-2536 -1466 -1481 0
-2536 -1466 -1489 0
-2536 -1467 1668 0
-2536 -1467 -1405 -1411 0
-2536 -1467 -1309 0
-2536 -1467 -1317 0
-2536 -1467 -1368 0
-2536 -1467 -1376 0
-2536 -1467 -1483 0
-2536 -1467 -1491 0
-2536 -1468 1669 0
-2536 -1468 -1405 -1412 0
-2536 -1468 -1311 0
-2536 -1468 -1319 0
-2536 -1468 -1370 0
-2536 -1468 -1378 0
-2536 -1468 -1485 0
-2536 -1468 -1493 0
-2536 -1469 0
-2537 1413 0
-2537 1663 0
-2537 -1466 1667 0
-2537 -1466 -1406 -1410 0
-2537 -1466 -1315 0
-2537 -1466 -1323 0
-2537 -1466 -1374 0
-2537 -1466 -1382 0
-2537 -1466 -1489 0
-2537 -1466 -1497 0
-2537 -1467 1668 0
-2537 -1467 -1406 -1411 0
-2537 -1467 -1317 0
-2537 -1467 -1325 0
-2537 -1467 -1376 0
-2537 -1467 -1384 0
-2537 -1467 -1491 0
-2537 -1467 -1499 0
-2537 -1468 1669 0
-2537 -1468 -1406 -1412 0
-2537 -1468 -1319 0
-2537 -1468 -1327 0
-2537 -1468 -1378 0
-2537 -1468 -1386 0
-2537 -1468 -1493 0
-2537 -1468 -1501 0
-2537 -1469 0
-2538 1413 0
-2538 1664 0
-2538 -1462 0
-2538 -1466 1667 0
-2538 -1466 -1407 -1410 0
-2538 -1466 -1323 0
-2538 -1466 -1331 0
-2538 -1466 -1382 0
-2538 -1466 -1390 0
-2538 -1466 -1497 0
-2538 -1466 -1505 0
-2538 -1467 1668 0
-2538 -1467 -1407 -1411 0
-2538 -1467 -1325 0
-2538 -1467 -1333 0
-2538 -1467 -1384 0
-2538 -1467 -1392 0
-2538 -1467 -1499 0
-2538 -1467 -1507 0
-2538 -1468 1669 0
-2538 -1468 -1407 -1412 0
-2538 -1468 -1327 0
-2538 -1468 -1335 0
-2538 -1468 -1386 0
-2538 -1468 -1394 0
-2538 -1468 -1501 0
-2538 -1468 -1509 0
-2538 -1469 0
-2539 1413 0
-2539 1665 0
-2539 -1462 0
-2539 -1463 0
-2539 -1466 1667 0
-2539 -1466 -1408 -1410 0
-2539 -1466 -1331 0
-2539 -1466 -1339 0
-2539 -1466 -1390 0
-2539 -1466 -1398 0
-2539 -1466 -1505 0
-2539 -1466 -1513 0
-2539 -1467 1668 0
-2539 -1467 -1408 -1411 0
-2539 -1467 -1333 0
-2539 -1467 -1341 0
-2539 -1467 -1392 0
-2539 -1467 -1400 0
-2539 -1467 -1507 0
-2539 -1467 -1515 0
-2539 -1468 1669 0
-2539 -1468 -1408 -1412 0
-2539 -1468 -1335 0
-2539 -1468 -1343 0
-2539 -1468 -1394 0
-2539 -1468 -1402 0
-2539 -1468 -1509 0
-2539 -1468 -1517 0
-2539 -1469 0
-2540 1413 0
-2540 1661 0
-2540 1666 0
-2540 -1404 -1409 0
-2540 -1297 0
-2540 -1305 0
-2540 -1356 0
-2540 -1364 0
-2540 -1471 0
-2540 -1479 0
-2541 1413 0
-2541 1662 0
-2541 1666 0
-2541 -1405 -1409 0
-2541 -1305 0
-2541 -1313 0
-2541 -1364 0
-2541 -1372 0
-2541 -1479 0
-2541 -1487 0
-2542 1413 0
-2542 1663 0
-2542 1666 0
-2542 -1406 -1409 0
-2542 -1313 0
-2542 -1321 0
-2542 -1372 0
-2542 -1380 0
-2542 -1487 0
-2542 -1495 0
-2543 1413 0
-2543 1664 0
-2543 1666 0
-2543 -1407 -1409 0
-2543 -1321 0
-2543 -1329 0
-2543 -1380 0
-2543 -1388 0
-2543 -1495 0
-2543 -1503 0
-2544 1413 0
-2544 1665 0
-2544 1666 0
-2544 -1408 -1409 0
-2544 -1329 0
-2544 -1337 0
-2544 -1388 0
-2544 -1396 0
-2544 -1503 0
-2544 -1511 0
-2545 1470 0
-2545 1719 0
-2545 -1289 0
-2545 -1290 0
-2545 -1291 0
-2545 -1292 1724 0
-2545 -1292 -1462 -1467 0
-2545 -1292 -1299 0
-2545 -1292 -1307 0
-2545 -1292 -1315 0
-2545 -1292 -1358 0
-2545 -1292 -1366 0
-2545 -1292 -1374 0
-2545 -1292 -1416 0
-2545 -1292 -1424 0
-2545 -1292 -1432 0
-2545 -1293 1725 0
-2545 -1293 -1462 -1468 0
-2545 -1293 -1301 0
-2545 -1293 -1309 0
-2545 -1293 -1317 0
-2545 -1293 -1360 0
-2545 -1293 -1368 0
-2545 -1293 -1376 0
-2545 -1293 -1418 0
-2545 -1293 -1426 0
-2545 -1293 -1434 0
-2545 -1294 1726 0
-2545 -1294 -1462 -1469 0
-2545 -1294 -1303 0
-2545 -1294 -1311 0
-2545 -1294 -1319 0
-2545 -1294 -1362 0
-2545 -1294 -1370 0
-2545 -1294 -1378 0
-2545 -1294 -1420 0
-2545 -1294 -1428 0
-2545 -1294 -1436 0
-2545 -1295 0
-2546 1470 0
-2546 1720 0
-2546 -1286 0
-2546 -1290 0
-2546 -1291 0
-2546 -1292 1724 0
-2546 -1292 -1463 -1467 0
-2546 -1292 -1307 0
-2546 -1292 -1315 0
-2546 -1292 -1323 0
-2546 -1292 -1366 0
-2546 -1292 -1374 0
-2546 -1292 -1382 0
-2546 -1292 -1424 0
-2546 -1292 -1432 0
-2546 -1292 -1440 0
-2546 -1293 1725 0
-2546 -1293 -1463 -1468 0
-2546 -1293 -1309 0
-2546 -1293 -1317 0
-2546 -1293 -1325 0
-2546 -1293 -1368 0
-2546 -1293 -1376 0
-2546 -1293 -1384 0
-2546 -1293 -1426 0
-2546 -1293 -1434 0
-2546 -1293 -1442 0
-2546 -1294 1726 0
-2546 -1294 -1463 -1469 0
-2546 -1294 -1311 0
-2546 -1294 -1319 0
-2546 -1294 -1327 0
-2546 -1294 -1370 0
-2546 -1294 -1378 0
-2546 -1294 -1386 0
-2546 -1294 -1428 0
-2546 -1294 -1436 0
-2546 -1294 -1444 0
-2546 -1295 0
-2547 1470 0
-2547 1721 0
-2547 -1286 0
-2547 -1287 0
-2547 -1291 0
-2547 -1292 1724 0
-2547 -1292 -1464 -1467 0
-2547 -1292 -1315 0
-2547 -1292 -1323 0
-2547 -1292 -1331 0
-2547 -1292 -1374 0
-2547 -1292 -1382 0
-2547 -1292 -1390 0
-2547 -1292 -1432 0
-2547 -1292 -1440 0
-2547 -1292 -1448 0
-2547 -1293 1725 0
-2547 -1293 -1464 -1468 0
-2547 -1293 -1317 0
-2547 -1293 -1325 0
-2547 -1293 -1333 0
-2547 -1293 -1376 0
-2547 -1293 -1384 0
-2547 -1293 -1392 0
-2547 -1293 -1434 0
-2547 -1293 -1442 0
-2547 -1293 -1450 0
-2547 -1294 1726 0
-2547 -1294 -1464 -1469 0
-2547 -1294 -1319 0
-2547 -1294 -1327 0
-2547 -1294 -1335 0
-2547 -1294 -1378 0
-2547 -1294 -1386 0
-2547 -1294 -1394 0
-2547 -1294 -1436 0
-2547 -1294 -1444 0
-2547 -1294 -1452 0
-2547 -1295 0
-2548 1470 0
-2548 1722 0
-2548 -1286 0
-2548 -1287 0
-2548 -1288 0
-2548 -1292 1724 0
-2548 -1292 -1465 -1467 0
-2548 -1292 -1323 0
-2548 -1292 -1331 0
-2548 -1292 -1339 0
-2548 -1292 -1382 0
-2548 -1292 -1390 0
-2548 -1292 -1398 0
-2548 -1292 -1440 0
-2548 -1292 -1448 0
-2548 -1292 -1456 0
-2548 -1293 1725 0
-2548 -1293 -1465 -1468 0
-2548 -1293 -1325 0
-2548 -1293 -1333 0
-2548 -1293 -1341 0
-2548 -1293 -1384 0
-2548 -1293 -1392 0
-2548 -1293 -1400 0
-2548 -1293 -1442 0
-2548 -1293 -1450 0
-2548 -1293 -1458 0
-2548 -1294 1726 0
-2548 -1294 -1465 -1469 0
-2548 -1294 -1327 0
-2548 -1294 -1335 0
-2548 -1294 -1343 0
-2548 -1294 -1386 0
-2548 -1294 -1394 0
-2548 -1294 -1402 0
-2548 -1294 -1444 0
-2548 -1294 -1452 0
-2548 -1294 -1460 0
-2548 -1295 0
-2549 1470 0
-2549 1719 0
-2549 -1348 0
-2549 -1349 0
-2549 -1350 0
-2549 -1351 1724 0
-2549 -1351 -1462 -1467 0
-2549 -1351 -1299 0
-2549 -1351 -1307 0
-2549 -1351 -1315 0
-2549 -1351 -1358 0
-2549 -1351 -1366 0
-2549 -1351 -1374 0
-2549 -1351 -1416 0
-2549 -1351 -1424 0
-2549 -1351 -1432 0
-2549 -1352 1725 0
-2549 -1352 -1462 -1468 0
-2549 -1352 -1301 0
-2549 -1352 -1309 0
-2549 -1352 -1317 0
-2549 -1352 -1360 0
-2549 -1352 -1368 0
-2549 -1352 -1376 0
-2549 -1352 -1418 0
-2549 -1352 -1426 0
-2549 -1352 -1434 0
-2549 -1353 1726 0
-2549 -1353 -1462 -1469 0
-2549 -1353 -1303 0
-2549 -1353 -1311 0
-2549 -1353 -1319 0
-2549 -1353 -1362 0
-2549 -1353 -1370 0
-2549 -1353 -1378 0
-2549 -1353 -1420 0
-2549 -1353 -1428 0
-2549 -1353 -1436 0
-2549 -1354 0
-2550 1470 0
-2550 1720 0
-2550 -1345 0
-2550 -1349 0
-2550 -1350 0
-2550 -1351 1724 0
-2550 -1351 -1463 -1467 0
-2550 -1351 -1307 0
-2550 -1351 -1315 0
-2550 -1351 -1323 0
-2550 -1351 -1366 0
-2550 -1351 -1374 0
-2550 -1351 -1382 0
-2550 -1351 -1424 0
-2550 -1351 -1432 0
-2550 -1351 -1440 0
-2550 -1352 1725 0
-2550 -1352 -1463 -1468 0
-2550 -1352 -1309 0
-2550 -1352 -1317 0
-2550 -1352 -1325 0
-2550 -1352 -1368 0
-2550 -1352 -1376 0
-2550 -1352 -1384 0
-2550 -1352 -1426 0
-2550 -1352 -1434 0
-2550 -1352 -1442 0
-2550 -1353 1726 0
-2550 -1353 -1463 -1469 0
-2550 -1353 -1311 0
-2550 -1353 -1319 0
-2550 -1353 -1327 0
-2550 -1353 -1370 0
-2550 -1353 -1378 0
-2550 -1353 -1386 0
-2550 -1353 -1428 0
-2550 -1353 -1436 0
-2550 -1353 -1444 0
-2550 -1354 0
-2551 1470 0
-2551 1721 0
-2551 -1345 0
-2551 -1346 0
-2551 -1350 0
-2551 -1351 1724 0
-2551 -1351 -1464 -1467 0
-2551 -1351 -1315 0
-2551 -1351 -1323 0
-2551 -1351 -1331 0
-2551 -1351 -1374 0
-2551 -1351 -1382 0
-2551 -1351 -1390 0
-2551 -1351 -1432 0
-2551 -1351 -1440 0
-2551 -1351 -1448 0
-2551 -1352 1725 0
-2551 -1352 -1464 -1468 0
-2551 -1352 -1317 0
-2551 -1352 -1325 0
-2551 -1352 -1333 0
-2551 -1352 -1376 0
-2551 -1352 -1384 0
-2551 -1352 -1392 0
-2551 -1352 -1434 0
-2551 -1352 -1442 0
-2551 -1352 -1450 0
-2551 -1353 1726 0
-2551 -1353 -1464 -1469 0
-2551 -1353 -1319 0
-2551 -1353 -1327 0
-2551 -1353 -1335 0
-2551 -1353 -1378 0
-2551 -1353 -1386 0
-2551 -1353 -1394 0
-2551 -1353 -1436 0
-2551 -1353 -1444 0
-2551 -1353 -1452 0
-2551 -1354 0
-2552 1470 0
-2552 1722 0
-2552 -1345 0
-2552 -1346 0
-2552 -1347 0
-2552 -1351 1724 0
-2552 -1351 -1465 -1467 0
-2552 -1351 -1323 0
-2552 -1351 -1331 0
-2552 -1351 -1339 0
-2552 -1351 -1382 0
-2552 -1351 -1390 0
-2552 -1351 -1398 0
-2552 -1351 -1440 0
-2552 -1351 -1448 0
-2552 -1351 -1456 0
-2552 -1352 1725 0
-2552 -1352 -1465 -1468 0
-2552 -1352 -1325 0
-2552 -1352 -1333 0
-2552 -1352 -1341 0
-2552 -1352 -1384 0
-2552 -1352 -1392 0
-2552 -1352 -1400 0
-2552 -1352 -1442 0
-2552 -1352 -1450 0
-2552 -1352 -1458 0
-2552 -1353 1726 0
-2552 -1353 -1465 -1469 0
-2552 -1353 -1327 0
-2552 -1353 -1335 0
-2552 -1353 -1343 0
-2552 -1353 -1386 0
-2552 -1353 -1394 0
-2552 -1353 -1402 0
-2552 -1353 -1444 0
-2552 -1353 -1452 0
-2552 -1353 -1460 0
-2552 -1354 0
-2553 1470 0
-2553 1719 0
-2553 -1407 0
-2553 -1408 0
-2553 -1409 1724 0
-2553 -1409 -1462 -1467 0
-2553 -1409 -1299 0
-2553 -1409 -1307 0
-2553 -1409 -1315 0
-2553 -1409 -1358 0
-2553 -1409 -1366 0
-2553 -1409 -1374 0
-2553 -1409 -1416 0
-2553 -1409 -1424 0
-2553 -1409 -1432 0
-2553 -1410 1725 0
-2553 -1410 -1462 -1468 0
-2553 -1410 -1301 0
-2553 -1410 -1309 0
-2553 -1410 -1317 0
-2553 -1410 -1360 0
-2553 -1410 -1368 0
-2553 -1410 -1376 0
-2553 -1410 -1418 0
-2553 -1410 -1426 0
-2553 -1410 -1434 0
-2553 -1411 1726 0
-2553 -1411 -1462 -1469 0
-2553 -1411 -1303 0
-2553 -1411 -1311 0
-2553 -1411 -1319 0
-2553 -1411 -1362 0
-2553 -1411 -1370 0
-2553 -1411 -1378 0
-2553 -1411 -1420 0
-2553 -1411 -1428 0
-2553 -1411 -1436 0
-2553 -1412 0
-2554 1470 0
-2554 1720 0
-2554 -1408 0
-2554 -1409 1724 0
-2554 -1409 -1463 -1467 0
-2554 -1409 -1307 0
-2554 -1409 -1315 0
-2554 -1409 -1323 0
-2554 -1409 -1366 0
-2554 -1409 -1374 0
-2554 -1409 -1382 0
-2554 -1409 -1424 0
-2554 -1409 -1432 0
-2554 -1409 -1440 0
-2554 -1410 1725 0
-2554 -1410 -1463 -1468 0
-2554 -1410 -1309 0
-2554 -1410 -1317 0
-2554 -1410 -1325 0
-2554 -1410 -1368 0
-2554 -1410 -1376 0
-2554 -1410 -1384 0
-2554 -1410 -1426 0
-2554 -1410 -1434 0
-2554 -1410 -1442 0
-2554 -1411 1726 0
-2554 -1411 -1463 -1469 0
-2554 -1411 -1311 0
-2554 -1411 -1319 0
-2554 -1411 -1327 0
-2554 -1411 -1370 0
-2554 -1411 -1378 0
-2554 -1411 -1386 0
-2554 -1411 -1428 0
-2554 -1411 -1436 0
-2554 -1411 -1444 0
-2554 -1412 0
-2555 1470 0
-2555 1721 0
-2555 -1404 0
-2555 -1409 1724 0
-2555 -1409 -1464 -1467 0
-2555 -1409 -1315 0
-2555 -1409 -1323 0
-2555 -1409 -1331 0
-2555 -1409 -1374 0
-2555 -1409 -1382 0
-2555 -1409 -1390 0
-2555 -1409 -1432 0
-2555 -1409 -1440 0
-2555 -1409 -1448 0
-2555 -1410 1725 0
-2555 -1410 -1464 -1468 0
-2555 -1410 -1317 0
-2555 -1410 -1325 0
-2555 -1410 -1333 0
-2555 -1410 -1376 0
-2555 -1410 -1384 0
-2555 -1410 -1392 0
-2555 -1410 -1434 0
-2555 -1410 -1442 0
-2555 -1410 -1450 0
-2555 -1411 1726 0
-2555 -1411 -1464 -1469 0
-2555 -1411 -1319 0
-2555 -1411 -1327 0
-2555 -1411 -1335 0
-2555 -1411 -1378 0
-2555 -1411 -1386 0
-2555 -1411 -1394 0
-2555 -1411 -1436 0
-2555 -1411 -1444 0
-2555 -1411 -1452 0
-2555 -1412 0
-2556 1470 0
-2556 1722 0
-2556 -1404 0
-2556 -1405 0
-2556 -1409 1724 0
-2556 -1409 -1465 -1467 0
-2556 -1409 -1323 0
-2556 -1409 -1331 0
-2556 -1409 -1339 0
-2556 -1409 -1382 0
-2556 -1409 -1390 0
-2556 -1409 -1398 0
-2556 -1409 -1440 0
-2556 -1409 -1448 0
-2556 -1409 -1456 0
-2556 -1410 1725 0
-2556 -1410 -1465 -1468 0
-2556 -1410 -1325 0
-2556 -1410 -1333 0
-2556 -1410 -1341 0
-2556 -1410 -1384 0
-2556 -1410 -1392 0
-2556 -1410 -1400 0
-2556 -1410 -1442 0
-2556 -1410 -1450 0
-2556 -1410 -1458 0
-2556 -1411 1726 0
-2556 -1411 -1465 -1469 0
-2556 -1411 -1327 0
-2556 -1411 -1335 0
-2556 -1411 -1343 0
-2556 -1411 -1386 0
-2556 -1411 -1394 0
-2556 -1411 -1402 0
-2556 -1411 -1444 0
-2556 -1411 -1452 0
-2556 -1411 -1460 0
-2556 -1412 0
-2557 1470 0
-2557 1719 0
-2557 1723 0
-2557 -1462 -1466 0
-2557 -1297 0
-2557 -1305 0
-2557 -1313 0
-2557 -1356 0
-2557 -1364 0
-2557 -1372 0
-2557 -1414 0
-2557 -1422 0
-2557 -1430 0
-2558 1470 0
-2558 1720 0
-2558 1723 0
-2558 -1463 -1466 0
-2558 -1305 0
-2558 -1313 0
-2558 -1321 0
-2558 -1364 0
-2558 -1372 0
-2558 -1380 0
-2558 -1422 0
-2558 -1430 0
-2558 -1438 0
-2559 1470 0
-2559 1721 0
-2559 1723 0
-2559 -1464 -1466 0
-2559 -1313 0
-2559 -1321 0
-2559 -1329 0
-2559 -1372 0
-2559 -1380 0
-2559 -1388 0
-2559 -1430 0
-2559 -1438 0
-2559 -1446 0
-2560 1470 0
-2560 1722 0
-2560 1723 0
-2560 -1465 -1466 0
-2560 -1321 0
-2560 -1329 0
-2560 -1337 0
-2560 -1380 0
-2560 -1388 0
-2560 -1396 0
-2560 -1438 0
-2560 -1446 0
-2560 -1454 0
-1286 1543 2477 2478 2479 2480 2481 2482 2483 2484 2485 2486 2487 2488 2489 2490 2491 2492 2493 2494 2495 2496 2497 2498 2499 2500 0
-1287 1544 2477 2478 2479 2480 2481 2482 2483 2484 2485 2486 2487 2488 2489 2490 2491 2492 2493 2494 2495 2496 2497 2498 2499 2500 0
-1288 1545 2477 2478 2479 2480 2481 2482 2483 2484 2485 2486 2487 2488 2489 2490 2491 2492 2493 2494 2495 2496 2497 2498 2499 2500 0
-1289 1546 2477 2478 2479 2480 2481 2482 2483 2484 2485 2486 2487 2488 2489 2490 2491 2492 2493 2494 2495 2496 2497 2498 2499 2500 0
-1290 1547 2477 2478 2479 2480 2481 2482 2483 2484 2485 2486 2487 2488 2489 2490 2491 2492 2493 2494 2495 2496 2497 2498 2499 2500 0
-1291 1548 2477 2478 2479 2480 2481 2482 2483 2484 2485 2486 2487 2488 2489 2490 2491 2492 2493 2494 2495 2496 2497 2498 2499 2500 0
-1292 1549 2477 2478 2479 2480 2481 2482 2483 2484 2485 2486 2487 2488 2489 2490 2491 2492 2493 2494 2495 2496 2497 2498 2499 2500 0
-1293 1550 2477 2478 2479 2480 2481 2482 2483 2484 2485 2486 2487 2488 2489 2490 2491 2492 2493 2494 2495 2496 2497 2498 2499 2500 0
-1294 1551 2477 2478 2479 2480 2481 2482 2483 2484 2485 2486 2487 2488 2489 2490 2491 2492 2493 2494 2495 2496 2497 2498 2499 2500 0
-1295 1552 2477 2478 2479 2480 2481 2482 2483 2484 2485 2486 2487 2488 2489 2490 2491 2492 2493 2494 2495 2496 2497 2498 2499 2500 0
-1345 1602 2501 2502 2503 2504 2505 2506 2507 2508 2509 2510 2511 2512 2513 2514 2515 2516 2517 2518 2519 2520 2521 2522 2523 2524 0
-1346 1603 2501 2502 2503 2504 2505 2506 2507 2508 2509 2510 2511 2512 2513 2514 2515 2516 2517 2518 2519 2520 2521 2522 2523 2524 0
-1347 1604 2501 2502 2503 2504 2505 2506 2507 2508 2509 2510 2511 2512 2513 2514 2515 2516 2517 2518 2519 2520 2521 2522 2523 2524 0
-1348 1605 2501 2502 2503 2504 2505 2506 2507 2508 2509 2510 2511 2512 2513 2514 2515 2516 2517 2518 2519 2520 2521 2522 2523 2524 0
-1349 1606 2501 2502 2503 2504 2505 2506 2507 2508 2509 2510 2511 2512 2513 2514 2515 2516 2517 2518 2519 2520 2521 2522 2523 2524 0
-1350 1607 2501 2502 2503 2504 2505 2506 2507 2508 2509 2510 2511 2512 2513 2514 2515 2516 2517 2518 2519 2520 2521 2522 2523 2524 0
-1351 1608 2501 2502 2503 2504 2505 2506 2507 2508 2509 2510 2511 2512 2513 2514 2515 2516 2517 2518 2519 2520 2521 2522 2523 2524 0
-1352 1609 2501 2502 2503 2504 2505 2506 2507 2508 2509 2510 2511 2512 2513 2514 2515 2516 2517 2518 2519 2520 2521 2522 2523 2524 0
-1353 1610 2501 2502 2503 2504 2505 2506 2507 2508 2509 2510 2511 2512 2513 2514 2515 2516 2517 2518 2519 2520 2521 2522 2523 2524 0
-1354 1611 2501 2502 2503 2504 2505 2506 2507 2508 2509 2510 2511 2512 2513 2514 2515 2516 2517 2518 2519 2520 2521 2522 2523 2524 0
-1404 1661 2525 2526 2527 2528 2529 2530 2531 2532 2533 2534 2535 2536 2537 2538 2539 2540 2541 2542 2543 2544 0
-1405 1662 2525 2526 2527 2528 2529 2530 2531 2532 2533 2534 2535 2536 2537 2538 2539 2540 2541 2542 2543 2544 0
-1406 1663 2525 2526 2527 2528 2529 2530 2531 2532 2533 2534 2535 2536 2537 2538 2539 2540 2541 2542 2543 2544 0
-1407 1664 2525 2526 2527 2528 2529 2530 2531 2532 2533 2534 2535 2536 2537 2538 2539 2540 2541 2542 2543 2544 0
-1408 1665 2525 2526 2527 2528 2529 2530 2531 2532 2533 2534 2535 2536 2537 2538 2539 2540 2541 2542 2543 2544 0
-1409 1666 2525 2526 2527 2528 2529 2530 2531 2532 2533 2534 2535 2536 2537 2538 2539 2540 2541 2542 2543 2544 0
-1410 1667 2525 2526 2527 2528 2529 2530 2531 2532 2533 2534 2535 2536 2537 2538 2539 2540 2541 2542 2543 2544 0
-1411 1668 2525 2526 2527 2528 2529 2530 2531 2532 2533 2534 2535 2536 2537 2538 2539 2540 2541 2542 2543 2544 0
-1412 1669 2525 2526 2527 2528 2529 2530 2531 2532 2533 2534 2535 2536 2537 2538 2539 2540 2541 2542 2543 2544 0
-1462 1719 2545 2546 2547 2548 2549 2550 2551 2552 2553 2554 2555 2556 2557 2558 2559 2560 0
-1463 1720 2545 2546 2547 2548 2549 2550 2551 2552 2553 2554 2555 2556 2557 2558 2559 2560 0
-1464 1721 2545 2546 2547 2548 2549 2550 2551 2552 2553 2554 2555 2556 2557 2558 2559 2560 0
-1465 1722 2545 2546 2547 2548 2549 2550 2551 2552 2553 2554 2555 2556 2557 2558 2559 2560 0
-1466 1723 2545 2546 2547 2548 2549 2550 2551 2552 2553 2554 2555 2556 2557 2558 2559 2560 0
-1467 1724 2545 2546 2547 2548 2549 2550 2551 2552 2553 2554 2555 2556 2557 2558 2559 2560 0
-1468 1725 2545 2546 2547 2548 2549 2550 2551 2552 2553 2554 2555 2556 2557 2558 2559 2560 0
-1469 1726 2545 2546 2547 2548 2549 2550 2551 2552 2553 2554 2555 2556 2557 2558 2559 2560 0
-2561 -2562 0
-2561 -2563 0
-2561 -2564 0
-2561 -2565 0
-2561 -2566 0
-2561 -2567 0
-2561 -2568 0
-2561 -2569 0
-2561 -2570 0
-2561 -2571 0
-2561 -2572 0
-2561 -2573 0
-2561 -2574 0
-2561 -2575 0
-2561 -2576 0
-2561 -2577 0
-2561 -2578 0
-2561 -2579 0
-2561 -2580 0
-2561 -2581 0
-2561 -2582 0
-2561 -2583 0
-2561 -2584 0
-2561 -2585 0
-2561 -2586 0
-2561 -2587 0
-2561 -2588 0
-2561 -2589 0
-2561 -2590 0
-2561 -2591 0
-2561 -2592 0
-2561 -2593 0
-2561 -2594 0
-2561 -2595 0
-2561 -2596 0
-2561 -2597 0
-2561 -2598 0
-2561 -2599 0
-2561 -2600 0
-2561 -2601 0
-2561 -2602 0
-2561 -2603 0
-2561 -2604 0
-2561 -2605 0
-2561 -2606 0
-2561 -2607 0
-2561 -2608 0
-2561 -2609 0
-2561 -2610 0
-2561 -2611 0
-2561 -2612 0
-2561 -2613 0
-2561 -2614 0
-2561 -2615 0
-2561 -2616 0
-2561 -2617 0
-2561 -2618 0
-2561 -2619 0
-2561 -2620 0
-2561 -2621 0
-2561 -2622 0
-2561 -2623 0
-2561 -2624 0
-2561 -2625 0
-2561 -2626 0
-2561 -2627 0
-2561 -2628 0
-2561 -2629 0
-2561 -2630 0
-2561 -2631 0
-2561 -2632 0
-2561 -2633 0
-2561 -2634 0
-2561 -2635 0
-2561 -2636 0
-2561 -2637 0
-2561 -2638 0
-2561 -2639 0
-2561 -2640 0
-2561 -2641 0
-2561 -2642 0
-2561 -2643 0
-2561 -2644 0
-2562 -2563 0
-2562 -2564 0
-2562 -2565 0
-2562 -2566 0
-2562 -2567 0
-2562 -2568 0
-2562 -2569 0
-2562 -2570 0
-2562 -2571 0
-2562 -2572 0
-2562 -2573 0
-2562 -2574 0
-2562 -2575 0
-2562 -2576 0
-2562 -2577 0
-2562 -2578 0
-2562 -2579 0
-2562 -2580 0
-2562 -2581 0
-2562 -2582 0
-2562 -2583 0
-2562 -2584 0
-2562 -2585 0
-2562 -2586 0
-2562 -2587 0
-2562 -2588 0
-2562 -2589 0
-2562 -2590 0
-2562 -2591 0
-2562 -2592 0
-2562 -2593 0
-2562 -2594 0
-2562 -2595 0
-2562 -2596 0
-2562 -2597 0
-2562 -2598 0
-2562 -2599 0
-2562 -2600 0
-2562 -2601 0
-2562 -2602 0
-2562 -2603 0
-2562 -2604 0
-2562 -2605 0
-2562 -2606 0
-2562 -2607 0
-2562 -2608 0
-2562 -2609 0
-2562 -2610 0
-2562 -2611 0
-2562 -2612 0
-2562 -2613 0
-2562 -2614 0
-2562 -2615 0
-2562 -2616 0
-2562 -2617 0
-2562 -2618 0
-2562 -2619 0
-2562 -2620 0
-2562 -2621 0
-2562 -2622 0
-2562 -2623 0
-2562 -2624 0
-2562 -2625 0
-2562 -2626 0
-2562 -2627 0
-2562 -2628 0
-2562 -2629 0
-2562 -2630 0
-2562 -2631 0
-2562 -2632 0
-2562 -2633 0
-2562 -2634 0
-2562 -2635 0
-2562 -2636 0
-2562 -2637 0
-2562 -2638 0
-2562 -2639 0
-2562 -2640 0
-2562 -2641 0
-2562 -2642 0
-2562 -2643 0
-2562 -2644 0
-2563 -2564 0
-2563 -2565 0
-2563 -2566 0
-2563 -2567 0
-2563 -2568 0
-2563 -2569 0
-2563 -2570 0
-2563 -2571 0
-2563 -2572 0
-2563 -2573 0
-2563 -2574 0
-2563 -2575 0
-2563 -2576 0
-2563 -2577 0
-2563 -2578 0
-2563 -2579 0
-2563 -2580 0
-2563 -2581 0
-2563 -2582 0
-2563 -2583 0
-2563 -2584 0
-2563 -2585 0
-2563 -2586 0
-2563 -2587 0
-2563 -2588 0
-2563 -2589 0
-2563 -2590 0
-2563 -2591 0
-2563 -2592 0
-2563 -2593 0
-2563 -2594 0
-2563 -2595 0
-2563 -2596 0
-2563 -2597 0
-2563 -2598 0
-2563 -2599 0
-2563 -2600 0
-2563 -2601 0
-2563 -2602 0
-2563 -2603 0
-2563 -2604 0
-2563 -2605 0
-2563 -2606 0
-2563 -2607 0
-2563 -2608 0
-2563 -2609 0
-2563 -2610 0
-2563 -2611 0
-2563 -2612 0
-2563 -2613 0
-2563 -2614 0
-2563 -2615 0
-2563 -2616 0
-2563 -2617 0
-2563 -2618 0
-2563 -2619 0
-2563 -2620 0
-2563 -2621 0
-2563 -2622 0
-2563 -2623 0
-2563 -2624 0
-2563 -2625 0
-2563 -2626 0
-2563 -2627 0
-2563 -2628 0
-2563 -2629 0
-2563 -2630 0
-2563 -2631 0
-2563 -2632 0
-2563 -2633 0
-2563 -2634 0
-2563 -2635 0
-2563 -2636 0
-2563 -2637 0
-2563 -2638 0
-2563 -2639 0
-2563 -2640 0
-2563 -2641 0
-2563 -2642 0
-2563 -2643 0
-2563 -2644 0
-2564 -2565 0
-2564 -2566 0
-2564 -2567 0
-2564 -2568 0
-2564 -2569 0
-2564 -2570 0
-2564 -2571 0
-2564 -2572 0
-2564 -2573 0
-2564 -2574 0
-2564 -2575 0
-2564 -2576 0
-2564 -2577 0
-2564 -2578 0
-2564 -2579 0
-2564 -2580 0
-2564 -2581 0
-2564 -2582 0
-2564 -2583 0
-2564 -2584 0
-2564 -2585 0
-2564 -2586 0
-2564 -2587 0
-2564 -2588 0
-2564 -2589 0
-2564 -2590 0
-2564 -2591 0
-2564 -2592 0
-2564 -2593 0
-2564 -2594 0
-2564 -2595 0
-2564 -2596 0
-2564 -2597 0
-2564 -2598 0
-2564 -2599 0
-2564 -2600 0
-2564 -2601 0
-2564 -2602 0
-2564 -2603 0
-2564 -2604 0
-2564 -2605 0
-2564 -2606 0
-2564 -2607 0
-2564 -2608 0
-2564 -2609 0
-2564 -2610 0
-2564 -2611 0
-2564 -2612 0
-2564 -2613 0
-2564 -2614 0
-2564 -2615 0
-2564 -2616 0
-2564 -2617 0
-2564 -2618 0
-2564 -2619 0
-2564 -2620 0
-2564 -2621 0
-2564 -2622 0
-2564 -2623 0
-2564 -2624 0
-2564 -2625 0
-2564 -2626 0
-2564 -2627 0
-2564 -2628 0
-2564 -2629 0
-2564 -2630 0
-2564 -2631 0
-2564 -2632 0
-2564 -2633 0
-2564 -2634 0
-2564 -2635 0
-2564 -2636 0
-2564 -2637 0
-2564 -2638 0
-2564 -2639 0
-2564 -2640 0
-2564 -2641 0
-2564 -2642 0
-2564 -2643 0
-2564 -2644 0
-2565 -2566 0
-2565 -2567 0
-2565 -2568 0
-2565 -2569 0
-2565 -2570 0
-2565 -2571 0
-2565 -2572 0
-2565 -2573 0
-2565 -2574 0
-2565 -2575 0
-2565 -2576 0
-2565 -2577 0
-2565 -2578 0
-2565 -2579 0
-2565 -2580 0
-2565 -2581 0
-2565 -2582 0
-2565 -2583 0
-2565 -2584 0
-2565 -2585 0
-2565 -2586 0
-2565 -2587 0
-2565 -2588 0
-2565 -2589 0
-2565 -2590 0
-2565 -2591 0
-2565 -2592 0
-2565 -2593 0
-2565 -2594 0
-2565 -2595 0
-2565 -2596 0
-2565 -2597 0
-2565 -2598 0
-2565 -2599 0
-2565 -2600 0
-2565 -2601 0
-2565 -2602 0
-2565 -2603 0
-2565 -2604 0
-2565 -2605 0
-2565 -2606 0
-2565 -2607 0
-2565 -2608 0
-2565 -2609 0
-2565 -2610 0
-2565 -2611 0
-2565 -2612 0
-2565 -2613 0
-2565 -2614 0
-2565 -2615 0
-2565 -2616 0
-2565 -2617 0
-2565 -2618 0
-2565 -2619 0
-2565 -2620 0
-2565 -2621 0
-2565 -2622 0
-2565 -2623 0
-2565 -2624 0
-2565 -2625 0
-2565 -2626 0
-2565 -2627 0
-2565 -2628 0
-2565 -2629 0
-2565 -2630 0
-2565 -2631 0
-2565 -2632 0
-2565 -2633 0
-2565 -2634 0
-2565 -2635 0
-2565 -2636 0
-2565 -2637 0
-2565 -2638 0
-2565 -2639 0
-2565 -2640 0
-2565 -2641 0
-2565 -2642 0
-2565 -2643 0
-2565 -2644 0
-2566 -2567 0
-2566 -2568 0
-2566 -2569 0
-2566 -2570 0
-2566 -2571 0
-2566 -2572 0
-2566 -2573 0
-2566 -2574 0
-2566 -2575 0
-2566 -2576 0
-2566 -2577 0
-2566 -2578 0
-2566 -2579 0
-2566 -2580 0
-2566 -2581 0
-2566 -2582 0
-2566 -2583 0
-2566 -2584 0
-2566 -2585 0
-2566 -2586 0
-2566 -2587 0
-2566 -2588 0
-2566 -2589 0
-2566 -2590 0
-2566 -2591 0
-2566 -2592 0
-2566 -2593 0
-2566 -2594 0
-2566 -2595 0
-2566 -2596 0
-2566 -2597 0
-2566 -2598 0
-2566 -2599 0
-2566 -2600 0
-2566 -2601 0
-2566 -2602 0
-2566 -2603 0
-2566 -2604 0
-2566 -2605 0
-2566 -2606 0
-2566 -2607 0
-2566 -2608 0
-2566 -2609 0
-2566 -2610 0
-2566 -2611 0
-2566 -2612 0
-2566 -2613 0
-2566 -2614 0
-2566 -2615 0
-2566 -2616 0
-2566 -2617 0
-2566 -2618 0
-2566 -2619 0
-2566 -2620 0
-2566 -2621 0
-2566 -2622 0
-2566 -2623 0
-2566 -2624 0
-2566 -2625 0
-2566 -2626 0
-2566 -2627 0
-2566 -2628 0
-2566 -2629 0
-2566 -2630 0
-2566 -2631 0
-2566 -2632 0
-2566 -2633 0
-2566 -2634 0
-2566 -2635 0
-2566 -2636 0
-2566 -2637 0
-2566 -2638 0
-2566 -2639 0
-2566 -2640 0
-2566 -2641 0
-2566 -2642 0
-2566 -2643 0
-2566 -2644 0
-2567 -2568 0
-2567 -2569 0
-2567 -2570 0
-2567 -2571 0
-2567 -2572 0
-2567 -2573 0
-2567 -2574 0
-2567 -2575 0
-2567 -2576 0
-2567 -2577 0
-2567 -2578 0
-2567 -2579 0
-2567 -2580 0
-2567 -2581 0
-2567 -2582 0
-2567 -2583 0
-2567 -2584 0
-2567 -2585 0
-2567 -2586 0
-2567 -2587 0
-2567 -2588 0
-2567 -2589 0
-2567 -2590 0
-2567 -2591 0
-2567 -2592 0
-2567 -2593 0
-2567 -2594 0
-2567 -2595 0
-2567 -2596 0
-2567 -2597 0
-2567 -2598 0
-2567 -2599 0
-2567 -2600 0
-2567 -2601 0
-2567 -2602 0
-2567 -2603 0
-2567 -2604 0
-2567 -2605 0
-2567 -2606 0
-2567 -2607 0
-2567 -2608 0
-2567 -2609 0
-2567 -2610 0
-2567 -2611 0
-2567 -2612 0
-2567 -2613 0
-2567 -2614 0
-2567 -2615 0
-2567 -2616 0
-2567 -2617 0
-2567 -2618 0
-2567 -2619 0
-2567 -2620 0
-2567 -2621 0
-2567 -2622 0
-2567 -2623 0
-2567 -2624 0
-2567 -2625 0
-2567 -2626 0
-2567 -2627 0
-2567 -2628 0
-2567 -2629 0
-2567 -2630 0
-2567 -2631 0
-2567 -2632 0
-2567 -2633 0
-2567 -2634 0
-2567 -2635 0
-2567 -2636 0
-2567 -2637 0
-2567 -2638 0
-2567 -2639 0
-2567 -2640 0
-2567 -2641 0
-2567 -2642 0
-2567 -2643 0
-2567 -2644 0
-2568 -2569 0
-2568 -2570 0
-2568 -2571 0
-2568 -2572 0
-2568 -2573 0
-2568 -2574 0
-2568 -2575 0
-2568 -2576 0
-2568 -2577 0
-2568 -2578 0
-2568 -2579 0
-2568 -2580 0
-2568 -2581 0
-2568 -2582 0
-2568 -2583 0
-2568 -2584 0
-2568 -2585 0
-2568 -2586 0
-2568 -2587 0
-2568 -2588 0
-2568 -2589 0
-2568 -2590 0
-2568 -2591 0
-2568 -2592 0
-2568 -2593 0
-2568 -2594 0
-2568 -2595 0
-2568 -2596 0
-2568 -2597 0
-2568 -2598 0
-2568 -2599 0
-2568 -2600 0
-2568 -2601 0
-2568 -2602 0
-2568 -2603 0
-2568 -2604 0
-2568 -2605 0
-2568 -2606 0
-2568 -2607 0
-2568 -2608 0
-2568 -2609 0
-2568 -2610 0
-2568 -2611 0
-2568 -2612 0
-2568 -2613 0
-2568 -2614 0
-2568 -2615 0
-2568 -2616 0
-2568 -2617 0
-2568 -2618 0
-2568 -2619 0
-2568 -2620 0
-2568 -2621 0
-2568 -2622 0
-2568 -2623 0
-2568 -2624 0
-2568 -2625 0
-2568 -2626 0
-2568 -2627 0
-2568 -2628 0
-2568 -2629 0
-2568 -2630 0
-2568 -2631 0
-2568 -2632 0
-2568 -2633 0
-2568 -2634 0
-2568 -2635 0
-2568 -2636 0
-2568 -2637 0
-2568 -2638 0
-2568 -2639 0
-2568 -2640 0
-2568 -2641 0
-2568 -2642 0
-2568 -2643 0
-2568 -2644 0
-2569 -2570 0
-2569 -2571 0
-2569 -2572 0
-2569 -2573 0
-2569 -2574 0
-2569 -2575 0
-2569 -2576 0
-2569 -2577 0
-2569 -2578 0
-2569 -2579 0
-2569 -2580 0
-2569 -2581 0
-2569 -2582 0
-2569 -2583 0
-2569 -2584 0
-2569 -2585 0
-2569 -2586 0
-2569 -2587 0
-2569 -2588 0
-2569 -2589 0
-2569 -2590 0
-2569 -2591 0
-2569 -2592 0
-2569 -2593 0
-2569 -2594 0
-2569 -2595 0
-2569 -2596 0
-2569 -2597 0
-2569 -2598 0
-2569 -2599 0
-2569 -2600 0
-2569 -2601 0
-2569 -2602 0
-2569 -2603 0
-2569 -2604 0
-2569 -2605 0
-2569 -2606 0
-2569 -2607 0
-2569 -2608 0
-2569 -2609 0
-2569 -2610 0
-2569 -2611 0
-2569 -2612 0
-2569 -2613 0
-2569 -2614 0
-2569 -2615 0
-2569 -2616 0
-2569 -2617 0
-2569 -2618 0
-2569 -2619 0
-2569 -2620 0
-2569 -2621 0
-2569 -2622 0
-2569 -2623 0
-2569 -2624 0
-2569 -2625 0
-2569 -2626 0
-2569 -2627 0
-2569 -2628 0
-2569 -2629 0
-2569 -2630 0
-2569 -2631 0
-2569 -2632 0
-2569 -2633 0
-2569 -2634 0
-2569 -2635 0
-2569 -2636 0
-2569 -2637 0
-2569 -2638 0
-2569 -2639 0
-2569 -2640 0
-2569 -2641 0
-2569 -2642 0
-2569 -2643 0
-2569 -2644 0
-2570 -2571 0
-2570 -2572 0
-2570 -2573 0
-2570 -2574 0
-2570 -2575 0
-2570 -2576 0
-2570 -2577 0
-2570 -2578 0
-2570 -2579 0
-2570 -2580 0
-2570 -2581 0
-2570 -2582 0
-2570 -2583 0
-2570 -2584 0
-2570 -2585 0
-2570 -2586 0
-2570 -2587 0
-2570 -2588 0
-2570 -2589 0
-2570 -2590 0
-2570 -2591 0
-2570 -2592 0
-2570 -2593 0
-2570 -2594 0
-2570 -2595 0
-2570 -2596 0
-2570 -2597 0
-2570 -2598 0
-2570 -2599 0
-2570 -2600 0
-2570 -2601 0
-2570 -2602 0
-2570 -2603 0
-2570 -2604 0
-2570 -2605 0
-2570 -2606 0
-2570 -2607 0
-2570 -2608 0
-2570 -2609 0
-2570 -2610 0
-2570 -2611 0
-2570 -2612 0
-2570 -2613 0
-2570 -2614 0
-2570 -2615 0
-2570 -2616 0
-2570 -2617 0
-2570 -2618 0
-2570 -2619 0
-2570 -2620 0
-2570 -2621 0
-2570 -2622 0
-2570 -2623 0
-2570 -2624 0
-2570 -2625 0
-2570 -2626 0
-2570 -2627 0
-2570 -2628 0
-2570 -2629 0
-2570 -2630 0
-2570 -2631 0
-2570 -2632 0
-2570 -2633 0
-2570 -2634 0
-2570 -2635 0
-2570 -2636 0
-2570 -2637 0
-2570 -2638 0
-2570 -2639 0
-2570 -2640 0
-2570 -2641 0
-2570 -2642 0
-2570 -2643 0
-2570 -2644 0
-2571 -2572 0
-2571 -2573 0
-2571 -2574 0
-2571 -2575 0
-2571 -2576 0
-2571 -2577 0
-2571 -2578 0
-2571 -2579 0
-2571 -2580 0
-2571 -2581 0
-2571 -2582 0
-2571 -2583 0
-2571 -2584 0
-2571 -2585 0
-2571 -2586 0
-2571 -2587 0
-2571 -2588 0
-2571 -2589 0
-2571 -2590 0
-2571 -2591 0
-2571 -2592 0
-2571 -2593 0
-2571 -2594 0
-2571 -2595 0
-2571 -2596 0
-2571 -2597 0
-2571 -2598 0
-2571 -2599 0
-2571 -2600 0
-2571 -2601 0
-2571 -2602 0
-2571 -2603 0
-2571 -2604 0
-2571 -2605 0
-2571 -2606 0
-2571 -2607 0
-2571 -2608 0
-2571 -2609 0
-2571 -2610 0
-2571 -2611 0
-2571 -2612 0
-2571 -2613 0
-2571 -2614 0
-2571 -2615 0
-2571 -2616 0
-2571 -2617 0
-2571 -2618 0
-2571 -2619 0
-2571 -2620 0
-2571 -2621 0
-2571 -2622 0
-2571 -2623 0
-2571 -2624 0
-2571 -2625 0
-2571 -2626 0
-2571 -2627 0
-2571 -2628 0
-2571 -2629 0
-2571 -2630 0
-2571 -2631 0
-2571 -2632 0
-2571 -2633 0
-2571 -2634 0
-2571 -2635 0
-2571 -2636 0
-2571 -2637 0
-2571 -2638 0
-2571 -2639 0
-2571 -2640 0
-2571 -2641 0
-2571 -2642 0
-2571 -2643 0
-2571 -2644 0
-2572 -2573 0
-2572 -2574 0
-2572 -2575 0
-2572 -2576 0
-2572 -2577 0
-2572 -2578 0
-2572 -2579 0
-2572 -2580 0
-2572 -2581 0
-2572 -2582 0
-2572 -2583 0
-2572 -2584 0
-2572 -2585 0
-2572 -2586 0
-2572 -2587 0
-2572 -2588 0
-2572 -2589 0
-2572 -2590 0
-2572 -2591 0
-2572 -2592 0
-2572 -2593 0
-2572 -2594 0
-2572 -2595 0
-2572 -2596 0
-2572 -2597 0
-2572 -2598 0
-2572 -2599 0
-2572 -2600 0
-2572 -2601 0
-2572 -2602 0
-2572 -2603 0
-2572 -2604 0
-2572 -2605 0
-2572 -2606 0
-2572 -2607 0
-2572 -2608 0
-2572 -2609 0
-2572 -2610 0
-2572 -2611 0
-2572 -2612 0
-2572 -2613 0
-2572 -2614 0
-2572 -2615 0
-2572 -2616 0
-2572 -2617 0
-2572 -2618 0
-2572 -2619 0
-2572 -2620 0
-2572 -2621 0
-2572 -2622 0
-2572 -2623 0
-2572 -2624 0
-2572 -2625 0
-2572 -2626 0
-2572 -2627 0
-2572 -2628 0
-2572 -2629 0
-2572 -2630 0
-2572 -2631 0
-2572 -2632 0
-2572 -2633 0
-2572 -2634 0
-2572 -2635 0
-2572 -2636 0
-2572 -2637 0
-2572 -2638 0
-2572 -2639 0
-2572 -2640 0
-2572 -2641 0
-2572 -2642 0
-2572 -2643 0
-2572 -2644 0
-2573 -2574 0
-2573 -2575 0
-2573 -2576 0
-2573 -2577 0
-2573 -2578 0
-2573 -2579 0
-2573 -2580 0
-2573 -2581 0
-2573 -2582 0
-2573 -2583 0
-2573 -2584 0
-2573 -2585 0
-2573 -2586 0
-2573 -2587 0
-2573 -2588 0
-2573 -2589 0
-2573 -2590 0
-2573 -2591 0
-2573 -2592 0
-2573 -2593 0
-2573 -2594 0
-2573 -2595 0
-2573 -2596 0
-2573 -2597 0
-2573 -2598 0
-2573 -2599 0
-2573 -2600 0
-2573 -2601 0
-2573 -2602 0
-2573 -2603 0
-2573 -2604 0
-2573 -2605 0
-2573 -2606 0
-2573 -2607 0
-2573 -2608 0
-2573 -2609 0
-2573 -2610 0
-2573 -2611 0
-2573 -2612 0
-2573 -2613 0
-2573 -2614 0
-2573 -2615 0
-2573 -2616 0
-2573 -2617 0
-2573 -2618 0
-2573 -2619 0
-2573 -2620 0
-2573 -2621 0
-2573 -2622 0
-2573 -2623 0
-2573 -2624 0
-2573 -2625 0
-2573 -2626 0
-2573 -2627 0
-2573 -2628 0
-2573 -2629 0
-2573 -2630 0
-2573 -2631 0
-2573 -2632 0
-2573 -2633 0
-2573 -2634 0
-2573 -2635 0
-2573 -2636 0
-2573 -2637 0
-2573 -2638 0
-2573 -2639 0
-2573 -2640 0
-2573 -2641 0
-2573 -2642 0
-2573 -2643 0
-2573 -2644 0
-2574 -2575 0
-2574 -2576 0
-2574 -2577 0
-2574 -2578 0
-2574 -2579 0
-2574 -2580 0
-2574 -2581 0
-2574 -2582 0
-2574 -2583 0
-2574 -2584 0
-2574 -2585 0
-2574 -2586 0
-2574 -2587 0
-2574 -2588 0
-2574 -2589 0
-2574 -2590 0
-2574 -2591 0
-2574 -2592 0
-2574 -2593 0
-2574 -2594 0
-2574 -2595 0
-2574 -2596 0
-2574 -2597 0
-2574 -2598 0
-2574 -2599 0
-2574 -2600 0
-2574 -2601 0
-2574 -2602 0
-2574 -2603 0
-2574 -2604 0
-2574 -2605 0
-2574 -2606 0
-2574 -2607 0
-2574 -2608 0
-2574 -2609 0
-2574 -2610 0
-2574 -2611 0
-2574 -2612 0
-2574 -2613 0
-2574 -2614 0
-2574 -2615 0
-2574 -2616 0
-2574 -2617 0
-2574 -2618 0
-2574 -2619 0
-2574 -2620 0
-2574 -2621 0
-2574 -2622 0
-2574 -2623 0
-2574 -2624 0
-2574 -2625 0
-2574 -2626 0
-2574 -2627 0
-2574 -2628 0
-2574 -2629 0
-2574 -2630 0
-2574 -2631 0
-2574 -2632 0
-2574 -2633 0
-2574 -2634 0
-2574 -2635 0
-2574 -2636 0
-2574 -2637 0
-2574 -2638 0
-2574 -2639 0
-2574 -2640 0
-2574 -2641 0
-2574 -2642 0
-2574 -2643 0
-2574 -2644 0
-2575 -2576 0
-2575 -2577 0
-2575 -2578 0
-2575 -2579 0
-2575 -2580 0
-2575 -2581 0
-2575 -2582 0
-2575 -2583 0
-2575 -2584 0
-2575 -2585 0
-2575 -2586 0
-2575 -2587 0
-2575 -2588 0
-2575 -2589 0
-2575 -2590 0
-2575 -2591 0
-2575 -2592 0
-2575 -2593 0
-2575 -2594 0
-2575 -2595 0
-2575 -2596 0
-2575 -2597 0
-2575 -2598 0
-2575 -2599 0
-2575 -2600 0
-2575 -2601 0
-2575 -2602 0
-2575 -2603 0
-2575 -2604 0
-2575 -2605 0
-2575 -2606 0
-2575 -2607 0
-2575 -2608 0
-2575 -2609 0
-2575 -2610 0
-2575 -2611 0
-2575 -2612 0
-2575 -2613 0
-2575 -2614 0
-2575 -2615 0
-2575 -2616 0
-2575 -2617 0
-2575 -2618 0
-2575 -2619 0
-2575 -2620 0
-2575 -2621 0
-2575 -2622 0
-2575 -2623 0
-2575 -2624 0
-2575 -2625 0
-2575 -2626 0
-2575 -2627 0
-2575 -2628 0
-2575 -2629 0
-2575 -2630 0
-2575 -2631 0
-2575 -2632 0
-2575 -2633 0
-2575 -2634 0
-2575 -2635 0
-2575 -2636 0
-2575 -2637 0
-2575 -2638 0
-2575 -2639 0
-2575 -2640 0
-2575 -2641 0
-2575 -2642 0
-2575 -2643 0
-2575 -2644 0
-2576 -2577 0
-2576 -2578 0
-2576 -2579 0
-2576 -2580 0
-2576 -2581 0
-2576 -2582 0
-2576 -2583 0
-2576 -2584 0
-2576 -2585 0
-2576 -2586 0
-2576 -2587 0
-2576 -2588 0
-2576 -2589 0
-2576 -2590 0
-2576 -2591 0
-2576 -2592 0
-2576 -2593 0
-2576 -2594 0
-2576 -2595 0
-2576 -2596 0
-2576 -2597 0
-2576 -2598 0
-2576 -2599 0
-2576 -2600 0
-2576 -2601 0
-2576 -2602 0
-2576 -2603 0
-2576 -2604 0
-2576 -2605 0
-2576 -2606 0
-2576 -2607 0
-2576 -2608 0
-2576 -2609 0
-2576 -2610 0
-2576 -2611 0
-2576 -2612 0
-2576 -2613 0
-2576 -2614 0
-2576 -2615 0
-2576 -2616 0
-2576 -2617 0
-2576 -2618 0
-2576 -2619 0
-2576 -2620 0
-2576 -2621 0
-2576 -2622 0
-2576 -2623 0
-2576 -2624 0
-2576 -2625 0
-2576 -2626 0
-2576 -2627 0
-2576 -2628 0
-2576 -2629 0
-2576 -2630 0
-2576 -2631 0
-2576 -2632 0
-2576 -2633 0
-2576 -2634 0
-2576 -2635 0
-2576 -2636 0
-2576 -2637 0
-2576 -2638 0
-2576 -2639 0
-2576 -2640 0
-2576 -2641 0
-2576 -2642 0
-2576 -2643 0
-2576 -2644 0
-2577 -2578 0
-2577 -2579 0
-2577 -2580 0
-2577 -2581 0
-2577 -2582 0
-2577 -2583 0
-2577 -2584 0
-2577 -2585 0
-2577 -2586 0
-2577 -2587 0
-2577 -2588 0
-2577 -2589 0
-2577 -2590 0
-2577 -2591 0
-2577 -2592 0
-2577 -2593 0
-2577 -2594 0
-2577 -2595 0
-2577 -2596 0
-2577 -2597 0
-2577 -2598 0
-2577 -2599 0
-2577 -2600 0
-2577 -2601 0
-2577 -2602 0
-2577 -2603 0
-2577 -2604 0
-2577 -2605 0
-2577 -2606 0
-2577 -2607 0
-2577 -2608 0
-2577 -2609 0
-2577 -2610 0
-2577 -2611 0
-2577 -2612 0
-2577 -2613 0
-2577 -2614 0
-2577 -2615 0
-2577 -2616 0
-2577 -2617 0
-2577 -2618 0
-2577 -2619 0
-2577 -2620 0
-2577 -2621 0
-2577 -2622 0
-2577 -2623 0
-2577 -2624 0
-2577 -2625 0
-2577 -2626 0
-2577 -2627 0
-2577 -2628 0
-2577 -2629 0
-2577 -2630 0
-2577 -2631 0
-2577 -2632 0
-2577 -2633 0
-2577 -2634 0
-2577 -2635 0
-2577 -2636 0
-2577 -2637 0
-2577 -2638 0
-2577 -2639 0
-2577 -2640 0
-2577 -2641 0
-2577 -2642 0
-2577 -2643 0
-2577 -2644 0
-2578 -2579 0
-2578 -2580 0
-2578 -2581 0
-2578 -2582 0
-2578 -2583 0
-2578 -2584 0
-2578 -2585 0
-2578 -2586 0
-2578 -2587 0
-2578 -2588 0
-2578 -2589 0
-2578 -2590 0
-2578 -2591 0
-2578 -2592 0
-2578 -2593 0
-2578 -2594 0
-2578 -2595 0
-2578 -2596 0
-2578 -2597 0
-2578 -2598 0
-2578 -2599 0
-2578 -2600 0
-2578 -2601 0
-2578 -2602 0
-2578 -2603 0
-2578 -2604 0
-2578 -2605 0
-2578 -2606 0
-2578 -2607 0
-2578 -2608 0
-2578 -2609 0
-2578 -2610 0
-2578 -2611 0
-2578 -2612 0
-2578 -2613 0
-2578 -2614 0
-2578 -2615 0
-2578 -2616 0
-2578 -2617 0
-2578 -2618 0
-2578 -2619 0
-2578 -2620 0
-2578 -2621 0
-2578 -2622 0
-2578 -2623 0
-2578 -2624 0
-2578 -2625 0
-2578 -2626 0
-2578 -2627 0
-2578 -2628 0
-2578 -2629 0
-2578 -2630 0
-2578 -2631 0
-2578 -2632 0
-2578 -2633 0
-2578 -2634 0
-2578 -2635 0
-2578 -2636 0
-2578 -2637 0
-2578 -2638 0
-2578 -2639 0
-2578 -2640 0
-2578 -2641 0
-2578 -2642 0
-2578 -2643 0
-2578 -2644 0
-2579 -2580 0
-2579 -2581 0
-2579 -2582 0
-2579 -2583 0
-2579 -2584 0
-2579 -2585 0
-2579 -2586 0
-2579 -2587 0
-2579 -2588 0
-2579 -2589 0
-2579 -2590 0
-2579 -2591 0
-2579 -2592 0
-2579 -2593 0
-2579 -2594 0
-2579 -2595 0
-2579 -2596 0
-2579 -2597 0
-2579 -2598 0
-2579 -2599 0
-2579 -2600 0
-2579 -2601 0
-2579 -2602 0
-2579 -2603 0
-2579 -2604 0
-2579 -2605 0
-2579 -2606 0
-2579 -2607 0
-2579 -2608 0
-2579 -2609 0
-2579 -2610 0
-2579 -2611 0
-2579 -2612 0
-2579 -2613 0
-2579 -2614 0
-2579 -2615 0
-2579 -2616 0
-2579 -2617 0
-2579 -2618 0
-2579 -2619 0
-2579 -2620 0
-2579 -2621 0
-2579 -2622 0
-2579 -2623 0
-2579 -2624 0
-2579 -2625 0
-2579 -2626 0
-2579 -2627 0
-2579 -2628 0
-2579 -2629 0
-2579 -2630 0
-2579 -2631 0
-2579 -2632 0
-2579 -2633 0
-2579 -2634 0
-2579 -2635 0
-2579 -2636 0
-2579 -2637 0
-2579 -2638 0
-2579 -2639 0
-2579 -2640 0
-2579 -2641 0
-2579 -2642 0
-2579 -2643 0
-2579 -2644 0
-2580 -2581 0
-2580 -2582 0
-2580 -2583 0
-2580 -2584 0
-2580 -2585 0
-2580 -2586 0
-2580 -2587 0
-2580 -2588 0
-2580 -2589 0
-2580 -2590 0
-2580 -2591 0
-2580 -2592 0
-2580 -2593 0
-2580 -2594 0
-2580 -2595 0
-2580 -2596 0
-2580 -2597 0
-2580 -2598 0
-2580 -2599 0
-2580 -2600 0
-2580 -2601 0
-2580 -2602 0
-2580 -2603 0
-2580 -2604 0
-2580 -2605 0
-2580 -2606 0
-2580 -2607 0
-2580 -2608 0
-2580 -2609 0
-2580 -2610 0
-2580 -2611 0
-2580 -2612 0
-2580 -2613 0
-2580 -2614 0
-2580 -2615 0
-2580 -2616 0
-2580 -2617 0
-2580 -2618 0
-2580 -2619 0
-2580 -2620 0
-2580 -2621 0
-2580 -2622 0
-2580 -2623 0
-2580 -2624 0
-2580 -2625 0
-2580 -2626 0
-2580 -2627 0
-2580 -2628 0
-2580 -2629 0
-2580 -2630 0
-2580 -2631 0
-2580 -2632 0
-2580 -2633 0
-2580 -2634 0
-2580 -2635 0
-2580 -2636 0
-2580 -2637 0
-2580 -2638 0
-2580 -2639 0
-2580 -2640 0
-2580 -2641 0
-2580 -2642 0
-2580 -2643 0
-2580 -2644 0
-2581 -2582 0
-2581 -2583 0
-2581 -2584 0
-2581 -2585 0
-2581 -2586 0
-2581 -2587 0
-2581 -2588 0
-2581 -2589 0
-2581 -2590 0
-2581 -2591 0
-2581 -2592 0
-2581 -2593 0
-2581 -2594 0
-2581 -2595 0
-2581 -2596 0
-2581 -2597 0
-2581 -2598 0
-2581 -2599 0
-2581 -2600 0
-2581 -2601 0
-2581 -2602 0
-2581 -2603 0
-2581 -2604 0
-2581 -2605 0
-2581 -2606 0
-2581 -2607 0
-2581 -2608 0
-2581 -2609 0
-2581 -2610 0
-2581 -2611 0
-2581 -2612 0
-2581 -2613 0
-2581 -2614 0
-2581 -2615 0
-2581 -2616 0
-2581 -2617 0
-2581 -2618 0
-2581 -2619 0
-2581 -2620 0
-2581 -2621 0
-2581 -2622 0
-2581 -2623 0
-2581 -2624 0
-2581 -2625 0
-2581 -2626 0
-2581 -2627 0
-2581 -2628 0
-2581 -2629 0
-2581 -2630 0
-2581 -2631 0
-2581 -2632 0
-2581 -2633 0
-2581 -2634 0
-2581 -2635 0
-2581 -2636 0
-2581 -2637 0
-2581 -2638 0
-2581 -2639 0
-2581 -2640 0
-2581 -2641 0
-2581 -2642 0
-2581 -2643 0
-2581 -2644 0
-2582 -2583 0
-2582 -2584 0
-2582 -2585 0
-2582 -2586 0
-2582 -2587 0
-2582 -2588 0
-2582 -2589 0
-2582 -2590 0
-2582 -2591 0
-2582 -2592 0
-2582 -2593 0
-2582 -2594 0
-2582 -2595 0
-2582 -2596 0
-2582 -2597 0
-2582 -2598 0
-2582 -2599 0
-2582 -2600 0
-2582 -2601 0
-2582 -2602 0
-2582 -2603 0
-2582 -2604 0
-2582 -2605 0
-2582 -2606 0
-2582 -2607 0
-2582 -2608 0
-2582 -2609 0
-2582 -2610 0
-2582 -2611 0
-2582 -2612 0
-2582 -2613 0
-2582 -2614 0
-2582 -2615 0
-2582 -2616 0
-2582 -2617 0
-2582 -2618 0
-2582 -2619 0
-2582 -2620 0
-2582 -2621 0
-2582 -2622 0
-2582 -2623 0
-2582 -2624 0
-2582 -2625 0
-2582 -2626 0
-2582 -2627 0
-2582 -2628 0
-2582 -2629 0
-2582 -2630 0
-2582 -2631 0
-2582 -2632 0
-2582 -2633 0
-2582 -2634 0
-2582 -2635 0
-2582 -2636 0
-2582 -2637 0
-2582 -2638 0
-2582 -2639 0
-2582 -2640 0
-2582 -2641 0
-2582 -2642 0
-2582 -2643 0
-2582 -2644 0
-2583 -2584 0
-2583 -2585 0
-2583 -2586 0
-2583 -2587 0
-2583 -2588 0
-2583 -2589 0
-2583 -2590 0
-2583 -2591 0
-2583 -2592 0
-2583 -2593 0
-2583 -2594 0
-2583 -2595 0
-2583 -2596 0
-2583 -2597 0
-2583 -2598 0
-2583 -2599 0
-2583 -2600 0
-2583 -2601 0
-2583 -2602 0
-2583 -2603 0
-2583 -2604 0
-2583 -2605 0
-2583 -2606 0
-2583 -2607 0
-2583 -2608 0
-2583 -2609 0
-2583 -2610 0
-2583 -2611 0
-2583 -2612 0
-2583 -2613 0
-2583 -2614 0
-2583 -2615 0
-2583 -2616 0
-2583 -2617 0
-2583 -2618 0
-2583 -2619 0
-2583 -2620 0
-2583 -2621 0
-2583 -2622 0
-2583 -2623 0
-2583 -2624 0
-2583 -2625 0
-2583 -2626 0
-2583 -2627 0
-2583 -2628 0
-2583 -2629 0
-2583 -2630 0
-2583 -2631 0
-2583 -2632 0
-2583 -2633 0
-2583 -2634 0
-2583 -2635 0
-2583 -2636 0
-2583 -2637 0
-2583 -2638 0
-2583 -2639 0
-2583 -2640 0
-2583 -2641 0
-2583 -2642 0
-2583 -2643 0
-2583 -2644 0
-2584 -2585 0
-2584 -2586 0
-2584 -2587 0
-2584 -2588 0
-2584 -2589 0
-2584 -2590 0
-2584 -2591 0
-2584 -2592 0
-2584 -2593 0
-2584 -2594 0
-2584 -2595 0
-2584 -2596 0
-2584 -2597 0
-2584 -2598 0
-2584 -2599 0
-2584 -2600 0
-2584 -2601 0
-2584 -2602 0
-2584 -2603 0
-2584 -2604 0
-2584 -2605 0
-2584 -2606 0
-2584 -2607 0
-2584 -2608 0
-2584 -2609 0
-2584 -2610 0
-2584 -2611 0
-2584 -2612 0
-2584 -2613 0
-2584 -2614 0
-2584 -2615 0
-2584 -2616 0
-2584 -2617 0
-2584 -2618 0
-2584 -2619 0
-2584 -2620 0
-2584 -2621 0
-2584 -2622 0
-2584 -2623 0
-2584 -2624 0
-2584 -2625 0
-2584 -2626 0
-2584 -2627 0
-2584 -2628 0
-2584 -2629 0
-2584 -2630 0
-2584 -2631 0
-2584 -2632 0
-2584 -2633 0
-2584 -2634 0
-2584 -2635 0
-2584 -2636 0
-2584 -2637 0
-2584 -2638 0
-2584 -2639 0
-2584 -2640 0
-2584 -2641 0
-2584 -2642 0
-2584 -2643 0
-2584 -2644 0
-2585 -2586 0
-2585 -2587 0
-2585 -2588 0
-2585 -2589 0
-2585 -2590 0
-2585 -2591 0
-2585 -2592 0
-2585 -2593 0
-2585 -2594 0
-2585 -2595 0
-2585 -2596 0
-2585 -2597 0
-2585 -2598 0
-2585 -2599 0
-2585 -2600 0
-2585 -2601 0
-2585 -2602 0
-2585 -2603 0
-2585 -2604 0
-2585 -2605 0
-2585 -2606 0
-2585 -2607 0
-2585 -2608 0
-2585 -2609 0
-2585 -2610 0
-2585 -2611 0
-2585 -2612 0
-2585 -2613 0
-2585 -2614 0
-2585 -2615 0
-2585 -2616 0
-2585 -2617 0
-2585 -2618 0
-2585 -2619 0
-2585 -2620 0
-2585 -2621 0
-2585 -2622 0
-2585 -2623 0
-2585 -2624 0
-2585 -2625 0
-2585 -2626 0
-2585 -2627 0
-2585 -2628 0
-2585 -2629 0
-2585 -2630 0
-2585 -2631 0
-2585 -2632 0
-2585 -2633 0
-2585 -2634 0
-2585 -2635 0
-2585 -2636 0
-2585 -2637 0
-2585 -2638 0
-2585 -2639 0
-2585 -2640 0
-2585 -2641 0
-2585 -2642 0
-2585 -2643 0
-2585 -2644 0
-2586 -2587 0
-2586 -2588 0
-2586 -2589 0
-2586 -2590 0
-2586 -2591 0
-2586 -2592 0
-2586 -2593 0
-2586 -2594 0
-2586 -2595 0
-2586 -2596 0
-2586 -2597 0
-2586 -2598 0
-2586 -2599 0
-2586 -2600 0
-2586 -2601 0
-2586 -2602 0
-2586 -2603 0
-2586 -2604 0
-2586 -2605 0
-2586 -2606 0
-2586 -2607 0
-2586 -2608 0
-2586 -2609 0
-2586 -2610 0
-2586 -2611 0
-2586 -2612 0
-2586 -2613 0
-2586 -2614 0
-2586 -2615 0
-2586 -2616 0
-2586 -2617 0
-2586 -2618 0
-2586 -2619 0
-2586 -2620 0
-2586 -2621 0
-2586 -2622 0
-2586 -2623 0
-2586 -2624 0
-2586 -2625 0
-2586 -2626 0
-2586 -2627 0
-2586 -2628 0
-2586 -2629 0
-2586 -2630 0
-2586 -2631 0
-2586 -2632 0
-2586 -2633 0
-2586 -2634 0
-2586 -2635 0
-2586 -2636 0
-2586 -2637 0
-2586 -2638 0
-2586 -2639 0
-2586 -2640 0
-2586 -2641 0
-2586 -2642 0
-2586 -2643 0
-2586 -2644 0
-2587 -2588 0
-2587 -2589 0
-2587 -2590 0
-2587 -2591 0
-2587 -2592 0
-2587 -2593 0
-2587 -2594 0
-2587 -2595 0
-2587 -2596 0
-2587 -2597 0
-2587 -2598 0
-2587 -2599 0
-2587 -2600 0
-2587 -2601 0
-2587 -2602 0
-2587 -2603 0
-2587 -2604 0
-2587 -2605 0
-2587 -2606 0
-2587 -2607 0
-2587 -2608 0
-2587 -2609 0
-2587 -2610 0
-2587 -2611 0
-2587 -2612 0
-2587 -2613 0
-2587 -2614 0
-2587 -2615 0
-2587 -2616 0
-2587 -2617 0
-2587 -2618 0
-2587 -2619 0
-2587 -2620 0
-2587 -2621 0
-2587 -2622 0
-2587 -2623 0
-2587 -2624 0
-2587 -2625 0
-2587 -2626 0
-2587 -2627 0
-2587 -2628 0
-2587 -2629 0
-2587 -2630 0
-2587 -2631 0
-2587 -2632 0
-2587 -2633 0
-2587 -2634 0
-2587 -2635 0
-2587 -2636 0
-2587 -2637 0
-2587 -2638 0
-2587 -2639 0
-2587 -2640 0
-2587 -2641 0
-2587 -2642 0
-2587 -2643 0
-2587 -2644 0
-2588 -2589 0
-2588 -2590 0
-2588 -2591 0
-2588 -2592 0
-2588 -2593 0
-2588 -2594 0
-2588 -2595 0
-2588 -2596 0
-2588 -2597 0
-2588 -2598 0
-2588 -2599 0
-2588 -2600 0
-2588 -2601 0
-2588 -2602 0
-2588 -2603 0
-2588 -2604 0
-2588 -2605 0
-2588 -2606 0
-2588 -2607 0
-2588 -2608 0
-2588 -2609 0
-2588 -2610 0
-2588 -2611 0
-2588 -2612 0
-2588 -2613 0
-2588 -2614 0
-2588 -2615 0
-2588 -2616 0
-2588 -2617 0
-2588 -2618 0
-2588 -2619 0
-2588 -2620 0
-2588 -2621 0
-2588 -2622 0
-2588 -2623 0
-2588 -2624 0
-2588 -2625 0
-2588 -2626 0
-2588 -2627 0
-2588 -2628 0
-2588 -2629 0
-2588 -2630 0
-2588 -2631 0
-2588 -2632 0
-2588 -2633 0
-2588 -2634 0
-2588 -2635 0
-2588 -2636 0
-2588 -2637 0
-2588 -2638 0
-2588 -2639 0
-2588 -2640 0
-2588 -2641 0
-2588 -2642 0
-2588 -2643 0
-2588 -2644 0
-2589 -2590 0
-2589 -2591 0
-2589 -2592 0
-2589 -2593 0
-2589 -2594 0
-2589 -2595 0
-2589 -2596 0
-2589 -2597 0
-2589 -2598 0
-2589 -2599 0
-2589 -2600 0
-2589 -2601 0
-2589 -2602 0
-2589 -2603 0
-2589 -2604 0
-2589 -2605 0
-2589 -2606 0
-2589 -2607 0
-2589 -2608 0
-2589 -2609 0
-2589 -2610 0
-2589 -2611 0
-2589 -2612 0
-2589 -2613 0
-2589 -2614 0
-2589 -2615 0
-2589 -2616 0
-2589 -2617 0
-2589 -2618 0
-2589 -2619 0
-2589 -2620 0
-2589 -2621 0
-2589 -2622 0
-2589 -2623 0
-2589 -2624 0
-2589 -2625 0
-2589 -2626 0
-2589 -2627 0
-2589 -2628 0
-2589 -2629 0
-2589 -2630 0
-2589 -2631 0
-2589 -2632 0
-2589 -2633 0
-2589 -2634 0
-2589 -2635 0
-2589 -2636 0
-2589 -2637 0
-2589 -2638 0
-2589 -2639 0
-2589 -2640 0
-2589 -2641 0
-2589 -2642 0
-2589 -2643 0
-2589 -2644 0
-2590 -2591 0
-2590 -2592 0
-2590 -2593 0
-2590 -2594 0
-2590 -2595 0
-2590 -2596 0
-2590 -2597 0
-2590 -2598 0
-2590 -2599 0
-2590 -2600 0
-2590 -2601 0
-2590 -2602 0
-2590 -2603 0
-2590 -2604 0
-2590 -2605 0
-2590 -2606 0
-2590 -2607 0
-2590 -2608 0
-2590 -2609 0
-2590 -2610 0
-2590 -2611 0
-2590 -2612 0
-2590 -2613 0
-2590 -2614 0
-2590 -2615 0
-2590 -2616 0
-2590 -2617 0
-2590 -2618 0
-2590 -2619 0
-2590 -2620 0
-2590 -2621 0
-2590 -2622 0
-2590 -2623 0
-2590 -2624 0
-2590 -2625 0
-2590 -2626 0
-2590 -2627 0
-2590 -2628 0
-2590 -2629 0
-2590 -2630 0
-2590 -2631 0
-2590 -2632 0
-2590 -2633 0
-2590 -2634 0
-2590 -2635 0
-2590 -2636 0
-2590 -2637 0
-2590 -2638 0
-2590 -2639 0
-2590 -2640 0
-2590 -2641 0
-2590 -2642 0
-2590 -2643 0
-2590 -2644 0
-2591 -2592 0
-2591 -2593 0
-2591 -2594 0
-2591 -2595 0
-2591 -2596 0
-2591 -2597 0
-2591 -2598 0
-2591 -2599 0
-2591 -2600 0
-2591 -2601 0
-2591 -2602 0
-2591 -2603 0
-2591 -2604 0
-2591 -2605 0
-2591 -2606 0
-2591 -2607 0
-2591 -2608 0
-2591 -2609 0
-2591 -2610 0
-2591 -2611 0
-2591 -2612 0
-2591 -2613 0
-2591 -2614 0
-2591 -2615 0
-2591 -2616 0
-2591 -2617 0
-2591 -2618 0
-2591 -2619 0
-2591 -2620 0
-2591 -2621 0
-2591 -2622 0
-2591 -2623 0
-2591 -2624 0
-2591 -2625 0
-2591 -2626 0
-2591 -2627 0
-2591 -2628 0
-2591 -2629 0
-2591 -2630 0
-2591 -2631 0
-2591 -2632 0
-2591 -2633 0
-2591 -2634 0
-2591 -2635 0
-2591 -2636 0
-2591 -2637 0
-2591 -2638 0
-2591 -2639 0
-2591 -2640 0
-2591 -2641 0
-2591 -2642 0
-2591 -2643 0
-2591 -2644 0
-2592 -2593 0
-2592 -2594 0
-2592 -2595 0
-2592 -2596 0
-2592 -2597 0
-2592 -2598 0
-2592 -2599 0
-2592 -2600 0
-2592 -2601 0
-2592 -2602 0
-2592 -2603 0
-2592 -2604 0
-2592 -2605 0
-2592 -2606 0
-2592 -2607 0
-2592 -2608 0
-2592 -2609 0
-2592 -2610 0
-2592 -2611 0
-2592 -2612 0
-2592 -2613 0
-2592 -2614 0
-2592 -2615 0
-2592 -2616 0
-2592 -2617 0
-2592 -2618 0
-2592 -2619 0
-2592 -2620 0
-2592 -2621 0
-2592 -2622 0
-2592 -2623 0
-2592 -2624 0
-2592 -2625 0
-2592 -2626 0
-2592 -2627 0
-2592 -2628 0
-2592 -2629 0
-2592 -2630 0
-2592 -2631 0
-2592 -2632 0
-2592 -2633 0
-2592 -2634 0
-2592 -2635 0
-2592 -2636 0
-2592 -2637 0
-2592 -2638 0
-2592 -2639 0
-2592 -2640 0
-2592 -2641 0
-2592 -2642 0
-2592 -2643 0
-2592 -2644 0
-2593 -2594 0
-2593 -2595 0
-2593 -2596 0
-2593 -2597 0
-2593 -2598 0
-2593 -2599 0
-2593 -2600 0
-2593 -2601 0
-2593 -2602 0
-2593 -2603 0
-2593 -2604 0
-2593 -2605 0
-2593 -2606 0
-2593 -2607 0
-2593 -2608 0
-2593 -2609 0
-2593 -2610 0
-2593 -2611 0
-2593 -2612 0
-2593 -2613 0
-2593 -2614 0
-2593 -2615 0
-2593 -2616 0
-2593 -2617 0
-2593 -2618 0
-2593 -2619 0
-2593 -2620 0
-2593 -2621 0
-2593 -2622 0
-2593 -2623 0
-2593 -2624 0
-2593 -2625 0
-2593 -2626 0
-2593 -2627 0
-2593 -2628 0
-2593 -2629 0
-2593 -2630 0
-2593 -2631 0
-2593 -2632 0
-2593 -2633 0
-2593 -2634 0
-2593 -2635 0
-2593 -2636 0
-2593 -2637 0
-2593 -2638 0
-2593 -2639 0
-2593 -2640 0
-2593 -2641 0
-2593 -2642 0
-2593 -2643 0
-2593 -2644 0
-2594 -2595 0
-2594 -2596 0
-2594 -2597 0
-2594 -2598 0
-2594 -2599 0
-2594 -2600 0
-2594 -2601 0
-2594 -2602 0
-2594 -2603 0
-2594 -2604 0
-2594 -2605 0
-2594 -2606 0
-2594 -2607 0
-2594 -2608 0
-2594 -2609 0
-2594 -2610 0
-2594 -2611 0
-2594 -2612 0
-2594 -2613 0
-2594 -2614 0
-2594 -2615 0
-2594 -2616 0
-2594 -2617 0
-2594 -2618 0
-2594 -2619 0
-2594 -2620 0
-2594 -2621 0
-2594 -2622 0
-2594 -2623 0
-2594 -2624 0
-2594 -2625 0
-2594 -2626 0
-2594 -2627 0
-2594 -2628 0
-2594 -2629 0
-2594 -2630 0
-2594 -2631 0
-2594 -2632 0
-2594 -2633 0
-2594 -2634 0
-2594 -2635 0
-2594 -2636 0
-2594 -2637 0
-2594 -2638 0
-2594 -2639 0
-2594 -2640 0
-2594 -2641 0
-2594 -2642 0
-2594 -2643 0
-2594 -2644 0
-2595 -2596 0
-2595 -2597 0
-2595 -2598 0
-2595 -2599 0
-2595 -2600 0
-2595 -2601 0
-2595 -2602 0
-2595 -2603 0
-2595 -2604 0
-2595 -2605 0
-2595 -2606 0
-2595 -2607 0
-2595 -2608 0
-2595 -2609 0
-2595 -2610 0
-2595 -2611 0
-2595 -2612 0
-2595 -2613 0
-2595 -2614 0
-2595 -2615 0
-2595 -2616 0
-2595 -2617 0
-2595 -2618 0
-2595 -2619 0
-2595 -2620 0
-2595 -2621 0
-2595 -2622 0
-2595 -2623 0
-2595 -2624 0
-2595 -2625 0
-2595 -2626 0
-2595 -2627 0
-2595 -2628 0
-2595 -2629 0
-2595 -2630 0
-2595 -2631 0
-2595 -2632 0
-2595 -2633 0
-2595 -2634 0
-2595 -2635 0
-2595 -2636 0
-2595 -2637 0
-2595 -2638 0
-2595 -2639 0
-2595 -2640 0
-2595 -2641 0
-2595 -2642 0
-2595 -2643 0
-2595 -2644 0
-2596 -2597 0
-2596 -2598 0
-2596 -2599 0
-2596 -2600 0
-2596 -2601 0
-2596 -2602 0
-2596 -2603 0
-2596 -2604 0
-2596 -2605 0
-2596 -2606 0
-2596 -2607 0
-2596 -2608 0
-2596 -2609 0
-2596 -2610 0
-2596 -2611 0
-2596 -2612 0
-2596 -2613 0
-2596 -2614 0
-2596 -2615 0
-2596 -2616 0
-2596 -2617 0
-2596 -2618 0
-2596 -2619 0
-2596 -2620 0
-2596 -2621 0
-2596 -2622 0
-2596 -2623 0
-2596 -2624 0
-2596 -2625 0
-2596 -2626 0
-2596 -2627 0
-2596 -2628 0
-2596 -2629 0
-2596 -2630 0
-2596 -2631 0
-2596 -2632 0
-2596 -2633 0
-2596 -2634 0
-2596 -2635 0
-2596 -2636 0
-2596 -2637 0
-2596 -2638 0
-2596 -2639 0
-2596 -2640 0
-2596 -2641 0
-2596 -2642 0
-2596 -2643 0
-2596 -2644 0
-2597 -2598 0
-2597 -2599 0
-2597 -2600 0
-2597 -2601 0
-2597 -2602 0
-2597 -2603 0
-2597 -2604 0
-2597 -2605 0
-2597 -2606 0
-2597 -2607 0
-2597 -2608 0
-2597 -2609 0
-2597 -2610 0
-2597 -2611 0
-2597 -2612 0
-2597 -2613 0
-2597 -2614 0
-2597 -2615 0
-2597 -2616 0
-2597 -2617 0
-2597 -2618 0
-2597 -2619 0
-2597 -2620 0
-2597 -2621 0
-2597 -2622 0
-2597 -2623 0
-2597 -2624 0
-2597 -2625 0
-2597 -2626 0
-2597 -2627 0
-2597 -2628 0
-2597 -2629 0
-2597 -2630 0
-2597 -2631 0
-2597 -2632 0
-2597 -2633 0
-2597 -2634 0
-2597 -2635 0
-2597 -2636 0
-2597 -2637 0
-2597 -2638 0
-2597 -2639 0
-2597 -2640 0
-2597 -2641 0
-2597 -2642 0
-2597 -2643 0
-2597 -2644 0
-2598 -2599 0
-2598 -2600 0
-2598 -2601 0
-2598 -2602 0
-2598 -2603 0
-2598 -2604 0
-2598 -2605 0
-2598 -2606 0
-2598 -2607 0
-2598 -2608 0
-2598 -2609 0
-2598 -2610 0
-2598 -2611 0
-2598 -2612 0
-2598 -2613 0
-2598 -2614 0
-2598 -2615 0
-2598 -2616 0
-2598 -2617 0
-2598 -2618 0
-2598 -2619 0
-2598 -2620 0
-2598 -2621 0
-2598 -2622 0
-2598 -2623 0
-2598 -2624 0
-2598 -2625 0
-2598 -2626 0
-2598 -2627 0
-2598 -2628 0
-2598 -2629 0
-2598 -2630 0
-2598 -2631 0
-2598 -2632 0
-2598 -2633 0
-2598 -2634 0
-2598 -2635 0
-2598 -2636 0
-2598 -2637 0
-2598 -2638 0
-2598 -2639 0
-2598 -2640 0
-2598 -2641 0
-2598 -2642 0
-2598 -2643 0
-2598 -2644 0
-2599 -2600 0
-2599 -2601 0
-2599 -2602 0
-2599 -2603 0
-2599 -2604 0
-2599 -2605 0
-2599 -2606 0
-2599 -2607 0
-2599 -2608 0
-2599 -2609 0
-2599 -2610 0
-2599 -2611 0
-2599 -2612 0
-2599 -2613 0
-2599 -2614 0
-2599 -2615 0
-2599 -2616 0
-2599 -2617 0
-2599 -2618 0
-2599 -2619 0
-2599 -2620 0
-2599 -2621 0
-2599 -2622 0
-2599 -2623 0
-2599 -2624 0
-2599 -2625 0
-2599 -2626 0
-2599 -2627 0
-2599 -2628 0
-2599 -2629 0
-2599 -2630 0
-2599 -2631 0
-2599 -2632 0
-2599 -2633 0
-2599 -2634 0
-2599 -2635 0
-2599 -2636 0
-2599 -2637 0
-2599 -2638 0
-2599 -2639 0
-2599 -2640 0
-2599 -2641 0
-2599 -2642 0
-2599 -2643 0
-2599 -2644 0
-2600 -2601 0
-2600 -2602 0
-2600 -2603 0
-2600 -2604 0
-2600 -2605 0
-2600 -2606 0
-2600 -2607 0
-2600 -2608 0
-2600 -2609 0
-2600 -2610 0
-2600 -2611 0
-2600 -2612 0
-2600 -2613 0
-2600 -2614 0
-2600 -2615 0
-2600 -2616 0
-2600 -2617 0
-2600 -2618 0
-2600 -2619 0
-2600 -2620 0
-2600 -2621 0
-2600 -2622 0
-2600 -2623 0
-2600 -2624 0
-2600 -2625 0
-2600 -2626 0
-2600 -2627 0
-2600 -2628 0
-2600 -2629 0
-2600 -2630 0
-2600 -2631 0
-2600 -2632 0
-2600 -2633 0
-2600 -2634 0
-2600 -2635 0
-2600 -2636 0
-2600 -2637 0
-2600 -2638 0
-2600 -2639 0
-2600 -2640 0
-2600 -2641 0
-2600 -2642 0
-2600 -2643 0
-2600 -2644 0
-2601 -2602 0
-2601 -2603 0
-2601 -2604 0
-2601 -2605 0
-2601 -2606 0
-2601 -2607 0
-2601 -2608 0
-2601 -2609 0
-2601 -2610 0
-2601 -2611 0
-2601 -2612 0
-2601 -2613 0
-2601 -2614 0
-2601 -2615 0
-2601 -2616 0
-2601 -2617 0
-2601 -2618 0
-2601 -2619 0
-2601 -2620 0
-2601 -2621 0
-2601 -2622 0
-2601 -2623 0
-2601 -2624 0
-2601 -2625 0
-2601 -2626 0
-2601 -2627 0
-2601 -2628 0
-2601 -2629 0
-2601 -2630 0
-2601 -2631 0
-2601 -2632 0
-2601 -2633 0
-2601 -2634 0
-2601 -2635 0
-2601 -2636 0
-2601 -2637 0
-2601 -2638 0
-2601 -2639 0
-2601 -2640 0
-2601 -2641 0
-2601 -2642 0
-2601 -2643 0
-2601 -2644 0
-2602 -2603 0
-2602 -2604 0
-2602 -2605 0
-2602 -2606 0
-2602 -2607 0
-2602 -2608 0
-2602 -2609 0
-2602 -2610 0
-2602 -2611 0
-2602 -2612 0
-2602 -2613 0
-2602 -2614 0
-2602 -2615 0
-2602 -2616 0
-2602 -2617 0
-2602 -2618 0
-2602 -2619 0
-2602 -2620 0
-2602 -2621 0
-2602 -2622 0
-2602 -2623 0
-2602 -2624 0
-2602 -2625 0
-2602 -2626 0
-2602 -2627 0
-2602 -2628 0
-2602 -2629 0
-2602 -2630 0
-2602 -2631 0
-2602 -2632 0
-2602 -2633 0
-2602 -2634 0
-2602 -2635 0
-2602 -2636 0
-2602 -2637 0
-2602 -2638 0
-2602 -2639 0
-2602 -2640 0
-2602 -2641 0
-2602 -2642 0
-2602 -2643 0
-2602 -2644 0
-2603 -2604 0
-2603 -2605 0
-2603 -2606 0
-2603 -2607 0
-2603 -2608 0
-2603 -2609 0
-2603 -2610 0
-2603 -2611 0
-2603 -2612 0
-2603 -2613 0
-2603 -2614 0
-2603 -2615 0
-2603 -2616 0
-2603 -2617 0
-2603 -2618 0
-2603 -2619 0
-2603 -2620 0
-2603 -2621 0
-2603 -2622 0
-2603 -2623 0
-2603 -2624 0
-2603 -2625 0
-2603 -2626 0
-2603 -2627 0
-2603 -2628 0
-2603 -2629 0
-2603 -2630 0
-2603 -2631 0
-2603 -2632 0
-2603 -2633 0
-2603 -2634 0
-2603 -2635 0
-2603 -2636 0
-2603 -2637 0
-2603 -2638 0
-2603 -2639 0
-2603 -2640 0
-2603 -2641 0
-2603 -2642 0
-2603 -2643 0
-2603 -2644 0
-2604 -2605 0
-2604 -2606 0
-2604 -2607 0
-2604 -2608 0
-2604 -2609 0
-2604 -2610 0
-2604 -2611 0
-2604 -2612 0
-2604 -2613 0
-2604 -2614 0
-2604 -2615 0
-2604 -2616 0
-2604 -2617 0
-2604 -2618 0
-2604 -2619 0
-2604 -2620 0
-2604 -2621 0
-2604 -2622 0
-2604 -2623 0
-2604 -2624 0
-2604 -2625 0
-2604 -2626 0
-2604 -2627 0
-2604 -2628 0
-2604 -2629 0
-2604 -2630 0
-2604 -2631 0
-2604 -2632 0
-2604 -2633 0
-2604 -2634 0
-2604 -2635 0
-2604 -2636 0
-2604 -2637 0
-2604 -2638 0
-2604 -2639 0
-2604 -2640 0
-2604 -2641 0
-2604 -2642 0
-2604 -2643 0
-2604 -2644 0
-2605 -2606 0
-2605 -2607 0
-2605 -2608 0
-2605 -2609 0
-2605 -2610 0
-2605 -2611 0
-2605 -2612 0
-2605 -2613 0
-2605 -2614 0
-2605 -2615 0
-2605 -2616 0
-2605 -2617 0
-2605 -2618 0
-2605 -2619 0
-2605 -2620 0
-2605 -2621 0
-2605 -2622 0
-2605 -2623 0
-2605 -2624 0
-2605 -2625 0
-2605 -2626 0
-2605 -2627 0
-2605 -2628 0
-2605 -2629 0
-2605 -2630 0
-2605 -2631 0
-2605 -2632 0
-2605 -2633 0
-2605 -2634 0
-2605 -2635 0
-2605 -2636 0
-2605 -2637 0
-2605 -2638 0
-2605 -2639 0
-2605 -2640 0
-2605 -2641 0
-2605 -2642 0
-2605 -2643 0
-2605 -2644 0
-2606 -2607 0
-2606 -2608 0
-2606 -2609 0
-2606 -2610 0
-2606 -2611 0
-2606 -2612 0
-2606 -2613 0
-2606 -2614 0
-2606 -2615 0
-2606 -2616 0
-2606 -2617 0
-2606 -2618 0
-2606 -2619 0
-2606 -2620 0
-2606 -2621 0
-2606 -2622 0
-2606 -2623 0
-2606 -2624 0
-2606 -2625 0
-2606 -2626 0
-2606 -2627 0
-2606 -2628 0
-2606 -2629 0
-2606 -2630 0
-2606 -2631 0
-2606 -2632 0
-2606 -2633 0
-2606 -2634 0
-2606 -2635 0
-2606 -2636 0
-2606 -2637 0
-2606 -2638 0
-2606 -2639 0
-2606 -2640 0
-2606 -2641 0
-2606 -2642 0
-2606 -2643 0
-2606 -2644 0
-2607 -2608 0
-2607 -2609 0
-2607 -2610 0
-2607 -2611 0
-2607 -2612 0
-2607 -2613 0
-2607 -2614 0
-2607 -2615 0
-2607 -2616 0
-2607 -2617 0
-2607 -2618 0
-2607 -2619 0
-2607 -2620 0
-2607 -2621 0
-2607 -2622 0
-2607 -2623 0
-2607 -2624 0
-2607 -2625 0
-2607 -2626 0
-2607 -2627 0
-2607 -2628 0
-2607 -2629 0
-2607 -2630 0
-2607 -2631 0
-2607 -2632 0
-2607 -2633 0
-2607 -2634 0
-2607 -2635 0
-2607 -2636 0
-2607 -2637 0
-2607 -2638 0
-2607 -2639 0
-2607 -2640 0
-2607 -2641 0
-2607 -2642 0
-2607 -2643 0
-2607 -2644 0
-2608 -2609 0
-2608 -2610 0
-2608 -2611 0
-2608 -2612 0
-2608 -2613 0
-2608 -2614 0
-2608 -2615 0
-2608 -2616 0
-2608 -2617 0
-2608 -2618 0
-2608 -2619 0
-2608 -2620 0
-2608 -2621 0
-2608 -2622 0
-2608 -2623 0
-2608 -2624 0
-2608 -2625 0
-2608 -2626 0
-2608 -2627 0
-2608 -2628 0
-2608 -2629 0
-2608 -2630 0
-2608 -2631 0
-2608 -2632 0
-2608 -2633 0
-2608 -2634 0
-2608 -2635 0
-2608 -2636 0
-2608 -2637 0
-2608 -2638 0
-2608 -2639 0
-2608 -2640 0
-2608 -2641 0
-2608 -2642 0
-2608 -2643 0
-2608 -2644 0
-2609 -2610 0
-2609 -2611 0
-2609 -2612 0
-2609 -2613 0
-2609 -2614 0
-2609 -2615 0
-2609 -2616 0
-2609 -2617 0
-2609 -2618 0
-2609 -2619 0
-2609 -2620 0
-2609 -2621 0
-2609 -2622 0
-2609 -2623 0
-2609 -2624 0
-2609 -2625 0
-2609 -2626 0
-2609 -2627 0
-2609 -2628 0
-2609 -2629 0
-2609 -2630 0
-2609 -2631 0
-2609 -2632 0
-2609 -2633 0
-2609 -2634 0
-2609 -2635 0
-2609 -2636 0
-2609 -2637 0
-2609 -2638 0
-2609 -2639 0
-2609 -2640 0
-2609 -2641 0
-2609 -2642 0
-2609 -2643 0
-2609 -2644 0
-2610 -2611 0
-2610 -2612 0
-2610 -2613 0
-2610 -2614 0
-2610 -2615 0
-2610 -2616 0
-2610 -2617 0
-2610 -2618 0
-2610 -2619 0
-2610 -2620 0
-2610 -2621 0
-2610 -2622 0
-2610 -2623 0
-2610 -2624 0
-2610 -2625 0
-2610 -2626 0
-2610 -2627 0
-2610 -2628 0
-2610 -2629 0
-2610 -2630 0
-2610 -2631 0
-2610 -2632 0
-2610 -2633 0
-2610 -2634 0
-2610 -2635 0
-2610 -2636 0
-2610 -2637 0
-2610 -2638 0
-2610 -2639 0
-2610 -2640 0
-2610 -2641 0
-2610 -2642 0
-2610 -2643 0
-2610 -2644 0
-2611 -2612 0
-2611 -2613 0
-2611 -2614 0
-2611 -2615 0
-2611 -2616 0
-2611 -2617 0
-2611 -2618 0
-2611 -2619 0
-2611 -2620 0
-2611 -2621 0
-2611 -2622 0
-2611 -2623 0
-2611 -2624 0
-2611 -2625 0
-2611 -2626 0
-2611 -2627 0
-2611 -2628 0
-2611 -2629 0
-2611 -2630 0
-2611 -2631 0
-2611 -2632 0
-2611 -2633 0
-2611 -2634 0
-2611 -2635 0
-2611 -2636 0
-2611 -2637 0
-2611 -2638 0
-2611 -2639 0
-2611 -2640 0
-2611 -2641 0
-2611 -2642 0
-2611 -2643 0
-2611 -2644 0
-2612 -2613 0
-2612 -2614 0
-2612 -2615 0
-2612 -2616 0
-2612 -2617 0
-2612 -2618 0
-2612 -2619 0
-2612 -2620 0
-2612 -2621 0
-2612 -2622 0
-2612 -2623 0
-2612 -2624 0
-2612 -2625 0
-2612 -2626 0
-2612 -2627 0
-2612 -2628 0
-2612 -2629 0
-2612 -2630 0
-2612 -2631 0
-2612 -2632 0
-2612 -2633 0
-2612 -2634 0
-2612 -2635 0
-2612 -2636 0
-2612 -2637 0
-2612 -2638 0
-2612 -2639 0
-2612 -2640 0
-2612 -2641 0
-2612 -2642 0
-2612 -2643 0
-2612 -2644 0
-2613 -2614 0
-2613 -2615 0
-2613 -2616 0
-2613 -2617 0
-2613 -2618 0
-2613 -2619 0
-2613 -2620 0
-2613 -2621 0
-2613 -2622 0
-2613 -2623 0
-2613 -2624 0
-2613 -2625 0
-2613 -2626 0
-2613 -2627 0
-2613 -2628 0
-2613 -2629 0
-2613 -2630 0
-2613 -2631 0
-2613 -2632 0
-2613 -2633 0
-2613 -2634 0
-2613 -2635 0
-2613 -2636 0
-2613 -2637 0
-2613 -2638 0
-2613 -2639 0
-2613 -2640 0
-2613 -2641 0
-2613 -2642 0
-2613 -2643 0
-2613 -2644 0
-2614 -2615 0
-2614 -2616 0
-2614 -2617 0
-2614 -2618 0
-2614 -2619 0
-2614 -2620 0
-2614 -2621 0
-2614 -2622 0
-2614 -2623 0
-2614 -2624 0
-2614 -2625 0
-2614 -2626 0
-2614 -2627 0
-2614 -2628 0
-2614 -2629 0
-2614 -2630 0
-2614 -2631 0
-2614 -2632 0
-2614 -2633 0
-2614 -2634 0
-2614 -2635 0
-2614 -2636 0
-2614 -2637 0
-2614 -2638 0
-2614 -2639 0
-2614 -2640 0
-2614 -2641 0
-2614 -2642 0
-2614 -2643 0
-2614 -2644 0
-2615 -2616 0
-2615 -2617 0
-2615 -2618 0
-2615 -2619 0
-2615 -2620 0
-2615 -2621 0
-2615 -2622 0
-2615 -2623 0
-2615 -2624 0
-2615 -2625 0
-2615 -2626 0
-2615 -2627 0
-2615 -2628 0
-2615 -2629 0
-2615 -2630 0
-2615 -2631 0
-2615 -2632 0
-2615 -2633 0
-2615 -2634 0
-2615 -2635 0
-2615 -2636 0
-2615 -2637 0
-2615 -2638 0
-2615 -2639 0
-2615 -2640 0
-2615 -2641 0
-2615 -2642 0
-2615 -2643 0
-2615 -2644 0
-2616 -2617 0
-2616 -2618 0
-2616 -2619 0
-2616 -2620 0
-2616 -2621 0
-2616 -2622 0
-2616 -2623 0
-2616 -2624 0
-2616 -2625 0
-2616 -2626 0
-2616 -2627 0
-2616 -2628 0
-2616 -2629 0
-2616 -2630 0
-2616 -2631 0
-2616 -2632 0
-2616 -2633 0
-2616 -2634 0
-2616 -2635 0
-2616 -2636 0
-2616 -2637 0
-2616 -2638 0
-2616 -2639 0
-2616 -2640 0
-2616 -2641 0
-2616 -2642 0
-2616 -2643 0
-2616 -2644 0
-2617 -2618 0
-2617 -2619 0
-2617 -2620 0
-2617 -2621 0
-2617 -2622 0
-2617 -2623 0
-2617 -2624 0
-2617 -2625 0
-2617 -2626 0
-2617 -2627 0
-2617 -2628 0
-2617 -2629 0
-2617 -2630 0
-2617 -2631 0
-2617 -2632 0
-2617 -2633 0
-2617 -2634 0
-2617 -2635 0
-2617 -2636 0
-2617 -2637 0
-2617 -2638 0
-2617 -2639 0
-2617 -2640 0
-2617 -2641 0
-2617 -2642 0
-2617 -2643 0
-2617 -2644 0
-2618 -2619 0
-2618 -2620 0
-2618 -2621 0
-2618 -2622 0
-2618 -2623 0
-2618 -2624 0
-2618 -2625 0
-2618 -2626 0
-2618 -2627 0
-2618 -2628 0
-2618 -2629 0
-2618 -2630 0
-2618 -2631 0
-2618 -2632 0
-2618 -2633 0
-2618 -2634 0
-2618 -2635 0
-2618 -2636 0
-2618 -2637 0
-2618 -2638 0
-2618 -2639 0
-2618 -2640 0
-2618 -2641 0
-2618 -2642 0
-2618 -2643 0
-2618 -2644 0
-2619 -2620 0
-2619 -2621 0
-2619 -2622 0
-2619 -2623 0
-2619 -2624 0
-2619 -2625 0
-2619 -2626 0
-2619 -2627 0
-2619 -2628 0
-2619 -2629 0
-2619 -2630 0
-2619 -2631 0
-2619 -2632 0
-2619 -2633 0
-2619 -2634 0
-2619 -2635 0
-2619 -2636 0
-2619 -2637 0
-2619 -2638 0
-2619 -2639 0
-2619 -2640 0
-2619 -2641 0
-2619 -2642 0
-2619 -2643 0
-2619 -2644 0
-2620 -2621 0
-2620 -2622 0
-2620 -2623 0
-2620 -2624 0
-2620 -2625 0
-2620 -2626 0
-2620 -2627 0
-2620 -2628 0
-2620 -2629 0
-2620 -2630 0
-2620 -2631 0
-2620 -2632 0
-2620 -2633 0
-2620 -2634 0
-2620 -2635 0
-2620 -2636 0
-2620 -2637 0
-2620 -2638 0
-2620 -2639 0
-2620 -2640 0
-2620 -2641 0
-2620 -2642 0
-2620 -2643 0
-2620 -2644 0
-2621 -2622 0
-2621 -2623 0
-2621 -2624 0
-2621 -2625 0
-2621 -2626 0
-2621 -2627 0
-2621 -2628 0
-2621 -2629 0
-2621 -2630 0
-2621 -2631 0
-2621 -2632 0
-2621 -2633 0
-2621 -2634 0
-2621 -2635 0
-2621 -2636 0
-2621 -2637 0
-2621 -2638 0
-2621 -2639 0
-2621 -2640 0
-2621 -2641 0
-2621 -2642 0
-2621 -2643 0
-2621 -2644 0
-2622 -2623 0
-2622 -2624 0
-2622 -2625 0
-2622 -2626 0
-2622 -2627 0
-2622 -2628 0
-2622 -2629 0
-2622 -2630 0
-2622 -2631 0
-2622 -2632 0
-2622 -2633 0
-2622 -2634 0
-2622 -2635 0
-2622 -2636 0
-2622 -2637 0
-2622 -2638 0
-2622 -2639 0
-2622 -2640 0
-2622 -2641 0
-2622 -2642 0
-2622 -2643 0
-2622 -2644 0
-2623 -2624 0
-2623 -2625 0
-2623 -2626 0
-2623 -2627 0
-2623 -2628 0
-2623 -2629 0
-2623 -2630 0
-2623 -2631 0
-2623 -2632 0
-2623 -2633 0
-2623 -2634 0
-2623 -2635 0
-2623 -2636 0
-2623 -2637 0
-2623 -2638 0
-2623 -2639 0
-2623 -2640 0
-2623 -2641 0
-2623 -2642 0
-2623 -2643 0
-2623 -2644 0
-2624 -2625 0
-2624 -2626 0
-2624 -2627 0
-2624 -2628 0
-2624 -2629 0
-2624 -2630 0
-2624 -2631 0
-2624 -2632 0
-2624 -2633 0
-2624 -2634 0
-2624 -2635 0
-2624 -2636 0
-2624 -2637 0
-2624 -2638 0
-2624 -2639 0
-2624 -2640 0
-2624 -2641 0
-2624 -2642 0
-2624 -2643 0
-2624 -2644 0
-2625 -2626 0
-2625 -2627 0
-2625 -2628 0
-2625 -2629 0
-2625 -2630 0
-2625 -2631 0
-2625 -2632 0
-2625 -2633 0
-2625 -2634 0
-2625 -2635 0
-2625 -2636 0
-2625 -2637 0
-2625 -2638 0
-2625 -2639 0
-2625 -2640 0
-2625 -2641 0
-2625 -2642 0
-2625 -2643 0
-2625 -2644 0
-2626 -2627 0
-2626 -2628 0
-2626 -2629 0
-2626 -2630 0
-2626 -2631 0
-2626 -2632 0
-2626 -2633 0
-2626 -2634 0
-2626 -2635 0
-2626 -2636 0
-2626 -2637 0
-2626 -2638 0
-2626 -2639 0
-2626 -2640 0
-2626 -2641 0
-2626 -2642 0
-2626 -2643 0
-2626 -2644 0
-2627 -2628 0
-2627 -2629 0
-2627 -2630 0
-2627 -2631 0
-2627 -2632 0
-2627 -2633 0
-2627 -2634 0
-2627 -2635 0
-2627 -2636 0
-2627 -2637 0
-2627 -2638 0
-2627 -2639 0
-2627 -2640 0
-2627 -2641 0
-2627 -2642 0
-2627 -2643 0
-2627 -2644 0
-2628 -2629 0
-2628 -2630 0
-2628 -2631 0
-2628 -2632 0
-2628 -2633 0
-2628 -2634 0
-2628 -2635 0
-2628 -2636 0
-2628 -2637 0
-2628 -2638 0
-2628 -2639 0
-2628 -2640 0
-2628 -2641 0
-2628 -2642 0
-2628 -2643 0
-2628 -2644 0
-2629 -2630 0
-2629 -2631 0
-2629 -2632 0
-2629 -2633 0
-2629 -2634 0
-2629 -2635 0
-2629 -2636 0
-2629 -2637 0
-2629 -2638 0
-2629 -2639 0
-2629 -2640 0
-2629 -2641 0
-2629 -2642 0
-2629 -2643 0
-2629 -2644 0
-2630 -2631 0
-2630 -2632 0
-2630 -2633 0
-2630 -2634 0
-2630 -2635 0
-2630 -2636 0
-2630 -2637 0
-2630 -2638 0
-2630 -2639 0
-2630 -2640 0
-2630 -2641 0
-2630 -2642 0
-2630 -2643 0
-2630 -2644 0
-2631 -2632 0
-2631 -2633 0
-2631 -2634 0
-2631 -2635 0
-2631 -2636 0
-2631 -2637 0
-2631 -2638 0
-2631 -2639 0
-2631 -2640 0
-2631 -2641 0
-2631 -2642 0
-2631 -2643 0
-2631 -2644 0
-2632 -2633 0
-2632 -2634 0
-2632 -2635 0
-2632 -2636 0
-2632 -2637 0
-2632 -2638 0
-2632 -2639 0
-2632 -2640 0
-2632 -2641 0
-2632 -2642 0
-2632 -2643 0
-2632 -2644 0
-2633 -2634 0
-2633 -2635 0
-2633 -2636 0
-2633 -2637 0
-2633 -2638 0
-2633 -2639 0
-2633 -2640 0
-2633 -2641 0
-2633 -2642 0
-2633 -2643 0
-2633 -2644 0
-2634 -2635 0
-2634 -2636 0
-2634 -2637 0
-2634 -2638 0
-2634 -2639 0
-2634 -2640 0
-2634 -2641 0
-2634 -2642 0
-2634 -2643 0
-2634 -2644 0
-2635 -2636 0
-2635 -2637 0
-2635 -2638 0
-2635 -2639 0
-2635 -2640 0
-2635 -2641 0
-2635 -2642 0
-2635 -2643 0
-2635 -2644 0
-2636 -2637 0
-2636 -2638 0
-2636 -2639 0
-2636 -2640 0
-2636 -2641 0
-2636 -2642 0
-2636 -2643 0
-2636 -2644 0
-2637 -2638 0
-2637 -2639 0
-2637 -2640 0
-2637 -2641 0
-2637 -2642 0
-2637 -2643 0
-2637 -2644 0
-2638 -2639 0
-2638 -2640 0
-2638 -2641 0
-2638 -2642 0
-2638 -2643 0
-2638 -2644 0
-2639 -2640 0
-2639 -2641 0
-2639 -2642 0
-2639 -2643 0
-2639 -2644 0
-2640 -2641 0
-2640 -2642 0
-2640 -2643 0
-2640 -2644 0
-2641 -2642 0
-2641 -2643 0
-2641 -2644 0
-2642 -2643 0
-2642 -2644 0
-2643 -2644 0
-2561 1553 0
-2561 1800 0
-2561 -1603 0
-2561 -1604 0
-2561 -1605 0
-2561 -1606 0
-2561 -1607 0
-2561 -1608 1807 0
-2561 -1608 -1543 -1550 0
-2561 -1608 -1615 0
-2561 -1608 -1673 0
-2561 -1608 -1730 0
-2561 -1609 1808 0
-2561 -1609 -1543 -1551 0
-2561 -1609 -1617 0
-2561 -1609 -1675 0
-2561 -1609 -1732 0
-2561 -1610 1809 0
-2561 -1610 -1543 -1552 0
-2561 -1610 -1619 0
-2561 -1610 -1677 0
-2561 -1610 -1734 0
-2561 -1611 0
-2562 1553 0
-2562 1801 0
-2562 -1602 0
-2562 -1604 0
-2562 -1605 0
-2562 -1606 0
-2562 -1607 0
-2562 -1608 1807 0
-2562 -1608 -1544 -1550 0
-2562 -1608 -1623 0
-2562 -1608 -1681 0
-2562 -1608 -1738 0
-2562 -1609 1808 0
-2562 -1609 -1544 -1551 0
-2562 -1609 -1625 0
-2562 -1609 -1683 0
-2562 -1609 -1740 0
-2562 -1610 1809 0
-2562 -1610 -1544 -1552 0
-2562 -1610 -1627 0
-2562 -1610 -1685 0
-2562 -1610 -1742 0
-2562 -1611 0
-2563 1553 0
-2563 1802 0
-2563 -1602 0
-2563 -1603 0
-2563 -1605 0
-2563 -1606 0
-2563 -1607 0
-2563 -1608 1807 0
-2563 -1608 -1545 -1550 0
-2563 -1608 -1631 0
-2563 -1608 -1689 0
-2563 -1608 -1746 0
-2563 -1609 1808 0
-2563 -1609 -1545 -1551 0
-2563 -1609 -1633 0
-2563 -1609 -1691 0
-2563 -1609 -1748 0
-2563 -1610 1809 0
-2563 -1610 -1545 -1552 0
-2563 -1610 -1635 0
-2563 -1610 -1693 0
-2563 -1610 -1750 0
-2563 -1611 0
-2564 1553 0
-2564 1803 0
-2564 -1602 0
-2564 -1603 0
-2564 -1604 0
-2564 -1606 0
-2564 -1607 0
-2564 -1608 1807 0
-2564 -1608 -1546 -1550 0
-2564 -1608 -1639 0
-2564 -1608 -1697 0
-2564 -1608 -1754 0
-2564 -1609 1808 0
-2564 -1609 -1546 -1551 0
-2564 -1609 -1641 0
-2564 -1609 -1699 0
-2564 -1609 -1756 0
-2564 -1610 1809 0
-2564 -1610 -1546 -1552 0
-2564 -1610 -1643 0
-2564 -1610 -1701 0
-2564 -1610 -1758 0
-2564 -1611 0
-2565 1553 0
-2565 1804 0
-2565 -1602 0
-2565 -1603 0
-2565 -1604 0
-2565 -1605 0
-2565 -1607 0
-2565 -1608 1807 0
-2565 -1608 -1547 -1550 0
-2565 -1608 -1647 0
-2565 -1608 -1705 0
-2565 -1608 -1762 0
-2565 -1609 1808 0
-2565 -1609 -1547 -1551 0
-2565 -1609 -1649 0
-2565 -1609 -1707 0
-2565 -1609 -1764 0
-2565 -1610 1809 0
-2565 -1610 -1547 -1552 0
-2565 -1610 -1651 0
-2565 -1610 -1709 0
-2565 -1610 -1766 0
-2565 -1611 0
-2566 1553 0
-2566 1805 0
-2566 -1602 0
-2566 -1603 0
-2566 -1604 0
-2566 -1605 0
-2566 -1606 0
-2566 -1608 1807 0
-2566 -1608 -1548 -1550 0
-2566 -1608 -1655 0
-2566 -1608 -1713 0
-2566 -1608 -1770 0
-2566 -1609 1808 0
-2566 -1609 -1548 -1551 0
-2566 -1609 -1657 0
-2566 -1609 -1715 0
-2566 -1609 -1772 0
-2566 -1610 1809 0
-2566 -1610 -1548 -1552 0
-2566 -1610 -1659 0
-2566 -1610 -1717 0
-2566 -1610 -1774 0
-2566 -1611 0
-2567 1553 0
-2567 1800 0
-2567 -1662 0
-2567 -1663 0
-2567 -1664 0
-2567 -1665 0
-2567 -1666 1807 0
-2567 -1666 -1543 -1550 0
-2567 -1666 -1615 0
-2567 -1666 -1673 0
-2567 -1666 -1730 0
-2567 -1667 1808 0
-2567 -1667 -1543 -1551 0
-2567 -1667 -1617 0
-2567 -1667 -1675 0
-2567 -1667 -1732 0
-2567 -1668 1809 0
-2567 -1668 -1543 -1552 0
-2567 -1668 -1619 0
-2567 -1668 -1677 0
-2567 -1668 -1734 0
-2567 -1669 0
-2568 1553 0
-2568 1801 0
-2568 -1663 0
-2568 -1664 0
-2568 -1665 0
-2568 -1666 1807 0
-2568 -1666 -1544 -1550 0
-2568 -1666 -1623 0
-2568 -1666 -1681 0
-2568 -1666 -1738 0
-2568 -1667 1808 0
-2568 -1667 -1544 -1551 0
-2568 -1667 -1625 0
-2568 -1667 -1683 0
-2568 -1667 -1740 0
-2568 -1668 1809 0
-2568 -1668 -1544 -1552 0
-2568 -1668 -1627 0
-2568 -1668 -1685 0
-2568 -1668 -1742 0
-2568 -1669 0
-2569 1553 0
-2569 1802 0
-2569 -1661 0
-2569 -1664 0
-2569 -1665 0
-2569 -1666 1807 0
-2569 -1666 -1545 -1550 0
-2569 -1666 -1631 0
-2569 -1666 -1689 0
-2569 -1666 -1746 0
-2569 -1667 1808 0
-2569 -1667 -1545 -1551 0
-2569 -1667 -1633 0
-2569 -1667 -1691 0
-2569 -1667 -1748 0
-2569 -1668 1809 0
-2569 -1668 -1545 -1552 0
-2569 -1668 -1635 0
-2569 -1668 -1693 0
-2569 -1668 -1750 0
-2569 -1669 0
-2570 1553 0
-2570 1803 0
-2570 -1661 0
-2570 -1662 0
-2570 -1665 0
-2570 -1666 1807 0
-2570 -1666 -1546 -1550 0
-2570 -1666 -1639 0
-2570 -1666 -1697 0
-2570 -1666 -1754 0
-2570 -1667 1808 0
-2570 -1667 -1546 -1551 0
-2570 -1667 -1641 0
-2570 -1667 -1699 0
-2570 -1667 -1756 0
-2570 -1668 1809 0
-2570 -1668 -1546 -1552 0
-2570 -1668 -1643 0
-2570 -1668 -1701 0
-2570 -1668 -1758 0
-2570 -1669 0
-2571 1553 0
-2571 1804 0
-2571 -1661 0
-2571 -1662 0
-2571 -1663 0
-2571 -1666 1807 0
-2571 -1666 -1547 -1550 0
-2571 -1666 -1647 0
-2571 -1666 -1705 0
-2571 -1666 -1762 0
-2571 -1667 1808 0
-2571 -1667 -1547 -1551 0
-2571 -1667 -1649 0
-2571 -1667 -1707 0
-2571 -1667 -1764 0
-2571 -1668 1809 0
-2571 -1668 -1547 -1552 0
-2571 -1668 -1651 0
-2571 -1668 -1709 0
-2571 -1668 -1766 0
-2571 -1669 0
-2572 1553 0
-2572 1805 0
-2572 -1661 0
-2572 -1662 0
-2572 -1663 0
-2572 -1664 0
-2572 -1666 1807 0
-2572 -1666 -1548 -1550 0
-2572 -1666 -1655 0
-2572 -1666 -1713 0
-2572 -1666 -1770 0
-2572 -1667 1808 0
-2572 -1667 -1548 -1551 0
-2572 -1667 -1657 0
-2572 -1667 -1715 0
-2572 -1667 -1772 0
-2572 -1668 1809 0
-2572 -1668 -1548 -1552 0
-2572 -1668 -1659 0
-2572 -1668 -1717 0
-2572 -1668 -1774 0
-2572 -1669 0
-2573 1553 0
-2573 1800 0
-2573 -1720 0
-2573 -1721 0
-2573 -1722 0
-2573 -1723 1807 0
-2573 -1723 -1543 -1550 0
-2573 -1723 -1615 0
-2573 -1723 -1673 0
-2573 -1723 -1730 0
-2573 -1724 1808 0
-2573 -1724 -1543 -1551 0
-2573 -1724 -1617 0
-2573 -1724 -1675 0
-2573 -1724 -1732 0
-2573 -1725 1809 0
-2573 -1725 -1543 -1552 0
-2573 -1725 -1619 0
-2573 -1725 -1677 0
-2573 -1725 -1734 0
-2573 -1726 0
-2574 1553 0
-2574 1801 0
-2574 -1721 0
-2574 -1722 0
-2574 -1723 1807 0
-2574 -1723 -1544 -1550 0
-2574 -1723 -1623 0
-2574 -1723 -1681 0
-2574 -1723 -1738 0
-2574 -1724 1808 0
-2574 -1724 -1544 -1551 0
-2574 -1724 -1625 0
-2574 -1724 -1683 0
-2574 -1724 -1740 0
-2574 -1725 1809 0
-2574 -1725 -1544 -1552 0
-2574 -1725 -1627 0
-2574 -1725 -1685 0
-2574 -1725 -1742 0
-2574 -1726 0
-2575 1553 0
-2575 1802 0
-2575 -1722 0
-2575 -1723 1807 0
-2575 -1723 -1545 -1550 0
-2575 -1723 -1631 0
-2575 -1723 -1689 0
-2575 -1723 -1746 0
-2575 -1724 1808 0
-2575 -1724 -1545 -1551 0
-2575 -1724 -1633 0
-2575 -1724 -1691 0
-2575 -1724 -1748 0
-2575 -1725 1809 0
-2575 -1725 -1545 -1552 0
-2575 -1725 -1635 0
-2575 -1725 -1693 0
-2575 -1725 -1750 0
-2575 -1726 0
-2576 1553 0
-2576 1803 0
-2576 -1719 0
-2576 -1723 1807 0
-2576 -1723 -1546 -1550 0
-2576 -1723 -1639 0
-2576 -1723 -1697 0
-2576 -1723 -1754 0
-2576 -1724 1808 0
-2576 -1724 -1546 -1551 0
-2576 -1724 -1641 0
-2576 -1724 -1699 0
-2576 -1724 -1756 0
-2576 -1725 1809 0
-2576 -1725 -1546 -1552 0
-2576 -1725 -1643 0
-2576 -1725 -1701 0
-2576 -1725 -1758 0
-2576 -1726 0
-2577 1553 0
-2577 1804 0
-2577 -1719 0
-2577 -1720 0
-2577 -1723 1807 0
-2577 -1723 -1547 -1550 0
-2577 -1723 -1647 0
-2577 -1723 -1705 0
-2577 -1723 -1762 0
-2577 -1724 1808 0
-2577 -1724 -1547 -1551 0
-2577 -1724 -1649 0
-2577 -1724 -1707 0
-2577 -1724 -1764 0
-2577 -1725 1809 0
-2577 -1725 -1547 -1552 0
-2577 -1725 -1651 0
-2577 -1725 -1709 0
-2577 -1725 -1766 0
-2577 -1726 0
-2578 1553 0
-2578 1805 0
-2578 -1719 0
-2578 -1720 0
-2578 -1721 0
-2578 -1723 1807 0
-2578 -1723 -1548 -1550 0
-2578 -1723 -1655 0
-2578 -1723 -1713 0
-2578 -1723 -1770 0
-2578 -1724 1808 0
-2578 -1724 -1548 -1551 0
-2578 -1724 -1657 0
-2578 -1724 -1715 0
-2578 -1724 -1772 0
-2578 -1725 1809 0
-2578 -1725 -1548 -1552 0
-2578 -1725 -1659 0
-2578 -1725 -1717 0
-2578 -1725 -1774 0
-2578 -1726 0
-2579 1553 0
-2579 1800 0
-2579 1806 0
-2579 -1543 -1549 0
-2579 -1613 0
-2579 -1671 0
-2579 -1728 0
-2580 1553 0
-2580 1801 0
-2580 1806 0
-2580 -1544 -1549 0
-2580 -1621 0
-2580 -1679 0
-2580 -1736 0
-2581 1553 0
-2581 1802 0
-2581 1806 0
-2581 -1545 -1549 0
-2581 -1629 0
-2581 -1687 0
-2581 -1744 0
-2582 1553 0
-2582 1803 0
-2582 1806 0
-2582 -1546 -1549 0
-2582 -1637 0
-2582 -1695 0
-2582 -1752 0
-2583 1553 0
-2583 1804 0
-2583 1806 0
-2583 -1547 -1549 0
-2583 -1645 0
-2583 -1703 0
-2583 -1760 0
-2584 1553 0
-2584 1805 0
-2584 1806 0
-2584 -1548 -1549 0
-2584 -1653 0
-2584 -1711 0
-2584 -1768 0
-2585 1612 0
-2585 1859 0
-2585 -1544 0
-2585 -1545 0
-2585 -1546 0
-2585 -1547 0
-2585 -1548 0
-2585 -1549 1866 0
-2585 -1549 -1602 -1609 0
-2585 -1549 -1556 0
-2585 -1549 -1673 0
-2585 -1549 -1730 0
-2585 -1550 1867 0
-2585 -1550 -1602 -1610 0
-2585 -1550 -1558 0
-2585 -1550 -1675 0
-2585 -1550 -1732 0
-2585 -1551 1868 0
-2585 -1551 -1602 -1611 0
-2585 -1551 -1560 0
-2585 -1551 -1677 0
-2585 -1551 -1734 0
-2585 -1552 0
-2586 1612 0
-2586 1860 0
-2586 -1543 0
-2586 -1545 0
-2586 -1546 0
-2586 -1547 0
-2586 -1548 0
-2586 -1549 1866 0
-2586 -1549 -1603 -1609 0
-2586 -1549 -1564 0
-2586 -1549 -1681 0
-2586 -1549 -1738 0
-2586 -1550 1867 0
-2586 -1550 -1603 -1610 0
-2586 -1550 -1566 0
-2586 -1550 -1683 0
-2586 -1550 -1740 0
-2586 -1551 1868 0
-2586 -1551 -1603 -1611 0
-2586 -1551 -1568 0
-2586 -1551 -1685 0
-2586 -1551 -1742 0
-2586 -1552 0
-2587 1612 0
-2587 1861 0
-2587 -1543 0
-2587 -1544 0
-2587 -1546 0
-2587 -1547 0
-2587 -1548 0
-2587 -1549 1866 0
-2587 -1549 -1604 -1609 0
-2587 -1549 -1572 0
-2587 -1549 -1689 0
-2587 -1549 -1746 0
-2587 -1550 1867 0
-2587 -1550 -1604 -1610 0
-2587 -1550 -1574 0
-2587 -1550 -1691 0
-2587 -1550 -1748 0
-2587 -1551 1868 0
-2587 -1551 -1604 -1611 0
-2587 -1551 -1576 0
-2587 -1551 -1693 0
-2587 -1551 -1750 0
-2587 -1552 0
-2588 1612 0
-2588 1862 0
-2588 -1543 0
-2588 -1544 0
-2588 -1545 0
-2588 -1547 0
-2588 -1548 0
-2588 -1549 1866 0
-2588 -1549 -1605 -1609 0
-2588 -1549 -1580 0
-2588 -1549 -1697 0
-2588 -1549 -1754 0
-2588 -1550 1867 0
-2588 -1550 -1605 -1610 0
-2588 -1550 -1582 0
-2588 -1550 -1699 0
-2588 -1550 -1756 0
-2588 -1551 1868 0
-2588 -1551 -1605 -1611 0
-2588 -1551 -1584 0
-2588 -1551 -1701 0
-2588 -1551 -1758 0
-2588 -1552 0
-2589 1612 0
-2589 1863 0
-2589 -1543 0
-2589 -1544 0
-2589 -1545 0
-2589 -1546 0
-2589 -1548 0
-2589 -1549 1866 0
-2589 -1549 -1606 -1609 0
-2589 -1549 -1588 0
-2589 -1549 -1705 0
-2589 -1549 -1762 0
-2589 -1550 1867 0
-2589 -1550 -1606 -1610 0
-2589 -1550 -1590 0
-2589 -1550 -1707 0
-2589 -1550 -1764 0
-2589 -1551 1868 0
-2589 -1551 -1606 -1611 0
-2589 -1551 -1592 0
-2589 -1551 -1709 0
-2589 -1551 -1766 0
-2589 -1552 0
-2590 1612 0
-2590 1864 0
-2590 -1543 0
-2590 -1544 0
-2590 -1545 0
-2590 -1546 0
-2590 -1547 0
-2590 -1549 1866 0
-2590 -1549 -1607 -1609 0
-2590 -1549 -1596 0
-2590 -1549 -1713 0
-2590 -1549 -1770 0
-2590 -1550 1867 0
-2590 -1550 -1607 -1610 0
-2590 -1550 -1598 0
-2590 -1550 -1715 0
-2590 -1550 -1772 0
-2590 -1551 1868 0
-2590 -1551 -1607 -1611 0
-2590 -1551 -1600 0
-2590 -1551 -1717 0
-2590 -1551 -1774 0
-2590 -1552 0
-2591 1612 0
-2591 1859 0
-2591 -1662 0
-2591 -1663 0
-2591 -1664 0
-2591 -1665 0
-2591 -1666 1866 0
-2591 -1666 -1602 -1609 0
-2591 -1666 -1556 0
-2591 -1666 -1673 0
-2591 -1666 -1730 0
-2591 -1667 1867 0
-2591 -1667 -1602 -1610 0
-2591 -1667 -1558 0
-2591 -1667 -1675 0
-2591 -1667 -1732 0
-2591 -1668 1868 0
-2591 -1668 -1602 -1611 0
-2591 -1668 -1560 0
-2591 -1668 -1677 0
-2591 -1668 -1734 0
-2591 -1669 0
-2592 1612 0
-2592 1860 0
-2592 -1663 0
-2592 -1664 0
-2592 -1665 0
-2592 -1666 1866 0
-2592 -1666 -1603 -1609 0
-2592 -1666 -1564 0
-2592 -1666 -1681 0
-2592 -1666 -1738 0
-2592 -1667 1867 0
-2592 -1667 -1603 -1610 0
-2592 -1667 -1566 0
-2592 -1667 -1683 0
-2592 -1667 -1740 0
-2592 -1668 1868 0
-2592 -1668 -1603 -1611 0
-2592 -1668 -1568 0
-2592 -1668 -1685 0
-2592 -1668 -1742 0
-2592 -1669 0
-2593 1612 0
-2593 1861 0
-2593 -1661 0
-2593 -1664 0
-2593 -1665 0
-2593 -1666 1866 0
-2593 -1666 -1604 -1609 0
-2593 -1666 -1572 0
-2593 -1666 -1689 0
-2593 -1666 -1746 0
-2593 -1667 1867 0
-2593 -1667 -1604 -1610 0
-2593 -1667 -1574 0
-2593 -1667 -1691 0
-2593 -1667 -1748 0
-2593 -1668 1868 0
-2593 -1668 -1604 -1611 0
-2593 -1668 -1576 0
-2593 -1668 -1693 0
-2593 -1668 -1750 0
-2593 -1669 0
-2594 1612 0
-2594 1862 0
-2594 -1661 0
-2594 -1662 0
-2594 -1665 0
-2594 -1666 1866 0
-2594 -1666 -1605 -1609 0
-2594 -1666 -1580 0
-2594 -1666 -1697 0
-2594 -1666 -1754 0
-2594 -1667 1867 0
-2594 -1667 -1605 -1610 0
-2594 -1667 -1582 0
-2594 -1667 -1699 0
-2594 -1667 -1756 0
-2594 -1668 1868 0
-2594 -1668 -1605 -1611 0
-2594 -1668 -1584 0
-2594 -1668 -1701 0
-2594 -1668 -1758 0
-2594 -1669 0
-2595 1612 0
-2595 1863 0
-2595 -1661 0
-2595 -1662 0
-2595 -1663 0
-2595 -1666 1866 0
-2595 -1666 -1606 -1609 0
-2595 -1666 -1588 0
-2595 -1666 -1705 0
-2595 -1666 -1762 0
-2595 -1667 1867 0
-2595 -1667 -1606 -1610 0
-2595 -1667 -1590 0
-2595 -1667 -1707 0
-2595 -1667 -1764 0
-2595 -1668 1868 0
-2595 -1668 -1606 -1611 0
-2595 -1668 -1592 0
-2595 -1668 -1709 0
-2595 -1668 -1766 0
-2595 -1669 0
-2596 1612 0
-2596 1864 0
-2596 -1661 0
-2596 -1662 0
-2596 -1663 0
-2596 -1664 0
-2596 -1666 1866 0
-2596 -1666 -1607 -1609 0
-2596 -1666 -1596 0
-2596 -1666 -1713 0
-2596 -1666 -1770 0
-2596 -1667 1867 0
-2596 -1667 -1607 -1610 0
-2596 -1667 -1598 0
-2596 -1667 -1715 0
-2596 -1667 -1772 0
-2596 -1668 1868 0
-2596 -1668 -1607 -1611 0
-2596 -1668 -1600 0
-2596 -1668 -1717 0
-2596 -1668 -1774 0
-2596 -1669 0
-2597 1612 0
-2597 1859 0
-2597 -1720 0
-2597 -1721 0
-2597 -1722 0
-2597 -1723 1866 0
-2597 -1723 -1602 -1609 0
-2597 -1723 -1556 0
-2597 -1723 -1673 0
-2597 -1723 -1730 0
-2597 -1724 1867 0
-2597 -1724 -1602 -1610 0
-2597 -1724 -1558 0
-2597 -1724 -1675 0
-2597 -1724 -1732 0
-2597 -1725 1868 0
-2597 -1725 -1602 -1611 0
-2597 -1725 -1560 0
-2597 -1725 -1677 0
-2597 -1725 -1734 0
-2597 -1726 0
-2598 1612 0
-2598 1860 0
-2598 -1721 0
-2598 -1722 0
-2598 -1723 1866 0
-2598 -1723 -1603 -1609 0
-2598 -1723 -1564 0
-2598 -1723 -1681 0
-2598 -1723 -1738 0
-2598 -1724 1867 0
-2598 -1724 -1603 -1610 0
-2598 -1724 -1566 0
-2598 -1724 -1683 0
-2598 -1724 -1740 0
-2598 -1725 1868 0
-2598 -1725 -1603 -1611 0
-2598 -1725 -1568 0
-2598 -1725 -1685 0
-2598 -1725 -1742 0
-2598 -1726 0
-2599 1612 0
-2599 1861 0
-2599 -1722 0
-2599 -1723 1866 0
-2599 -1723 -1604 -1609 0
-2599 -1723 -1572 0
-2599 -1723 -1689 0
-2599 -1723 -1746 0
-2599 -1724 1867 0
-2599 -1724 -1604 -1610 0
-2599 -1724 -1574 0
-2599 -1724 -1691 0
-2599 -1724 -1748 0
-2599 -1725 1868 0
-2599 -1725 -1604 -1611 0
-2599 -1725 -1576 0
-2599 -1725 -1693 0
-2599 -1725 -1750 0
-2599 -1726 0
-2600 1612 0
-2600 1862 0
-2600 -1719 0
-2600 -1723 1866 0
-2600 -1723 -1605 -1609 0
-2600 -1723 -1580 0
-2600 -1723 -1697 0
-2600 -1723 -1754 0
-2600 -1724 1867 0
-2600 -1724 -1605 -1610 0
-2600 -1724 -1582 0
-2600 -1724 -1699 0
-2600 -1724 -1756 0
-2600 -1725 1868 0
-2600 -1725 -1605 -1611 0
-2600 -1725 -1584 0
-2600 -1725 -1701 0
-2600 -1725 -1758 0
-2600 -1726 0
-2601 1612 0
-2601 1863 0
-2601 -1719 0
-2601 -1720 0
-2601 -1723 1866 0
-2601 -1723 -1606 -1609 0
-2601 -1723 -1588 0
-2601 -1723 -1705 0
-2601 -1723 -1762 0
-2601 -1724 1867 0
-2601 -1724 -1606 -1610 0
-2601 -1724 -1590 0
-2601 -1724 -1707 0
-2601 -1724 -1764 0
-2601 -1725 1868 0
-2601 -1725 -1606 -1611 0
-2601 -1725 -1592 0
-2601 -1725 -1709 0
-2601 -1725 -1766 0
-2601 -1726 0
-2602 1612 0
-2602 1864 0
-2602 -1719 0
-2602 -1720 0
-2602 -1721 0
-2602 -1723 1866 0
-2602 -1723 -1607 -1609 0
-2602 -1723 -1596 0
-2602 -1723 -1713 0
-2602 -1723 -1770 0
-2602 -1724 1867 0
-2602 -1724 -1607 -1610 0
-2602 -1724 -1598 0
-2602 -1724 -1715 0
-2602 -1724 -1772 0
-2602 -1725 1868 0
-2602 -1725 -1607 -1611 0
-2602 -1725 -1600 0
-2602 -1725 -1717 0
-2602 -1725 -1774 0
-2602 -1726 0
-2603 1612 0
-2603 1859 0
-2603 1865 0
-2603 -1602 -1608 0
-2603 -1554 0
-2603 -1671 0
-2603 -1728 0
-2604 1612 0
-2604 1860 0
-2604 1865 0
-2604 -1603 -1608 0
-2604 -1562 0
-2604 -1679 0
-2604 -1736 0
-2605 1612 0
-2605 1861 0
-2605 1865 0
-2605 -1604 -1608 0
-2605 -1570 0
-2605 -1687 0
-2605 -1744 0
-2606 1612 0
-2606 1862 0
-2606 1865 0
-2606 -1605 -1608 0
-2606 -1578 0
-2606 -1695 0
-2606 -1752 0
-2607 1612 0
-2607 1863 0
-2607 1865 0
-2607 -1606 -1608 0
-2607 -1586 0
-2607 -1703 0
-2607 -1760 0
-2608 1612 0
-2608 1864 0
-2608 1865 0
-2608 -1607 -1608 0
-2608 -1594 0
-2608 -1711 0
-2608 -1768 0
-2609 1670 0
-2609 1918 0
-2609 -1545 0
-2609 -1546 0
-2609 -1547 0
-2609 -1548 0
-2609 -1549 1924 0
-2609 -1549 -1661 -1667 0
-2609 -1549 -1556 0
-2609 -1549 -1564 0
-2609 -1549 -1615 0
-2609 -1549 -1623 0
-2609 -1549 -1730 0
-2609 -1549 -1738 0
-2609 -1550 1925 0
-2609 -1550 -1661 -1668 0
-2609 -1550 -1558 0
-2609 -1550 -1566 0
-2609 -1550 -1617 0
-2609 -1550 -1625 0
-2609 -1550 -1732 0
-2609 -1550 -1740 0
-2609 -1551 1926 0
-2609 -1551 -1661 -1669 0
-2609 -1551 -1560 0
-2609 -1551 -1568 0
-2609 -1551 -1619 0
-2609 -1551 -1627 0
-2609 -1551 -1734 0
-2609 -1551 -1742 0
-2609 -1552 0
-2610 1670 0
-2610 1919 0
-2610 -1543 0
-2610 -1546 0
-2610 -1547 0
-2610 -1548 0
-2610 -1549 1924 0
-2610 -1549 -1662 -1667 0
-2610 -1549 -1564 0
-2610 -1549 -1572 0
-2610 -1549 -1623 0
-2610 -1549 -1631 0
-2610 -1549 -1738 0
-2610 -1549 -1746 0
-2610 -1550 1925 0
-2610 -1550 -1662 -1668 0
-2610 -1550 -1566 0
-2610 -1550 -1574 0
-2610 -1550 -1625 0
-2610 -1550 -1633 0
-2610 -1550 -1740 0
-2610 -1550 -1748 0
-2610 -1551 1926 0
-2610 -1551 -1662 -1669 0
-2610 -1551 -1568 0
-2610 -1551 -1576 0
-2610 -1551 -1627 0
-2610 -1551 -1635 0
-2610 -1551 -1742 0
-2610 -1551 -1750 0
-2610 -1552 0
-2611 1670 0
-2611 1920 0
-2611 -1543 0
-2611 -1544 0
-2611 -1547 0
-2611 -1548 0
-2611 -1549 1924 0
-2611 -1549 -1663 -1667 0
-2611 -1549 -1572 0
-2611 -1549 -1580 0
-2611 -1549 -1631 0
-2611 -1549 -1639 0
-2611 -1549 -1746 0
-2611 -1549 -1754 0
-2611 -1550 1925 0
-2611 -1550 -1663 -1668 0
-2611 -1550 -1574 0
-2611 -1550 -1582 0
-2611 -1550 -1633 0
-2611 -1550 -1641 0
-2611 -1550 -1748 0
-2611 -1550 -1756 0
-2611 -1551 1926 0
-2611 -1551 -1663 -1669 0
-2611 -1551 -1576 0
-2611 -1551 -1584 0
-2611 -1551 -1635 0
-2611 -1551 -1643 0
-2611 -1551 -1750 0
-2611 -1551 -1758 0
-2611 -1552 0
-2612 1670 0
-2612 1921 0
-2612 -1543 0
-2612 -1544 0
-2612 -1545 0
-2612 -1548 0
-2612 -1549 1924 0
-2612 -1549 -1664 -1667 0
-2612 -1549 -1580 0
-2612 -1549 -1588 0
-2612 -1549 -1639 0
-2612 -1549 -1647 0
-2612 -1549 -1754 0
-2612 -1549 -1762 0
-2612 -1550 1925 0
-2612 -1550 -1664 -1668 0
-2612 -1550 -1582 0
-2612 -1550 -1590 0
-2612 -1550 -1641 0
-2612 -1550 -1649 0
-2612 -1550 -1756 0
-2612 -1550 -1764 0
-2612 -1551 1926 0
-2612 -1551 -1664 -1669 0
-2612 -1551 -1584 0
-2612 -1551 -1592 0
-2612 -1551 -1643 0
-2612 -1551 -1651 0
-2612 -1551 -1758 0
-2612 -1551 -1766 0
-2612 -1552 0
-2613 1670 0
-2613 1922 0
-2613 -1543 0
-2613 -1544 0
-2613 -1545 0
-2613 -1546 0
-2613 -1549 1924 0
-2613 -1549 -1665 -1667 0
-2613 -1549 -1588 0
-2613 -1549 -1596 0
-2613 -1549 -1647 0
-2613 -1549 -1655 0
-2613 -1549 -1762 0
-2613 -1549 -1770 0
-2613 -1550 1925 0
-2613 -1550 -1665 -1668 0
-2613 -1550 -1590 0
-2613 -1550 -1598 0
-2613 -1550 -1649 0
-2613 -1550 -1657 0
-2613 -1550 -1764 0
-2613 -1550 -1772 0
-2613 -1551 1926 0
-2613 -1551 -1665 -1669 0
-2613 -1551 -1592 0
-2613 -1551 -1600 0
-2613 -1551 -1651 0
-2613 -1551 -1659 0
-2613 -1551 -1766 0
-2613 -1551 -1774 0
-2613 -1552 0
-2614 1670 0
-2614 1918 0
-2614 -1604 0
-2614 -1605 0
-2614 -1606 0
-2614 -1607 0
-2614 -1608 1924 0
-2614 -1608 -1661 -1667 0
-2614 -1608 -1556 0
-2614 -1608 -1564 0
-2614 -1608 -1615 0
-2614 -1608 -1623 0
-2614 -1608 -1730 0
-2614 -1608 -1738 0
-2614 -1609 1925 0
-2614 -1609 -1661 -1668 0
-2614 -1609 -1558 0
-2614 -1609 -1566 0
-2614 -1609 -1617 0
-2614 -1609 -1625 0
-2614 -1609 -1732 0
-2614 -1609 -1740 0
-2614 -1610 1926 0
-2614 -1610 -1661 -1669 0
-2614 -1610 -1560 0
-2614 -1610 -1568 0
-2614 -1610 -1619 0
-2614 -1610 -1627 0
-2614 -1610 -1734 0
-2614 -1610 -1742 0
-2614 -1611 0
-2615 1670 0
-2615 1919 0
-2615 -1602 0
-2615 -1605 0
-2615 -1606 0
-2615 -1607 0
-2615 -1608 1924 0
-2615 -1608 -1662 -1667 0
-2615 -1608 -1564 0
-2615 -1608 -1572 0
-2615 -1608 -1623 0
-2615 -1608 -1631 0
-2615 -1608 -1738 0
-2615 -1608 -1746 0
-2615 -1609 1925 0
-2615 -1609 -1662 -1668 0
-2615 -1609 -1566 0
-2615 -1609 -1574 0
-2615 -1609 -1625 0
-2615 -1609 -1633 0
-2615 -1609 -1740 0
-2615 -1609 -1748 0
-2615 -1610 1926 0
-2615 -1610 -1662 -1669 0
-2615 -1610 -1568 0
-2615 -1610 -1576 0
-2615 -1610 -1627 0
-2615 -1610 -1635 0
-2615 -1610 -1742 0
-2615 -1610 -1750 0
-2615 -1611 0
-2616 1670 0
-2616 1920 0
-2616 -1602 0
-2616 -1603 0
-2616 -1606 0
-2616 -1607 0
-2616 -1608 1924 0
-2616 -1608 -1663 -1667 0
-2616 -1608 -1572 0
-2616 -1608 -1580 0
-2616 -1608 -1631 0
-2616 -1608 -1639 0
-2616 -1608 -1746 0
-2616 -1608 -1754 0
-2616 -1609 1925 0
-2616 -1609 -1663 -1668 0
-2616 -1609 -1574 0
-2616 -1609 -1582 0
-2616 -1609 -1633 0
-2616 -1609 -1641 0
-2616 -1609 -1748 0
-2616 -1609 -1756 0
-2616 -1610 1926 0
-2616 -1610 -1663 -1669 0
-2616 -1610 -1576 0
-2616 -1610 -1584 0
-2616 -1610 -1635 0
-2616 -1610 -1643 0
-2616 -1610 -1750 0
-2616 -1610 -1758 0
-2616 -1611 0
-2617 1670 0
-2617 1921 0
-2617 -1602 0
-2617 -1603 0
-2617 -1604 0
-2617 -1607 0
-2617 -1608 1924 0
-2617 -1608 -1664 -1667 0
-2617 -1608 -1580 0
-2617 -1608 -1588 0
-2617 -1608 -1639 0
-2617 -1608 -1647 0
-2617 -1608 -1754 0
-2617 -1608 -1762 0
-2617 -1609 1925 0
-2617 -1609 -1664 -1668 0
-2617 -1609 -1582 0
-2617 -1609 -1590 0
-2617 -1609 -1641 0
-2617 -1609 -1649 0
-2617 -1609 -1756 0
-2617 -1609 -1764 0
-2617 -1610 1926 0
-2617 -1610 -1664 -1669 0
-2617 -1610 -1584 0
-2617 -1610 -1592 0
-2617 -1610 -1643 0
-2617 -1610 -1651 0
-2617 -1610 -1758 0
-2617 -1610 -1766 0
-2617 -1611 0
-2618 1670 0
-2618 1922 0
-2618 -1602 0
-2618 -1603 0
-2618 -1604 0
-2618 -1605 0
-2618 -1608 1924 0
-2618 -1608 -1665 -1667 0
-2618 -1608 -1588 0
-2618 -1608 -1596 0
-2618 -1608 -1647 0
-2618 -1608 -1655 0
-2618 -1608 -1762 0
-2618 -1608 -1770 0
-2618 -1609 1925 0
-2618 -1609 -1665 -1668 0
-2618 -1609 -1590 0
-2618 -1609 -1598 0
-2618 -1609 -1649 0
-2618 -1609 -1657 0
-2618 -1609 -1764 0
-2618 -1609 -1772 0
-2618 -1610 1926 0
-2618 -1610 -1665 -1669 0
-2618 -1610 -1592 0
-2618 -1610 -1600 0
-2618 -1610 -1651 0
-2618 -1610 -1659 0
-2618 -1610 -1766 0
-2618 -1610 -1774 0
-2618 -1611 0
-2619 1670 0
-2619 1918 0
-2619 -1721 0
-2619 -1722 0
-2619 -1723 1924 0
-2619 -1723 -1661 -1667 0
-2619 -1723 -1556 0
-2619 -1723 -1564 0
-2619 -1723 -1615 0
-2619 -1723 -1623 0
-2619 -1723 -1730 0
-2619 -1723 -1738 0
-2619 -1724 1925 0
-2619 -1724 -1661 -1668 0
-2619 -1724 -1558 0
-2619 -1724 -1566 0
-2619 -1724 -1617 0
-2619 -1724 -1625 0
-2619 -1724 -1732 0
-2619 -1724 -1740 0
-2619 -1725 1926 0
-2619 -1725 -1661 -1669 0
-2619 -1725 -1560 0
-2619 -1725 -1568 0
-2619 -1725 -1619 0
-2619 -1725 -1627 0
-2619 -1725 -1734 0
-2619 -1725 -1742 0
-2619 -1726 0
-2620 1670 0
-2620 1919 0
-2620 -1722 0
-2620 -1723 1924 0
-2620 -1723 -1662 -1667 0
-2620 -1723 -1564 0
-2620 -1723 -1572 0
-2620 -1723 -1623 0
-2620 -1723 -1631 0
-2620 -1723 -1738 0
-2620 -1723 -1746 0
-2620 -1724 1925 0
-2620 -1724 -1662 -1668 0
-2620 -1724 -1566 0
-2620 -1724 -1574 0
-2620 -1724 -1625 0
-2620 -1724 -1633 0
-2620 -1724 -1740 0
-2620 -1724 -1748 0
-2620 -1725 1926 0
-2620 -1725 -1662 -1669 0
-2620 -1725 -1568 0
-2620 -1725 -1576 0
-2620 -1725 -1627 0
-2620 -1725 -1635 0
-2620 -1725 -1742 0
-2620 -1725 -1750 0
-2620 -1726 0
-2621 1670 0
-2621 1920 0
-2621 -1723 1924 0
-2621 -1723 -1663 -1667 0
-2621 -1723 -1572 0
-2621 -1723 -1580 0
-2621 -1723 -1631 0
-2621 -1723 -1639 0
-2621 -1723 -1746 0
-2621 -1723 -1754 0
-2621 -1724 1925 0
-2621 -1724 -1663 -1668 0
-2621 -1724 -1574 0
-2621 -1724 -1582 0
-2621 -1724 -1633 0
-2621 -1724 -1641 0
-2621 -1724 -1748 0
-2621 -1724 -1756 0
-2621 -1725 1926 0
-2621 -1725 -1663 -1669 0
-2621 -1725 -1576 0
-2621 -1725 -1584 0
-2621 -1725 -1635 0
-2621 -1725 -1643 0
-2621 -1725 -1750 0
-2621 -1725 -1758 0
-2621 -1726 0
-2622 1670 0
-2622 1921 0
-2622 -1719 0
-2622 -1723 1924 0
-2622 -1723 -1664 -1667 0
-2622 -1723 -1580 0
-2622 -1723 -1588 0
-2622 -1723 -1639 0
-2622 -1723 -1647 0
-2622 -1723 -1754 0
-2622 -1723 -1762 0
-2622 -1724 1925 0
-2622 -1724 -1664 -1668 0
-2622 -1724 -1582 0
-2622 -1724 -1590 0
-2622 -1724 -1641 0
-2622 -1724 -1649 0
-2622 -1724 -1756 0
-2622 -1724 -1764 0
-2622 -1725 1926 0
-2622 -1725 -1664 -1669 0
-2622 -1725 -1584 0
-2622 -1725 -1592 0
-2622 -1725 -1643 0
-2622 -1725 -1651 0
-2622 -1725 -1758 0
-2622 -1725 -1766 0
-2622 -1726 0
-2623 1670 0
-2623 1922 0
-2623 -1719 0
-2623 -1720 0
-2623 -1723 1924 0
-2623 -1723 -1665 -1667 0
-2623 -1723 -1588 0
-2623 -1723 -1596 0
-2623 -1723 -1647 0
-2623 -1723 -1655 0
-2623 -1723 -1762 0
-2623 -1723 -1770 0
-2623 -1724 1925 0
-2623 -1724 -1665 -1668 0
-2623 -1724 -1590 0
-2623 -1724 -1598 0
-2623 -1724 -1649 0
-2623 -1724 -1657 0
-2623 -1724 -1764 0
-2623 -1724 -1772 0
-2623 -1725 1926 0
-2623 -1725 -1665 -1669 0
-2623 -1725 -1592 0
-2623 -1725 -1600 0
-2623 -1725 -1651 0
-2623 -1725 -1659 0
-2623 -1725 -1766 0
-2623 -1725 -1774 0
-2623 -1726 0
-2624 1670 0
-2624 1918 0
-2624 1923 0
-2624 -1661 -1666 0
-2624 -1554 0
-2624 -1562 0
-2624 -1613 0
-2624 -1621 0
-2624 -1728 0
-2624 -1736 0
-2625 1670 0
-2625 1919 0
-2625 1923 0
-2625 -1662 -1666 0
-2625 -1562 0
-2625 -1570 0
-2625 -1621 0
-2625 -1629 0
-2625 -1736 0
-2625 -1744 0
-2626 1670 0
-2626 1920 0
-2626 1923 0
-2626 -1663 -1666 0
-2626 -1570 0
-2626 -1578 0
-2626 -1629 0
-2626 -1637 0
-2626 -1744 0
-2626 -1752 0
-2627 1670 0
-2627 1921 0
-2627 1923 0
-2627 -1664 -1666 0
-2627 -1578 0
-2627 -1586 0
-2627 -1637 0
-2627 -1645 0
-2627 -1752 0
-2627 -1760 0
-2628 1670 0
-2628 1922 0
-2628 1923 0
-2628 -1665 -1666 0
-2628 -1586 0
-2628 -1594 0
-2628 -1645 0
-2628 -1653 0
-2628 -1760 0
-2628 -1768 0
-2629 1727 0
-2629 1976 0
-2629 -1546 0
-2629 -1547 0
-2629 -1548 0
-2629 -1549 1981 0
-2629 -1549 -1719 -1724 0
-2629 -1549 -1556 0
-2629 -1549 -1564 0
-2629 -1549 -1572 0
-2629 -1549 -1615 0
-2629 -1549 -1623 0
-2629 -1549 -1631 0
-2629 -1549 -1673 0
-2629 -1549 -1681 0
-2629 -1549 -1689 0
-2629 -1550 1982 0
-2629 -1550 -1719 -1725 0
-2629 -1550 -1558 0
-2629 -1550 -1566 0
-2629 -1550 -1574 0
-2629 -1550 -1617 0
-2629 -1550 -1625 0
-2629 -1550 -1633 0
-2629 -1550 -1675 0
-2629 -1550 -1683 0
-2629 -1550 -1691 0
-2629 -1551 1983 0
-2629 -1551 -1719 -1726 0
-2629 -1551 -1560 0
-2629 -1551 -1568 0
-2629 -1551 -1576 0
-2629 -1551 -1619 0
-2629 -1551 -1627 0
-2629 -1551 -1635 0
-2629 -1551 -1677 0
-2629 -1551 -1685 0
-2629 -1551 -1693 0
-2629 -1552 0
-2630 1727 0
-2630 1977 0
-2630 -1543 0
-2630 -1547 0
-2630 -1548 0
-2630 -1549 1981 0
-2630 -1549 -1720 -1724 0
-2630 -1549 -1564 0
-2630 -1549 -1572 0
-2630 -1549 -1580 0
-2630 -1549 -1623 0
-2630 -1549 -1631 0
-2630 -1549 -1639 0
-2630 -1549 -1681 0
-2630 -1549 -1689 0
-2630 -1549 -1697 0
-2630 -1550 1982 0
-2630 -1550 -1720 -1725 0
-2630 -1550 -1566 0
-2630 -1550 -1574 0
-2630 -1550 -1582 0
-2630 -1550 -1625 0
-2630 -1550 -1633 0
-2630 -1550 -1641 0
-2630 -1550 -1683 0
-2630 -1550 -1691 0
-2630 -1550 -1699 0
-2630 -1551 1983 0
-2630 -1551 -1720 -1726 0
-2630 -1551 -1568 0
-2630 -1551 -1576 0
-2630 -1551 -1584 0
-2630 -1551 -1627 0
-2630 -1551 -1635 0
-2630 -1551 -1643 0
-2630 -1551 -1685 0
-2630 -1551 -1693 0
-2630 -1551 -1701 0
-2630 -1552 0
-2631 1727 0
-2631 1978 0
-2631 -1543 0
-2631 -1544 0
-2631 -1548 0
-2631 -1549 1981 0
-2631 -1549 -1721 -1724 0
-2631 -1549 -1572 0
-2631 -1549 -1580 0
-2631 -1549 -1588 0
-2631 -1549 -1631 0
-2631 -1549 -1639 0
-2631 -1549 -1647 0
-2631 -1549 -1689 0
-2631 -1549 -1697 0
-2631 -1549 -1705 0
-2631 -1550 1982 0
-2631 -1550 -1721 -1725 0
-2631 -1550 -1574 0
-2631 -1550 -1582 0
-2631 -1550 -1590 0
-2631 -1550 -1633 0
-2631 -1550 -1641 0
-2631 -1550 -1649 0
-2631 -1550 -1691 0
-2631 -1550 -1699 0
-2631 -1550 -1707 0
-2631 -1551 1983 0
-2631 -1551 -1721 -1726 0
-2631 -1551 -1576 0
-2631 -1551 -1584 0
-2631 -1551 -1592 0
-2631 -1551 -1635 0
-2631 -1551 -1643 0
-2631 -1551 -1651 0
-2631 -1551 -1693 0
-2631 -1551 -1701 0
-2631 -1551 -1709 0
-2631 -1552 0
-2632 1727 0
-2632 1979 0
-2632 -1543 0
-2632 -1544 0
-2632 -1545 0
-2632 -1549 1981 0
-2632 -1549 -1722 -1724 0
-2632 -1549 -1580 0
-2632 -1549 -1588 0
-2632 -1549 -1596 0
-2632 -1549 -1639 0
-2632 -1549 -1647 0
-2632 -1549 -1655 0
-2632 -1549 -1697 0
-2632 -1549 -1705 0
-2632 -1549 -1713 0
-2632 -1550 1982 0
-2632 -1550 -1722 -1725 0
-2632 -1550 -1582 0
-2632 -1550 -1590 0
-2632 -1550 -1598 0
-2632 -1550 -1641 0
-2632 -1550 -1649 0
-2632 -1550 -1657 0
-2632 -1550 -1699 0
-2632 -1550 -1707 0
-2632 -1550 -1715 0
-2632 -1551 1983 0
-2632 -1551 -1722 -1726 0
-2632 -1551 -1584 0
-2632 -1551 -1592 0
-2632 -1551 -1600 0
-2632 -1551 -1643 0
-2632 -1551 -1651 0
-2632 -1551 -1659 0
-2632 -1551 -1701 0
-2632 -1551 -1709 0
-2632 -1551 -1717 0
-2632 -1552 0
-2633 1727 0
-2633 1976 0
-2633 -1605 0
-2633 -1606 0
-2633 -1607 0
-2633 -1608 1981 0
-2633 -1608 -1719 -1724 0
-2633 -1608 -1556 0
-2633 -1608 -1564 0
-2633 -1608 -1572 0
-2633 -1608 -1615 0
-2633 -1608 -1623 0
-2633 -1608 -1631 0
-2633 -1608 -1673 0
-2633 -1608 -1681 0
-2633 -1608 -1689 0
-2633 -1609 1982 0
-2633 -1609 -1719 -1725 0
-2633 -1609 -1558 0
-2633 -1609 -1566 0
-2633 -1609 -1574 0
-2633 -1609 -1617 0
-2633 -1609 -1625 0
-2633 -1609 -1633 0
-2633 -1609 -1675 0
-2633 -1609 -1683 0
-2633 -1609 -1691 0
-2633 -1610 1983 0
-2633 -1610 -1719 -1726 0
-2633 -1610 -1560 0
-2633 -1610 -1568 0
-2633 -1610 -1576 0
-2633 -1610 -1619 0
-2633 -1610 -1627 0
-2633 -1610 -1635 0
-2633 -1610 -1677 0
-2633 -1610 -1685 0
-2633 -1610 -1693 0
-2633 -1611 0
-2634 1727 0
-2634 1977 0
-2634 -1602 0
-2634 -1606 0
-2634 -1607 0
-2634 -1608 1981 0
-2634 -1608 -1720 -1724 0
-2634 -1608 -1564 0
-2634 -1608 -1572 0
-2634 -1608 -1580 0
-2634 -1608 -1623 0
-2634 -1608 -1631 0
-2634 -1608 -1639 0
-2634 -1608 -1681 0
-2634 -1608 -1689 0
-2634 -1608 -1697 0
-2634 -1609 1982 0
-2634 -1609 -1720 -1725 0
-2634 -1609 -1566 0
-2634 -1609 -1574 0
-2634 -1609 -1582 0
-2634 -1609 -1625 0
-2634 -1609 -1633 0
-2634 -1609 -1641 0
-2634 -1609 -1683 0
-2634 -1609 -1691 0
-2634 -1609 -1699 0
-2634 -1610 1983 0
-2634 -1610 -1720 -1726 0
-2634 -1610 -1568 0
-2634 -1610 -1576 0
-2634 -1610 -1584 0
-2634 -1610 -1627 0
-2634 -1610 -1635 0
-2634 -1610 -1643 0
-2634 -1610 -1685 0
-2634 -1610 -1693 0
-2634 -1610 -1701 0
-2634 -1611 0
-2635 1727 0
-2635 1978 0
-2635 -1602 0
-2635 -1603 0
-2635 -1607 0
-2635 -1608 1981 0
-2635 -1608 -1721 -1724 0
-2635 -1608 -1572 0
-2635 -1608 -1580 0
-2635 -1608 -1588 0
-2635 -1608 -1631 0
-2635 -1608 -1639 0
-2635 -1608 -1647 0
-2635 -1608 -1689 0
-2635 -1608 -1697 0
-2635 -1608 -1705 0
-2635 -1609 1982 0
-2635 -1609 -1721 -1725 0
-2635 -1609 -1574 0
-2635 -1609 -1582 0
-2635 -1609 -1590 0
-2635 -1609 -1633 0
-2635 -1609 -1641 0
-2635 -1609 -1649 0
-2635 -1609 -1691 0
-2635 -1609 -1699 0
-2635 -1609 -1707 0
-2635 -1610 1983 0
-2635 -1610 -1721 -1726 0
-2635 -1610 -1576 0
-2635 -1610 -1584 0
-2635 -1610 -1592 0
-2635 -1610 -1635 0
-2635 -1610 -1643 0
-2635 -1610 -1651 0
-2635 -1610 -1693 0
-2635 -1610 -1701 0
-2635 -1610 -1709 0
-2635 -1611 0
-2636 1727 0
-2636 1979 0
-2636 -1602 0
-2636 -1603 0
-2636 -1604 0
-2636 -1608 1981 0
-2636 -1608 -1722 -1724 0
-2636 -1608 -1580 0
-2636 -1608 -1588 0
-2636 -1608 -1596 0
-2636 -1608 -1639 0
-2636 -1608 -1647 0
-2636 -1608 -1655 0
-2636 -1608 -1697 0
-2636 -1608 -1705 0
-2636 -1608 -1713 0
-2636 -1609 1982 0
-2636 -1609 -1722 -1725 0
-2636 -1609 -1582 0
-2636 -1609 -1590 0
-2636 -1609 -1598 0
-2636 -1609 -1641 0
-2636 -1609 -1649 0
-2636 -1609 -1657 0
-2636 -1609 -1699 0
-2636 -1609 -1707 0
-2636 -1609 -1715 0
-2636 -1610 1983 0
-2636 -1610 -1722 -1726 0
-2636 -1610 -1584 0
-2636 -1610 -1592 0
-2636 -1610 -1600 0
-2636 -1610 -1643 0
-2636 -1610 -1651 0
-2636 -1610 -1659 0
-2636 -1610 -1701 0
-2636 -1610 -1709 0
-2636 -1610 -1717 0
-2636 -1611 0
-2637 1727 0
-2637 1976 0
-2637 -1664 0
-2637 -1665 0
-2637 -1666 1981 0
-2637 -1666 -1719 -1724 0
-2637 -1666 -1556 0
-2637 -1666 -1564 0
-2637 -1666 -1572 0
-2637 -1666 -1615 0
-2637 -1666 -1623 0
-2637 -1666 -1631 0
-2637 -1666 -1673 0
-2637 -1666 -1681 0
-2637 -1666 -1689 0
-2637 -1667 1982 0
-2637 -1667 -1719 -1725 0
-2637 -1667 -1558 0
-2637 -1667 -1566 0
-2637 -1667 -1574 0
-2637 -1667 -1617 0
-2637 -1667 -1625 0
-2637 -1667 -1633 0
-2637 -1667 -1675 0
-2637 -1667 -1683 0
-2637 -1667 -1691 0
-2637 -1668 1983 0
-2637 -1668 -1719 -1726 0
-2637 -1668 -1560 0
-2637 -1668 -1568 0
-2637 -1668 -1576 0
-2637 -1668 -1619 0
-2637 -1668 -1627 0
-2637 -1668 -1635 0
-2637 -1668 -1677 0
-2637 -1668 -1685 0
-2637 -1668 -1693 0
-2637 -1669 0
-2638 1727 0
-2638 1977 0
-2638 -1665 0
-2638 -1666 1981 0
-2638 -1666 -1720 -1724 0
-2638 -1666 -1564 0
-2638 -1666 -1572 0
-2638 -1666 -1580 0
-2638 -1666 -1623 0
-2638 -1666 -1631 0
-2638 -1666 -1639 0
-2638 -1666 -1681 0
-2638 -1666 -1689 0
-2638 -1666 -1697 0
-2638 -1667 1982 0
-2638 -1667 -1720 -1725 0
-2638 -1667 -1566 0
-2638 -1667 -1574 0
-2638 -1667 -1582 0
-2638 -1667 -1625 0
-2638 -1667 -1633 0
-2638 -1667 -1641 0
-2638 -1667 -1683 0
-2638 -1667 -1691 0
-2638 -1667 -1699 0
-2638 -1668 1983 0
-2638 -1668 -1720 -1726 0
-2638 -1668 -1568 0
-2638 -1668 -1576 0
-2638 -1668 -1584 0
-2638 -1668 -1627 0
-2638 -1668 -1635 0
-2638 -1668 -1643 0
-2638 -1668 -1685 0
-2638 -1668 -1693 0
-2638 -1668 -1701 0
-2638 -1669 0
-2639 1727 0
-2639 1978 0
-2639 -1661 0
-2639 -1666 1981 0
-2639 -1666 -1721 -1724 0
-2639 -1666 -1572 0
-2639 -1666 -1580 0
-2639 -1666 -1588 0
-2639 -1666 -1631 0
-2639 -1666 -1639 0
-2639 -1666 -1647 0
-2639 -1666 -1689 0
-2639 -1666 -1697 0
-2639 -1666 -1705 0
-2639 -1667 1982 0
-2639 -1667 -1721 -1725 0
-2639 -1667 -1574 0
-2639 -1667 -1582 0
-2639 -1667 -1590 0
-2639 -1667 -1633 0
-2639 -1667 -1641 0
-2639 -1667 -1649 0
-2639 -1667 -1691 0
-2639 -1667 -1699 0
-2639 -1667 -1707 0
-2639 -1668 1983 0
-2639 -1668 -1721 -1726 0
-2639 -1668 -1576 0
-2639 -1668 -1584 0
-2639 -1668 -1592 0
-2639 -1668 -1635 0
-2639 -1668 -1643 0
-2639 -1668 -1651 0
-2639 -1668 -1693 0
-2639 -1668 -1701 0
-2639 -1668 -1709 0
-2639 -1669 0
-2640 1727 0
-2640 1979 0
-2640 -1661 0
-2640 -1662 0
-2640 -1666 1981 0
-2640 -1666 -1722 -1724 0
-2640 -1666 -1580 0
-2640 -1666 -1588 0
-2640 -1666 -1596 0
-2640 -1666 -1639 0
-2640 -1666 -1647 0
-2640 -1666 -1655 0
-2640 -1666 -1697 0
-2640 -1666 -1705 0
-2640 -1666 -1713 0
-2640 -1667 1982 0
-2640 -1667 -1722 -1725 0
-2640 -1667 -1582 0
-2640 -1667 -1590 0
-2640 -1667 -1598 0
-2640 -1667 -1641 0
-2640 -1667 -1649 0
-2640 -1667 -1657 0
-2640 -1667 -1699 0
-2640 -1667 -1707 0
-2640 -1667 -1715 0
-2640 -1668 1983 0
-2640 -1668 -1722 -1726 0
-2640 -1668 -1584 0
-2640 -1668 -1592 0
-2640 -1668 -1600 0
-2640 -1668 -1643 0
-2640 -1668 -1651 0
-2640 -1668 -1659 0
-2640 -1668 -1701 0
-2640 -1668 -1709 0
-2640 -1668 -1717 0
-2640 -1669 0
-2641 1727 0
-2641 1976 0
-2641 1980 0
-2641 -1719 -1723 0
-2641 -1554 0
-2641 -1562 0
-2641 -1570 0
-2641 -1613 0
-2641 -1621 0
-2641 -1629 0
-2641 -1671 0
-2641 -1679 0
-2641 -1687 0
-2642 1727 0
-2642 1977 0
-2642 1980 0
-2642 -1720 -1723 0
-2642 -1562 0
-2642 -1570 0
-2642 -1578 0
-2642 -1621 0
-2642 -1629 0
-2642 -1637 0
-2642 -1679 0
-2642 -1687 0
-2642 -1695 0
-2643 1727 0
-2643 1978 0
-2643 1980 0
-2643 -1721 -1723 0
-2643 -1570 0
-2643 -1578 0
-2643 -1586 0
-2643 -1629 0
-2643 -1637 0
-2643 -1645 0
-2643 -1687 0
-2643 -1695 0
-2643 -1703 0
-2644 1727 0
-2644 1979 0
-2644 1980 0
-2644 -1722 -1723 0
-2644 -1578 0
-2644 -1586 0
-2644 -1594 0
-2644 -1637 0
-2644 -1645 0
-2644 -1653 0
-2644 -1695 0
-2644 -1703 0
-2644 -1711 0
-1543 1800 2561 2562 2563 2564 2565 2566 2567 2568 2569 2570 2571 2572 2573 2574 2575 2576 2577 2578 2579 2580 2581 2582 2583 2584 0
-1544 1801 2561 2562 2563 2564 2565 2566 2567 2568 2569 2570 2571 2572 2573 2574 2575 2576 2577 2578 2579 2580 2581 2582 2583 2584 0
-1545 1802 2561 2562 2563 2564 2565 2566 2567 2568 2569 2570 2571 2572 2573 2574 2575 2576 2577 2578 2579 2580 2581 2582 2583 2584 0
-1546 1803 2561 2562 2563 2564 2565 2566 2567 2568 2569 2570 2571 2572 2573 2574 2575 2576 2577 2578 2579 2580 2581 2582 2583 2584 0
-1547 1804 2561 2562 2563 2564 2565 2566 2567 2568 2569 2570 2571 2572 2573 2574 2575 2576 2577 2578 2579 2580 2581 2582 2583 2584 0
-1548 1805 2561 2562 2563 2564 2565 2566 2567 2568 2569 2570 2571 2572 2573 2574 2575 2576 2577 2578 2579 2580 2581 2582 2583 2584 0
-1549 1806 2561 2562 2563 2564 2565 2566 2567 2568 2569 2570 2571 2572 2573 2574 2575 2576 2577 2578 2579 2580 2581 2582 2583 2584 0
-1550 1807 2561 2562 2563 2564 2565 2566 2567 2568 2569 2570 2571 2572 2573 2574 2575 2576 2577 2578 2579 2580 2581 2582 2583 2584 0
-1551 1808 2561 2562 2563 2564 2565 2566 2567 2568 2569 2570 2571 2572 2573 2574 2575 2576 2577 2578 2579 2580 2581 2582 2583 2584 0
-1552 1809 2561 2562 2563 2564 2565 2566 2567 2568 2569 2570 2571 2572 2573 2574 2575 2576 2577 2578 2579 2580 2581 2582 2583 2584 0
-1602 1859 2585 2586 2587 2588 2589 2590 2591 2592 2593 2594 2595 2596 2597 2598 2599 2600 2601 2602 2603 2604 2605 2606 2607 2608 0
-1603 1860 2585 2586 2587 2588 2589 2590 2591 2592 2593 2594 2595 2596 2597 2598 2599 2600 2601 2602 2603 2604 2605 2606 2607 2608 0
-1604 1861 2585 2586 2587 2588 2589 2590 2591 2592 2593 2594 2595 2596 2597 2598 2599 2600 2601 2602 2603 2604 2605 2606 2607 2608 0
-1605 1862 2585 2586 2587 2588 2589 2590 2591 2592 2593 2594 2595 2596 2597 2598 2599 2600 2601 2602 2603 2604 2605 2606 2607 2608 0
-1606 1863 2585 2586 2587 2588 2589 2590 2591 2592 2593 2594 2595 2596 2597 2598 2599 2600 2601 2602 2603 2604 2605 2606 2607 2608 0
-1607 1864 2585 2586 2587 2588 2589 2590 2591 2592 2593 2594 2595 2596 2597 2598 2599 2600 2601 2602 2603 2604 2605 2606 2607 2608 0
-1608 1865 2585 2586 2587 2588 2589 2590 2591 2592 2593 2594 2595 2596 2597 2598 2599 2600 2601 2602 2603 2604 2605 2606 2607 2608 0
-1609 1866 2585 2586 2587 2588 2589 2590 2591 2592 2593 2594 2595 2596 2597 2598 2599 2600 2601 2602 2603 2604 2605 2606 2607 2608 0
-1610 1867 2585 2586 2587 2588 2589 2590 2591 2592 2593 2594 2595 2596 2597 2598 2599 2600 2601 2602 2603 2604 2605 2606 2607 2608 0
-1611 1868 2585 2586 2587 2588 2589 2590 2591 2592 2593 2594 2595 2596 2597 2598 2599 2600 2601 2602 2603 2604 2605 2606 2607 2608 0
-1661 1918 2609 2610 2611 2612 2613 2614 2615 2616 2617 2618 2619 2620 2621 2622 2623 2624 2625 2626 2627 2628 0
-1662 1919 2609 2610 2611 2612 2613 2614 2615 2616 2617 2618 2619 2620 2621 2622 2623 2624 2625 2626 2627 2628 0
-1663 1920 2609 2610 2611 2612 2613 2614 2615 2616 2617 2618 2619 2620 2621 2622 2623 2624 2625 2626 2627 2628 0
-1664 1921 2609 2610 2611 2612 2613 2614 2615 2616 2617 2618 2619 2620 2621 2622 2623 2624 2625 2626 2627 2628 0
-1665 1922 2609 2610 2611 2612 2613 2614 2615 2616 2617 2618 2619 2620 2621 2622 2623 2624 2625 2626 2627 2628 0
-1666 1923 2609 2610 2611 2612 2613 2614 2615 2616 2617 2618 2619 2620 2621 2622 2623 2624 2625 2626 2627 2628 0
-1667 1924 2609 2610 2611 2612 2613 2614 2615 2616 2617 2618 2619 2620 2621 2622 2623 2624 2625 2626 2627 2628 0
-1668 1925 2609 2610 2611 2612 2613 2614 2615 2616 2617 2618 2619 2620 2621 2622 2623 2624 2625 2626 2627 2628 0
-1669 1926 2609 2610 2611 2612 2613 2614 2615 2616 2617 2618 2619 2620 2621 2622 2623 2624 2625 2626 2627 2628 0
-1719 1976 2629 2630 2631 2632 2633 2634 2635 2636 2637 2638 2639 2640 2641 2642 2643 2644 0
-1720 1977 2629 2630 2631 2632 2633 2634 2635 2636 2637 2638 2639 2640 2641 2642 2643 2644 0
-1721 1978 2629 2630 2631 2632 2633 2634 2635 2636 2637 2638 2639 2640 2641 2642 2643 2644 0
-1722 1979 2629 2630 2631 2632 2633 2634 2635 2636 2637 2638 2639 2640 2641 2642 2643 2644 0
-1723 1980 2629 2630 2631 2632 2633 2634 2635 2636 2637 2638 2639 2640 2641 2642 2643 2644 0
-1724 1981 2629 2630 2631 2632 2633 2634 2635 2636 2637 2638 2639 2640 2641 2642 2643 2644 0
-1725 1982 2629 2630 2631 2632 2633 2634 2635 2636 2637 2638 2639 2640 2641 2642 2643 2644 0
-1726 1983 2629 2630 2631 2632 2633 2634 2635 2636 2637 2638 2639 2640 2641 2642 2643 2644 0
