p cnf 1962 33568
119 0
124 0
1 0
8 0
61 0
67 0
180 0
181 0
1465 0
1466 0
1408 0
1410 0
1290 0
1294 0
1350 0
1353 0
1 2 3 4 5 6 0
-1 -2 0
-1 -3 0
-1 -4 0
-1 -5 0
-1 -6 0
-2 -3 0
-2 -4 0
-2 -5 0
-2 -6 0
-3 -4 0
-3 -5 0
-3 -6 0
-4 -5 0
-4 -6 0
-5 -6 0
7 8 9 10 0
-7 -8 0
-7 -9 0
-7 -10 0
-8 -9 0
-8 -10 0
-9 -10 0
60 61 62 63 64 65 0
-60 -61 0
-60 -62 0
-60 -63 0
-60 -64 0
-60 -65 0
-61 -62 0
-61 -63 0
-61 -64 0
-61 -65 0
-62 -63 0
-62 -64 0
-62 -65 0
-63 -64 0
-63 -65 0
-64 -65 0
66 67 68 69 0
-66 -67 0
-66 -68 0
-66 -69 0
-67 -68 0
-67 -69 0
-68 -69 0
119 120 121 122 123 0
-119 -120 0
-119 -121 0
-119 -122 0
-119 -123 0
-120 -121 0
-120 -122 0
-120 -123 0
-121 -122 0
-121 -123 0
-122 -123 0
124 125 126 127 0
-124 -125 0
-124 -126 0
-124 -127 0
-125 -126 0
-125 -127 0
-126 -127 0
177 178 179 180 0
-177 -178 0
-177 -179 0
-177 -180 0
-178 -179 0
-178 -180 0
-179 -180 0
181 182 183 184 0
-181 -182 0
-181 -183 0
-181 -184 0
-182 -183 0
-182 -184 0
-183 -184 0
-1 -7 12 0
-12 7 0
-12 1 0
-1 -8 14 0
-14 8 0
-14 1 0
-1 -9 16 0
-16 9 0
-16 1 0
-1 -10 18 0
-18 10 0
-18 1 0
-2 -7 20 0
-20 7 0
-20 2 0
-2 -8 22 0
-22 8 0
-22 2 0
-2 -9 24 0
-24 9 0
-24 2 0
-2 -10 26 0
-26 10 0
-26 2 0
-3 -7 28 0
-28 7 0
-28 3 0
-3 -8 30 0
-30 8 0
-30 3 0
-3 -9 32 0
-32 9 0
-32 3 0
-3 -10 34 0
-34 10 0
-34 3 0
-4 -7 36 0
-36 7 0
-36 4 0
-4 -8 38 0
-38 8 0
-38 4 0
-4 -9 40 0
-40 9 0
-40 4 0
-4 -10 42 0
-42 10 0
-42 4 0
-5 -7 44 0
-44 7 0
-44 5 0
-5 -8 46 0
-46 8 0
-46 5 0
-5 -9 48 0
-48 9 0
-48 5 0
-5 -10 50 0
-50 10 0
-50 5 0
-6 -7 52 0
-52 7 0
-52 6 0
-6 -8 54 0
-54 8 0
-54 6 0
-6 -9 56 0
-56 9 0
-56 6 0
-6 -10 58 0
-58 10 0
-58 6 0
-60 -66 71 0
-71 66 0
-71 60 0
-60 -67 73 0
-73 67 0
-73 60 0
-60 -68 75 0
-75 68 0
-75 60 0
-60 -69 77 0
-77 69 0
-77 60 0
-61 -66 79 0
-79 66 0
-79 61 0
-61 -67 81 0
-81 67 0
-81 61 0
-61 -68 83 0
-83 68 0
-83 61 0
-61 -69 85 0
-85 69 0
-85 61 0
-62 -66 87 0
-87 66 0
-87 62 0
-62 -67 89 0
-89 67 0
-89 62 0
-62 -68 91 0
-91 68 0
-91 62 0
-62 -69 93 0
-93 69 0
-93 62 0
-63 -66 95 0
-95 66 0
-95 63 0
-63 -67 97 0
-97 67 0
-97 63 0
-63 -68 99 0
-99 68 0
-99 63 0
-63 -69 101 0
-101 69 0
-101 63 0
-64 -66 103 0
-103 66 0
-103 64 0
-64 -67 105 0
-105 67 0
-105 64 0
-64 -68 107 0
-107 68 0
-107 64 0
-64 -69 109 0
-109 69 0
-109 64 0
-65 -66 111 0
-111 66 0
-111 65 0
-65 -67 113 0
-113 67 0
-113 65 0
-65 -68 115 0
-115 68 0
-115 65 0
-65 -69 117 0
-117 69 0
-117 65 0
-119 -124 129 0
-129 124 0
-129 119 0
-119 -125 131 0
-131 125 0
-131 119 0
-119 -126 133 0
-133 126 0
-133 119 0
-119 -127 135 0
-135 127 0
-135 119 0
-119 -124 137 0
-120 -124 137 0
-137 124 0
-137 119 120 0
-119 -125 139 0
-120 -125 139 0
-139 125 0
-139 119 120 0
-119 -126 141 0
-120 -126 141 0
-141 126 0
-141 119 120 0
-119 -127 143 0
-120 -127 143 0
-143 127 0
-143 119 120 0
-120 -124 145 0
-121 -124 145 0
-145 124 0
-145 120 121 0
-120 -125 147 0
-121 -125 147 0
-147 125 0
-147 120 121 0
-120 -126 149 0
-121 -126 149 0
-149 126 0
-149 120 121 0
-120 -127 151 0
-121 -127 151 0
-151 127 0
-151 120 121 0
-121 -124 153 0
-122 -124 153 0
-153 124 0
-153 121 122 0
-121 -125 155 0
-122 -125 155 0
-155 125 0
-155 121 122 0
-121 -126 157 0
-122 -126 157 0
-157 126 0
-157 121 122 0
-121 -127 159 0
-122 -127 159 0
-159 127 0
-159 121 122 0
-122 -124 161 0
-123 -124 161 0
-161 124 0
-161 122 123 0
-122 -125 163 0
-123 -125 163 0
-163 125 0
-163 122 123 0
-122 -126 165 0
-123 -126 165 0
-165 126 0
-165 122 123 0
-122 -127 167 0
-123 -127 167 0
-167 127 0
-167 122 123 0
-123 -124 169 0
-169 124 0
-169 123 0
-123 -125 171 0
-171 125 0
-171 123 0
-123 -126 173 0
-173 126 0
-173 123 0
-123 -127 175 0
-175 127 0
-175 123 0
-177 -181 186 0
-186 181 0
-186 177 0
-177 -182 188 0
-188 182 0
-188 177 0
-177 -183 190 0
-190 183 0
-190 177 0
-177 -184 192 0
-192 184 0
-192 177 0
-177 -181 194 0
-178 -181 194 0
-194 181 0
-194 177 178 0
-177 -182 196 0
-178 -182 196 0
-196 182 0
-196 177 178 0
-177 -183 198 0
-178 -183 198 0
-198 183 0
-198 177 178 0
-177 -184 200 0
-178 -184 200 0
-200 184 0
-200 177 178 0
-177 -181 202 0
-178 -181 202 0
-179 -181 202 0
-202 181 0
-202 177 178 179 0
-177 -182 204 0
-178 -182 204 0
-179 -182 204 0
-204 182 0
-204 177 178 179 0
-177 -183 206 0
-178 -183 206 0
-179 -183 206 0
-206 183 0
-206 177 178 179 0
-177 -184 208 0
-178 -184 208 0
-179 -184 208 0
-208 184 0
-208 177 178 179 0
-178 -181 210 0
-179 -181 210 0
-180 -181 210 0
-210 181 0
-210 178 179 180 0
-178 -182 212 0
-179 -182 212 0
-180 -182 212 0
-212 182 0
-212 178 179 180 0
-178 -183 214 0
-179 -183 214 0
-180 -183 214 0
-214 183 0
-214 178 179 180 0
-178 -184 216 0
-179 -184 216 0
-180 -184 216 0
-216 184 0
-216 178 179 180 0
-179 -181 218 0
-180 -181 218 0
-218 181 0
-218 179 180 0
-179 -182 220 0
-180 -182 220 0
-220 182 0
-220 179 180 0
-179 -183 222 0
-180 -183 222 0
-222 183 0
-222 179 180 0
-179 -184 224 0
-180 -184 224 0
-224 184 0
-224 179 180 0
-180 -181 226 0
-226 181 0
-226 180 0
-180 -182 228 0
-228 182 0
-228 180 0
-180 -183 230 0
-230 183 0
-230 180 0
-180 -184 232 0
-232 184 0
-232 180 0
-12 234 0
-71 234 0
-129 234 0
-186 234 0
-234 12 71 129 186 0
-14 235 0
-73 235 0
-131 235 0
-188 235 0
-235 14 73 131 188 0
-16 236 0
-75 236 0
-133 236 0
-190 236 0
-236 16 75 133 190 0
-18 237 0
-77 237 0
-135 237 0
-192 237 0
-237 18 77 135 192 0
-20 238 0
-79 238 0
-137 238 0
-194 238 0
-238 20 79 137 194 0
-22 239 0
-81 239 0
-139 239 0
-196 239 0
-239 22 81 139 196 0
-24 240 0
-83 240 0
-141 240 0
-198 240 0
-240 24 83 141 198 0
-26 241 0
-85 241 0
-143 241 0
-200 241 0
-241 26 85 143 200 0
-28 242 0
-87 242 0
-145 242 0
-202 242 0
-242 28 87 145 202 0
-30 243 0
-89 243 0
-147 243 0
-204 243 0
-243 30 89 147 204 0
-32 244 0
-91 244 0
-149 244 0
-206 244 0
-244 32 91 149 206 0
-34 245 0
-93 245 0
-151 245 0
-208 245 0
-245 34 93 151 208 0
-36 246 0
-95 246 0
-153 246 0
-210 246 0
-246 36 95 153 210 0
-38 247 0
-97 247 0
-155 247 0
-212 247 0
-247 38 97 155 212 0
-40 248 0
-99 248 0
-157 248 0
-214 248 0
-248 40 99 157 214 0
-42 249 0
-101 249 0
-159 249 0
-216 249 0
-249 42 101 159 216 0
-44 250 0
-103 250 0
-161 250 0
-218 250 0
-250 44 103 161 218 0
-46 251 0
-105 251 0
-163 251 0
-220 251 0
-251 46 105 163 220 0
-48 252 0
-107 252 0
-165 252 0
-222 252 0
-252 48 107 165 222 0
-50 253 0
-109 253 0
-167 253 0
-224 253 0
-253 50 109 167 224 0
-52 254 0
-111 254 0
-169 254 0
-226 254 0
-254 52 111 169 226 0
-54 255 0
-113 255 0
-171 255 0
-228 255 0
-255 54 113 171 228 0
-56 256 0
-115 256 0
-173 256 0
-230 256 0
-256 56 115 173 230 0
-58 257 0
-117 257 0
-175 257 0
-232 257 0
-257 58 117 175 232 0
-12 -71 0
-14 -73 0
-16 -75 0
-18 -77 0
-20 -79 0
-22 -81 0
-24 -83 0
-26 -85 0
-28 -87 0
-30 -89 0
-32 -91 0
-34 -93 0
-36 -95 0
-38 -97 0
-40 -99 0
-42 -101 0
-44 -103 0
-46 -105 0
-48 -107 0
-50 -109 0
-52 -111 0
-54 -113 0
-56 -115 0
-58 -117 0
-12 -129 0
-14 -131 0
-16 -133 0
-18 -135 0
-20 -137 0
-22 -139 0
-24 -141 0
-26 -143 0
-28 -145 0
-30 -147 0
-32 -149 0
-34 -151 0
-36 -153 0
-38 -155 0
-40 -157 0
-42 -159 0
-44 -161 0
-46 -163 0
-48 -165 0
-50 -167 0
-52 -169 0
-54 -171 0
-56 -173 0
-58 -175 0
-12 -186 0
-14 -188 0
-16 -190 0
-18 -192 0
-20 -194 0
-22 -196 0
-24 -198 0
-26 -200 0
-28 -202 0
-30 -204 0
-32 -206 0
-34 -208 0
-36 -210 0
-38 -212 0
-40 -214 0
-42 -216 0
-44 -218 0
-46 -220 0
-48 -222 0
-50 -224 0
-52 -226 0
-54 -228 0
-56 -230 0
-58 -232 0
-71 -129 0
-73 -131 0
-75 -133 0
-77 -135 0
-79 -137 0
-81 -139 0
-83 -141 0
-85 -143 0
-87 -145 0
-89 -147 0
-91 -149 0
-93 -151 0
-95 -153 0
-97 -155 0
-99 -157 0
-101 -159 0
-103 -161 0
-105 -163 0
-107 -165 0
-109 -167 0
-111 -169 0
-113 -171 0
-115 -173 0
-117 -175 0
-71 -186 0
-73 -188 0
-75 -190 0
-77 -192 0
-79 -194 0
-81 -196 0
-83 -198 0
-85 -200 0
-87 -202 0
-89 -204 0
-91 -206 0
-93 -208 0
-95 -210 0
-97 -212 0
-99 -214 0
-101 -216 0
-103 -218 0
-105 -220 0
-107 -222 0
-109 -224 0
-111 -226 0
-113 -228 0
-115 -230 0
-117 -232 0
-129 -186 0
-131 -188 0
-133 -190 0
-135 -192 0
-137 -194 0
-139 -196 0
-141 -198 0
-143 -200 0
-145 -202 0
-147 -204 0
-149 -206 0
-151 -208 0
-153 -210 0
-155 -212 0
-157 -214 0
-159 -216 0
-161 -218 0
-163 -220 0
-165 -222 0
-167 -224 0
-169 -226 0
-171 -228 0
-173 -230 0
-175 -232 0
-1 -8 234 0
-1 -9 235 0
-1 -10 236 0
-2 -8 238 0
-2 -9 239 0
-2 -10 240 0
-3 -8 242 0
-3 -9 243 0
-3 -10 244 0
-4 -8 246 0
-4 -9 247 0
-4 -10 248 0
-5 -8 250 0
-5 -9 251 0
-5 -10 252 0
-6 -8 254 0
-6 -9 255 0
-6 -10 256 0
-60 -67 234 0
-60 -68 235 0
-60 -69 236 0
-61 -67 238 0
-61 -68 239 0
-61 -69 240 0
-62 -67 242 0
-62 -68 243 0
-62 -69 244 0
-63 -67 246 0
-63 -68 247 0
-63 -69 248 0
-64 -67 250 0
-64 -68 251 0
-64 -69 252 0
-65 -67 254 0
-65 -68 255 0
-65 -69 256 0
-119 -125 234 238 0
-119 -126 235 239 0
-119 -127 236 240 0
-120 -125 238 242 0
-120 -126 239 243 0
-120 -127 240 244 0
-121 -125 242 246 0
-121 -126 243 247 0
-121 -127 244 248 0
-122 -125 246 250 0
-122 -126 247 251 0
-122 -127 248 252 0
-123 -125 250 254 0
-123 -126 251 255 0
-123 -127 252 256 0
-177 -182 234 238 0
-177 -182 234 242 0
-177 -182 238 242 0
-177 -183 235 239 0
-177 -183 235 243 0
-177 -183 239 243 0
-177 -184 236 240 0
-177 -184 236 244 0
-177 -184 240 244 0
-178 -182 238 242 0
-178 -182 238 246 0
-178 -182 242 246 0
-178 -183 239 243 0
-178 -183 239 247 0
-178 -183 243 247 0
-178 -184 240 244 0
-178 -184 240 248 0
-178 -184 244 248 0
-179 -182 242 246 0
-179 -182 242 250 0
-179 -182 246 250 0
-179 -183 243 247 0
-179 -183 243 251 0
-179 -183 247 251 0
-179 -184 244 248 0
-179 -184 244 252 0
-179 -184 248 252 0
-180 -182 246 250 0
-180 -182 246 254 0
-180 -182 250 254 0
-180 -183 247 251 0
-180 -183 247 255 0
-180 -183 251 255 0
-180 -184 248 252 0
-180 -184 248 256 0
-180 -184 252 256 0
-12 -235 13 0
-13 12 0
-13 235 0
-14 -236 15 0
-15 14 0
-15 236 0
-16 -237 17 0
-17 16 0
-17 237 0
-19 0
-20 -239 21 0
-21 20 0
-21 239 0
-22 -240 23 0
-23 22 0
-23 240 0
-24 -241 25 0
-25 24 0
-25 241 0
-27 0
-28 -243 29 0
-29 28 0
-29 243 0
-30 -244 31 0
-31 30 0
-31 244 0
-32 -245 33 0
-33 32 0
-33 245 0
-35 0
-36 -247 37 0
-37 36 0
-37 247 0
-38 -248 39 0
-39 38 0
-39 248 0
-40 -249 41 0
-41 40 0
-41 249 0
-43 0
-44 -251 45 0
-45 44 0
-45 251 0
-46 -252 47 0
-47 46 0
-47 252 0
-48 -253 49 0
-49 48 0
-49 253 0
-51 0
-52 -255 53 0
-53 52 0
-53 255 0
-54 -256 55 0
-55 54 0
-55 256 0
-56 -257 57 0
-57 56 0
-57 257 0
-59 0
-11 -13 0
-11 -15 0
-11 -17 0
-11 -19 0
-11 -21 0
-11 -23 0
-11 -25 0
-11 -27 0
-11 -29 0
-11 -31 0
-11 -33 0
-11 -35 0
-11 -37 0
-11 -39 0
-11 -41 0
-11 -43 0
-11 -45 0
-11 -47 0
-11 -49 0
-11 -51 0
-11 -53 0
-11 -55 0
-11 -57 0
-11 -59 0
11 13 15 17 19 21 23 25 27 29 31 33 35 37 39 41 43 45 47 49 51 53 55 57 59 0
-71 -235 72 0
-72 71 0
-72 235 0
-73 -236 74 0
-74 73 0
-74 236 0
-75 -237 76 0
-76 75 0
-76 237 0
-78 0
-79 -239 80 0
-80 79 0
-80 239 0
-81 -240 82 0
-82 81 0
-82 240 0
-83 -241 84 0
-84 83 0
-84 241 0
-86 0
-87 -243 88 0
-88 87 0
-88 243 0
-89 -244 90 0
-90 89 0
-90 244 0
-91 -245 92 0
-92 91 0
-92 245 0
-94 0
-95 -247 96 0
-96 95 0
-96 247 0
-97 -248 98 0
-98 97 0
-98 248 0
-99 -249 100 0
-100 99 0
-100 249 0
-102 0
-103 -251 104 0
-104 103 0
-104 251 0
-105 -252 106 0
-106 105 0
-106 252 0
-107 -253 108 0
-108 107 0
-108 253 0
-110 0
-111 -255 112 0
-112 111 0
-112 255 0
-113 -256 114 0
-114 113 0
-114 256 0
-115 -257 116 0
-116 115 0
-116 257 0
-118 0
-70 -72 0
-70 -74 0
-70 -76 0
-70 -78 0
-70 -80 0
-70 -82 0
-70 -84 0
-70 -86 0
-70 -88 0
-70 -90 0
-70 -92 0
-70 -94 0
-70 -96 0
-70 -98 0
-70 -100 0
-70 -102 0
-70 -104 0
-70 -106 0
-70 -108 0
-70 -110 0
-70 -112 0
-70 -114 0
-70 -116 0
-70 -118 0
70 72 74 76 78 80 82 84 86 88 90 92 94 96 98 100 102 104 106 108 110 112 114 116 118 0
-129 -235 130 0
-130 129 0
-130 235 0
-131 -236 132 0
-132 131 0
-132 236 0
-133 -237 134 0
-134 133 0
-134 237 0
-136 0
-137 -239 138 0
-138 137 0
-138 239 0
-139 -240 140 0
-140 139 0
-140 240 0
-141 -241 142 0
-142 141 0
-142 241 0
-144 0
-145 -243 146 0
-146 145 0
-146 243 0
-147 -244 148 0
-148 147 0
-148 244 0
-149 -245 150 0
-150 149 0
-150 245 0
-152 0
-153 -247 154 0
-154 153 0
-154 247 0
-155 -248 156 0
-156 155 0
-156 248 0
-157 -249 158 0
-158 157 0
-158 249 0
-160 0
-161 -251 162 0
-162 161 0
-162 251 0
-163 -252 164 0
-164 163 0
-164 252 0
-165 -253 166 0
-166 165 0
-166 253 0
-168 0
-169 -255 170 0
-170 169 0
-170 255 0
-171 -256 172 0
-172 171 0
-172 256 0
-173 -257 174 0
-174 173 0
-174 257 0
-176 0
-128 -130 0
-128 -132 0
-128 -134 0
-128 -136 0
-128 -138 0
-128 -140 0
-128 -142 0
-128 -144 0
-128 -146 0
-128 -148 0
-128 -150 0
-128 -152 0
-128 -154 0
-128 -156 0
-128 -158 0
-128 -160 0
-128 -162 0
-128 -164 0
-128 -166 0
-128 -168 0
-128 -170 0
-128 -172 0
-128 -174 0
-128 -176 0
128 130 132 134 136 138 140 142 144 146 148 150 152 154 156 158 160 162 164 166 168 170 172 174 176 0
-186 -235 187 0
-187 186 0
-187 235 0
-188 -236 189 0
-189 188 0
-189 236 0
-190 -237 191 0
-191 190 0
-191 237 0
-193 0
-194 -239 195 0
-195 194 0
-195 239 0
-196 -240 197 0
-197 196 0
-197 240 0
-198 -241 199 0
-199 198 0
-199 241 0
-201 0
-202 -243 203 0
-203 202 0
-203 243 0
-204 -244 205 0
-205 204 0
-205 244 0
-206 -245 207 0
-207 206 0
-207 245 0
-209 0
-210 -247 211 0
-211 210 0
-211 247 0
-212 -248 213 0
-213 212 0
-213 248 0
-214 -249 215 0
-215 214 0
-215 249 0
-217 0
-218 -251 219 0
-219 218 0
-219 251 0
-220 -252 221 0
-221 220 0
-221 252 0
-222 -253 223 0
-223 222 0
-223 253 0
-225 0
-226 -255 227 0
-227 226 0
-227 255 0
-228 -256 229 0
-229 228 0
-229 256 0
-230 -257 231 0
-231 230 0
-231 257 0
-233 0
-185 -187 0
-185 -189 0
-185 -191 0
-185 -193 0
-185 -195 0
-185 -197 0
-185 -199 0
-185 -201 0
-185 -203 0
-185 -205 0
-185 -207 0
-185 -209 0
-185 -211 0
-185 -213 0
-185 -215 0
-185 -217 0
-185 -219 0
-185 -221 0
-185 -223 0
-185 -225 0
-185 -227 0
-185 -229 0
-185 -231 0
-185 -233 0
185 187 189 191 193 195 197 199 201 203 205 207 209 211 213 215 217 219 221 223 225 227 229 231 233 0
258 259 260 261 262 263 0
-258 -259 0
-258 -260 0
-258 -261 0
-258 -262 0
-258 -263 0
-259 -260 0
-259 -261 0
-259 -262 0
-259 -263 0
-260 -261 0
-260 -262 0
-260 -263 0
-261 -262 0
-261 -263 0
-262 -263 0
264 265 266 267 0
-264 -265 0
-264 -266 0
-264 -267 0
-265 -266 0
-265 -267 0
-266 -267 0
317 318 319 320 321 322 0
-317 -318 0
-317 -319 0
-317 -320 0
-317 -321 0
-317 -322 0
-318 -319 0
-318 -320 0
-318 -321 0
-318 -322 0
-319 -320 0
-319 -321 0
-319 -322 0
-320 -321 0
-320 -322 0
-321 -322 0
323 324 325 326 0
-323 -324 0
-323 -325 0
-323 -326 0
-324 -325 0
-324 -326 0
-325 -326 0
376 377 378 379 380 0
-376 -377 0
-376 -378 0
-376 -379 0
-376 -380 0
-377 -378 0
-377 -379 0
-377 -380 0
-378 -379 0
-378 -380 0
-379 -380 0
381 382 383 384 0
-381 -382 0
-381 -383 0
-381 -384 0
-382 -383 0
-382 -384 0
-383 -384 0
434 435 436 437 0
-434 -435 0
-434 -436 0
-434 -437 0
-435 -436 0
-435 -437 0
-436 -437 0
438 439 440 441 0
-438 -439 0
-438 -440 0
-438 -441 0
-439 -440 0
-439 -441 0
-440 -441 0
-258 -264 269 0
-269 264 0
-269 258 0
-258 -265 271 0
-271 265 0
-271 258 0
-258 -266 273 0
-273 266 0
-273 258 0
-258 -267 275 0
-275 267 0
-275 258 0
-259 -264 277 0
-277 264 0
-277 259 0
-259 -265 279 0
-279 265 0
-279 259 0
-259 -266 281 0
-281 266 0
-281 259 0
-259 -267 283 0
-283 267 0
-283 259 0
-260 -264 285 0
-285 264 0
-285 260 0
-260 -265 287 0
-287 265 0
-287 260 0
-260 -266 289 0
-289 266 0
-289 260 0
-260 -267 291 0
-291 267 0
-291 260 0
-261 -264 293 0
-293 264 0
-293 261 0
-261 -265 295 0
-295 265 0
-295 261 0
-261 -266 297 0
-297 266 0
-297 261 0
-261 -267 299 0
-299 267 0
-299 261 0
-262 -264 301 0
-301 264 0
-301 262 0
-262 -265 303 0
-303 265 0
-303 262 0
-262 -266 305 0
-305 266 0
-305 262 0
-262 -267 307 0
-307 267 0
-307 262 0
-263 -264 309 0
-309 264 0
-309 263 0
-263 -265 311 0
-311 265 0
-311 263 0
-263 -266 313 0
-313 266 0
-313 263 0
-263 -267 315 0
-315 267 0
-315 263 0
-317 -323 328 0
-328 323 0
-328 317 0
-317 -324 330 0
-330 324 0
-330 317 0
-317 -325 332 0
-332 325 0
-332 317 0
-317 -326 334 0
-334 326 0
-334 317 0
-318 -323 336 0
-336 323 0
-336 318 0
-318 -324 338 0
-338 324 0
-338 318 0
-318 -325 340 0
-340 325 0
-340 318 0
-318 -326 342 0
-342 326 0
-342 318 0
-319 -323 344 0
-344 323 0
-344 319 0
-319 -324 346 0
-346 324 0
-346 319 0
-319 -325 348 0
-348 325 0
-348 319 0
-319 -326 350 0
-350 326 0
-350 319 0
-320 -323 352 0
-352 323 0
-352 320 0
-320 -324 354 0
-354 324 0
-354 320 0
-320 -325 356 0
-356 325 0
-356 320 0
-320 -326 358 0
-358 326 0
-358 320 0
-321 -323 360 0
-360 323 0
-360 321 0
-321 -324 362 0
-362 324 0
-362 321 0
-321 -325 364 0
-364 325 0
-364 321 0
-321 -326 366 0
-366 326 0
-366 321 0
-322 -323 368 0
-368 323 0
-368 322 0
-322 -324 370 0
-370 324 0
-370 322 0
-322 -325 372 0
-372 325 0
-372 322 0
-322 -326 374 0
-374 326 0
-374 322 0
-376 -381 386 0
-386 381 0
-386 376 0
-376 -382 388 0
-388 382 0
-388 376 0
-376 -383 390 0
-390 383 0
-390 376 0
-376 -384 392 0
-392 384 0
-392 376 0
-376 -381 394 0
-377 -381 394 0
-394 381 0
-394 376 377 0
-376 -382 396 0
-377 -382 396 0
-396 382 0
-396 376 377 0
-376 -383 398 0
-377 -383 398 0
-398 383 0
-398 376 377 0
-376 -384 400 0
-377 -384 400 0
-400 384 0
-400 376 377 0
-377 -381 402 0
-378 -381 402 0
-402 381 0
-402 377 378 0
-377 -382 404 0
-378 -382 404 0
-404 382 0
-404 377 378 0
-377 -383 406 0
-378 -383 406 0
-406 383 0
-406 377 378 0
-377 -384 408 0
-378 -384 408 0
-408 384 0
-408 377 378 0
-378 -381 410 0
-379 -381 410 0
-410 381 0
-410 378 379 0
-378 -382 412 0
-379 -382 412 0
-412 382 0
-412 378 379 0
-378 -383 414 0
-379 -383 414 0
-414 383 0
-414 378 379 0
-378 -384 416 0
-379 -384 416 0
-416 384 0
-416 378 379 0
-379 -381 418 0
-380 -381 418 0
-418 381 0
-418 379 380 0
-379 -382 420 0
-380 -382 420 0
-420 382 0
-420 379 380 0
-379 -383 422 0
-380 -383 422 0
-422 383 0
-422 379 380 0
-379 -384 424 0
-380 -384 424 0
-424 384 0
-424 379 380 0
-380 -381 426 0
-426 381 0
-426 380 0
-380 -382 428 0
-428 382 0
-428 380 0
-380 -383 430 0
-430 383 0
-430 380 0
-380 -384 432 0
-432 384 0
-432 380 0
-434 -438 443 0
-443 438 0
-443 434 0
-434 -439 445 0
-445 439 0
-445 434 0
-434 -440 447 0
-447 440 0
-447 434 0
-434 -441 449 0
-449 441 0
-449 434 0
-434 -438 451 0
-435 -438 451 0
-451 438 0
-451 434 435 0
-434 -439 453 0
-435 -439 453 0
-453 439 0
-453 434 435 0
-434 -440 455 0
-435 -440 455 0
-455 440 0
-455 434 435 0
-434 -441 457 0
-435 -441 457 0
-457 441 0
-457 434 435 0
-434 -438 459 0
-435 -438 459 0
-436 -438 459 0
-459 438 0
-459 434 435 436 0
-434 -439 461 0
-435 -439 461 0
-436 -439 461 0
-461 439 0
-461 434 435 436 0
-434 -440 463 0
-435 -440 463 0
-436 -440 463 0
-463 440 0
-463 434 435 436 0
-434 -441 465 0
-435 -441 465 0
-436 -441 465 0
-465 441 0
-465 434 435 436 0
-435 -438 467 0
-436 -438 467 0
-437 -438 467 0
-467 438 0
-467 435 436 437 0
-435 -439 469 0
-436 -439 469 0
-437 -439 469 0
-469 439 0
-469 435 436 437 0
-435 -440 471 0
-436 -440 471 0
-437 -440 471 0
-471 440 0
-471 435 436 437 0
-435 -441 473 0
-436 -441 473 0
-437 -441 473 0
-473 441 0
-473 435 436 437 0
-436 -438 475 0
-437 -438 475 0
-475 438 0
-475 436 437 0
-436 -439 477 0
-437 -439 477 0
-477 439 0
-477 436 437 0
-436 -440 479 0
-437 -440 479 0
-479 440 0
-479 436 437 0
-436 -441 481 0
-437 -441 481 0
-481 441 0
-481 436 437 0
-437 -438 483 0
-483 438 0
-483 437 0
-437 -439 485 0
-485 439 0
-485 437 0
-437 -440 487 0
-487 440 0
-487 437 0
-437 -441 489 0
-489 441 0
-489 437 0
-269 491 0
-328 491 0
-386 491 0
-443 491 0
-491 269 328 386 443 0
-271 492 0
-330 492 0
-388 492 0
-445 492 0
-492 271 330 388 445 0
-273 493 0
-332 493 0
-390 493 0
-447 493 0
-493 273 332 390 447 0
-275 494 0
-334 494 0
-392 494 0
-449 494 0
-494 275 334 392 449 0
-277 495 0
-336 495 0
-394 495 0
-451 495 0
-495 277 336 394 451 0
-279 496 0
-338 496 0
-396 496 0
-453 496 0
-496 279 338 396 453 0
-281 497 0
-340 497 0
-398 497 0
-455 497 0
-497 281 340 398 455 0
-283 498 0
-342 498 0
-400 498 0
-457 498 0
-498 283 342 400 457 0
-285 499 0
-344 499 0
-402 499 0
-459 499 0
-499 285 344 402 459 0
-287 500 0
-346 500 0
-404 500 0
-461 500 0
-500 287 346 404 461 0
-289 501 0
-348 501 0
-406 501 0
-463 501 0
-501 289 348 406 463 0
-291 502 0
-350 502 0
-408 502 0
-465 502 0
-502 291 350 408 465 0
-293 503 0
-352 503 0
-410 503 0
-467 503 0
-503 293 352 410 467 0
-295 504 0
-354 504 0
-412 504 0
-469 504 0
-504 295 354 412 469 0
-297 505 0
-356 505 0
-414 505 0
-471 505 0
-505 297 356 414 471 0
-299 506 0
-358 506 0
-416 506 0
-473 506 0
-506 299 358 416 473 0
-301 507 0
-360 507 0
-418 507 0
-475 507 0
-507 301 360 418 475 0
-303 508 0
-362 508 0
-420 508 0
-477 508 0
-508 303 362 420 477 0
-305 509 0
-364 509 0
-422 509 0
-479 509 0
-509 305 364 422 479 0
-307 510 0
-366 510 0
-424 510 0
-481 510 0
-510 307 366 424 481 0
-309 511 0
-368 511 0
-426 511 0
-483 511 0
-511 309 368 426 483 0
-311 512 0
-370 512 0
-428 512 0
-485 512 0
-512 311 370 428 485 0
-313 513 0
-372 513 0
-430 513 0
-487 513 0
-513 313 372 430 487 0
-315 514 0
-374 514 0
-432 514 0
-489 514 0
-514 315 374 432 489 0
-269 -328 0
-271 -330 0
-273 -332 0
-275 -334 0
-277 -336 0
-279 -338 0
-281 -340 0
-283 -342 0
-285 -344 0
-287 -346 0
-289 -348 0
-291 -350 0
-293 -352 0
-295 -354 0
-297 -356 0
-299 -358 0
-301 -360 0
-303 -362 0
-305 -364 0
-307 -366 0
-309 -368 0
-311 -370 0
-313 -372 0
-315 -374 0
-269 -386 0
-271 -388 0
-273 -390 0
-275 -392 0
-277 -394 0
-279 -396 0
-281 -398 0
-283 -400 0
-285 -402 0
-287 -404 0
-289 -406 0
-291 -408 0
-293 -410 0
-295 -412 0
-297 -414 0
-299 -416 0
-301 -418 0
-303 -420 0
-305 -422 0
-307 -424 0
-309 -426 0
-311 -428 0
-313 -430 0
-315 -432 0
-269 -443 0
-271 -445 0
-273 -447 0
-275 -449 0
-277 -451 0
-279 -453 0
-281 -455 0
-283 -457 0
-285 -459 0
-287 -461 0
-289 -463 0
-291 -465 0
-293 -467 0
-295 -469 0
-297 -471 0
-299 -473 0
-301 -475 0
-303 -477 0
-305 -479 0
-307 -481 0
-309 -483 0
-311 -485 0
-313 -487 0
-315 -489 0
-328 -386 0
-330 -388 0
-332 -390 0
-334 -392 0
-336 -394 0
-338 -396 0
-340 -398 0
-342 -400 0
-344 -402 0
-346 -404 0
-348 -406 0
-350 -408 0
-352 -410 0
-354 -412 0
-356 -414 0
-358 -416 0
-360 -418 0
-362 -420 0
-364 -422 0
-366 -424 0
-368 -426 0
-370 -428 0
-372 -430 0
-374 -432 0
-328 -443 0
-330 -445 0
-332 -447 0
-334 -449 0
-336 -451 0
-338 -453 0
-340 -455 0
-342 -457 0
-344 -459 0
-346 -461 0
-348 -463 0
-350 -465 0
-352 -467 0
-354 -469 0
-356 -471 0
-358 -473 0
-360 -475 0
-362 -477 0
-364 -479 0
-366 -481 0
-368 -483 0
-370 -485 0
-372 -487 0
-374 -489 0
-386 -443 0
-388 -445 0
-390 -447 0
-392 -449 0
-394 -451 0
-396 -453 0
-398 -455 0
-400 -457 0
-402 -459 0
-404 -461 0
-406 -463 0
-408 -465 0
-410 -467 0
-412 -469 0
-414 -471 0
-416 -473 0
-418 -475 0
-420 -477 0
-422 -479 0
-424 -481 0
-426 -483 0
-428 -485 0
-430 -487 0
-432 -489 0
-258 -265 491 0
-258 -266 492 0
-258 -267 493 0
-259 -265 495 0
-259 -266 496 0
-259 -267 497 0
-260 -265 499 0
-260 -266 500 0
-260 -267 501 0
-261 -265 503 0
-261 -266 504 0
-261 -267 505 0
-262 -265 507 0
-262 -266 508 0
-262 -267 509 0
-263 -265 511 0
-263 -266 512 0
-263 -267 513 0
-317 -324 491 0
-317 -325 492 0
-317 -326 493 0
-318 -324 495 0
-318 -325 496 0
-318 -326 497 0
-319 -324 499 0
-319 -325 500 0
-319 -326 501 0
-320 -324 503 0
-320 -325 504 0
-320 -326 505 0
-321 -324 507 0
-321 -325 508 0
-321 -326 509 0
-322 -324 511 0
-322 -325 512 0
-322 -326 513 0
-376 -382 491 495 0
-376 -383 492 496 0
-376 -384 493 497 0
-377 -382 495 499 0
-377 -383 496 500 0
-377 -384 497 501 0
-378 -382 499 503 0
-378 -383 500 504 0
-378 -384 501 505 0
-379 -382 503 507 0
-379 -383 504 508 0
-379 -384 505 509 0
-380 -382 507 511 0
-380 -383 508 512 0
-380 -384 509 513 0
-434 -439 491 495 0
-434 -439 491 499 0
-434 -439 495 499 0
-434 -440 492 496 0
-434 -440 492 500 0
-434 -440 496 500 0
-434 -441 493 497 0
-434 -441 493 501 0
-434 -441 497 501 0
-435 -439 495 499 0
-435 -439 495 503 0
-435 -439 499 503 0
-435 -440 496 500 0
-435 -440 496 504 0
-435 -440 500 504 0
-435 -441 497 501 0
-435 -441 497 505 0
-435 -441 501 505 0
-436 -439 499 503 0
-436 -439 499 507 0
-436 -439 503 507 0
-436 -440 500 504 0
-436 -440 500 508 0
-436 -440 504 508 0
-436 -441 501 505 0
-436 -441 501 509 0
-436 -441 505 509 0
-437 -439 503 507 0
-437 -439 503 511 0
-437 -439 507 511 0
-437 -440 504 508 0
-437 -440 504 512 0
-437 -440 508 512 0
-437 -441 505 509 0
-437 -441 505 513 0
-437 -441 509 513 0
-269 -492 270 0
-270 269 0
-270 492 0
-271 -493 272 0
-272 271 0
-272 493 0
-273 -494 274 0
-274 273 0
-274 494 0
-276 0
-277 -496 278 0
-278 277 0
-278 496 0
-279 -497 280 0
-280 279 0
-280 497 0
-281 -498 282 0
-282 281 0
-282 498 0
-284 0
-285 -500 286 0
-286 285 0
-286 500 0
-287 -501 288 0
-288 287 0
-288 501 0
-289 -502 290 0
-290 289 0
-290 502 0
-292 0
-293 -504 294 0
-294 293 0
-294 504 0
-295 -505 296 0
-296 295 0
-296 505 0
-297 -506 298 0
-298 297 0
-298 506 0
-300 0
-301 -508 302 0
-302 301 0
-302 508 0
-303 -509 304 0
-304 303 0
-304 509 0
-305 -510 306 0
-306 305 0
-306 510 0
-308 0
-309 -512 310 0
-310 309 0
-310 512 0
-311 -513 312 0
-312 311 0
-312 513 0
-313 -514 314 0
-314 313 0
-314 514 0
-316 0
-268 -270 0
-268 -272 0
-268 -274 0
-268 -276 0
-268 -278 0
-268 -280 0
-268 -282 0
-268 -284 0
-268 -286 0
-268 -288 0
-268 -290 0
-268 -292 0
-268 -294 0
-268 -296 0
-268 -298 0
-268 -300 0
-268 -302 0
-268 -304 0
-268 -306 0
-268 -308 0
-268 -310 0
-268 -312 0
-268 -314 0
-268 -316 0
268 270 272 274 276 278 280 282 284 286 288 290 292 294 296 298 300 302 304 306 308 310 312 314 316 0
-328 -492 329 0
-329 328 0
-329 492 0
-330 -493 331 0
-331 330 0
-331 493 0
-332 -494 333 0
-333 332 0
-333 494 0
-335 0
-336 -496 337 0
-337 336 0
-337 496 0
-338 -497 339 0
-339 338 0
-339 497 0
-340 -498 341 0
-341 340 0
-341 498 0
-343 0
-344 -500 345 0
-345 344 0
-345 500 0
-346 -501 347 0
-347 346 0
-347 501 0
-348 -502 349 0
-349 348 0
-349 502 0
-351 0
-352 -504 353 0
-353 352 0
-353 504 0
-354 -505 355 0
-355 354 0
-355 505 0
-356 -506 357 0
-357 356 0
-357 506 0
-359 0
-360 -508 361 0
-361 360 0
-361 508 0
-362 -509 363 0
-363 362 0
-363 509 0
-364 -510 365 0
-365 364 0
-365 510 0
-367 0
-368 -512 369 0
-369 368 0
-369 512 0
-370 -513 371 0
-371 370 0
-371 513 0
-372 -514 373 0
-373 372 0
-373 514 0
-375 0
-327 -329 0
-327 -331 0
-327 -333 0
-327 -335 0
-327 -337 0
-327 -339 0
-327 -341 0
-327 -343 0
-327 -345 0
-327 -347 0
-327 -349 0
-327 -351 0
-327 -353 0
-327 -355 0
-327 -357 0
-327 -359 0
-327 -361 0
-327 -363 0
-327 -365 0
-327 -367 0
-327 -369 0
-327 -371 0
-327 -373 0
-327 -375 0
327 329 331 333 335 337 339 341 343 345 347 349 351 353 355 357 359 361 363 365 367 369 371 373 375 0
-386 -492 387 0
-387 386 0
-387 492 0
-388 -493 389 0
-389 388 0
-389 493 0
-390 -494 391 0
-391 390 0
-391 494 0
-393 0
-394 -496 395 0
-395 394 0
-395 496 0
-396 -497 397 0
-397 396 0
-397 497 0
-398 -498 399 0
-399 398 0
-399 498 0
-401 0
-402 -500 403 0
-403 402 0
-403 500 0
-404 -501 405 0
-405 404 0
-405 501 0
-406 -502 407 0
-407 406 0
-407 502 0
-409 0
-410 -504 411 0
-411 410 0
-411 504 0
-412 -505 413 0
-413 412 0
-413 505 0
-414 -506 415 0
-415 414 0
-415 506 0
-417 0
-418 -508 419 0
-419 418 0
-419 508 0
-420 -509 421 0
-421 420 0
-421 509 0
-422 -510 423 0
-423 422 0
-423 510 0
-425 0
-426 -512 427 0
-427 426 0
-427 512 0
-428 -513 429 0
-429 428 0
-429 513 0
-430 -514 431 0
-431 430 0
-431 514 0
-433 0
-385 -387 0
-385 -389 0
-385 -391 0
-385 -393 0
-385 -395 0
-385 -397 0
-385 -399 0
-385 -401 0
-385 -403 0
-385 -405 0
-385 -407 0
-385 -409 0
-385 -411 0
-385 -413 0
-385 -415 0
-385 -417 0
-385 -419 0
-385 -421 0
-385 -423 0
-385 -425 0
-385 -427 0
-385 -429 0
-385 -431 0
-385 -433 0
385 387 389 391 393 395 397 399 401 403 405 407 409 411 413 415 417 419 421 423 425 427 429 431 433 0
-443 -492 444 0
-444 443 0
-444 492 0
-445 -493 446 0
-446 445 0
-446 493 0
-447 -494 448 0
-448 447 0
-448 494 0
-450 0
-451 -496 452 0
-452 451 0
-452 496 0
-453 -497 454 0
-454 453 0
-454 497 0
-455 -498 456 0
-456 455 0
-456 498 0
-458 0
-459 -500 460 0
-460 459 0
-460 500 0
-461 -501 462 0
-462 461 0
-462 501 0
-463 -502 464 0
-464 463 0
-464 502 0
-466 0
-467 -504 468 0
-468 467 0
-468 504 0
-469 -505 470 0
-470 469 0
-470 505 0
-471 -506 472 0
-472 471 0
-472 506 0
-474 0
-475 -508 476 0
-476 475 0
-476 508 0
-477 -509 478 0
-478 477 0
-478 509 0
-479 -510 480 0
-480 479 0
-480 510 0
-482 0
-483 -512 484 0
-484 483 0
-484 512 0
-485 -513 486 0
-486 485 0
-486 513 0
-487 -514 488 0
-488 487 0
-488 514 0
-490 0
-442 -444 0
-442 -446 0
-442 -448 0
-442 -450 0
-442 -452 0
-442 -454 0
-442 -456 0
-442 -458 0
-442 -460 0
-442 -462 0
-442 -464 0
-442 -466 0
-442 -468 0
-442 -470 0
-442 -472 0
-442 -474 0
-442 -476 0
-442 -478 0
-442 -480 0
-442 -482 0
-442 -484 0
-442 -486 0
-442 -488 0
-442 -490 0
442 444 446 448 450 452 454 456 458 460 462 464 466 468 470 472 474 476 478 480 482 484 486 488 490 0
515 516 517 518 519 520 0
-515 -516 0
-515 -517 0
-515 -518 0
-515 -519 0
-515 -520 0
-516 -517 0
-516 -518 0
-516 -519 0
-516 -520 0
-517 -518 0
-517 -519 0
-517 -520 0
-518 -519 0
-518 -520 0
-519 -520 0
521 522 523 524 0
-521 -522 0
-521 -523 0
-521 -524 0
-522 -523 0
-522 -524 0
-523 -524 0
574 575 576 577 578 579 0
-574 -575 0
-574 -576 0
-574 -577 0
-574 -578 0
-574 -579 0
-575 -576 0
-575 -577 0
-575 -578 0
-575 -579 0
-576 -577 0
-576 -578 0
-576 -579 0
-577 -578 0
-577 -579 0
-578 -579 0
580 581 582 583 0
-580 -581 0
-580 -582 0
-580 -583 0
-581 -582 0
-581 -583 0
-582 -583 0
633 634 635 636 637 0
-633 -634 0
-633 -635 0
-633 -636 0
-633 -637 0
-634 -635 0
-634 -636 0
-634 -637 0
-635 -636 0
-635 -637 0
-636 -637 0
638 639 640 641 0
-638 -639 0
-638 -640 0
-638 -641 0
-639 -640 0
-639 -641 0
-640 -641 0
691 692 693 694 0
-691 -692 0
-691 -693 0
-691 -694 0
-692 -693 0
-692 -694 0
-693 -694 0
695 696 697 698 0
-695 -696 0
-695 -697 0
-695 -698 0
-696 -697 0
-696 -698 0
-697 -698 0
-515 -521 526 0
-526 521 0
-526 515 0
-515 -522 528 0
-528 522 0
-528 515 0
-515 -523 530 0
-530 523 0
-530 515 0
-515 -524 532 0
-532 524 0
-532 515 0
-516 -521 534 0
-534 521 0
-534 516 0
-516 -522 536 0
-536 522 0
-536 516 0
-516 -523 538 0
-538 523 0
-538 516 0
-516 -524 540 0
-540 524 0
-540 516 0
-517 -521 542 0
-542 521 0
-542 517 0
-517 -522 544 0
-544 522 0
-544 517 0
-517 -523 546 0
-546 523 0
-546 517 0
-517 -524 548 0
-548 524 0
-548 517 0
-518 -521 550 0
-550 521 0
-550 518 0
-518 -522 552 0
-552 522 0
-552 518 0
-518 -523 554 0
-554 523 0
-554 518 0
-518 -524 556 0
-556 524 0
-556 518 0
-519 -521 558 0
-558 521 0
-558 519 0
-519 -522 560 0
-560 522 0
-560 519 0
-519 -523 562 0
-562 523 0
-562 519 0
-519 -524 564 0
-564 524 0
-564 519 0
-520 -521 566 0
-566 521 0
-566 520 0
-520 -522 568 0
-568 522 0
-568 520 0
-520 -523 570 0
-570 523 0
-570 520 0
-520 -524 572 0
-572 524 0
-572 520 0
-574 -580 585 0
-585 580 0
-585 574 0
-574 -581 587 0
-587 581 0
-587 574 0
-574 -582 589 0
-589 582 0
-589 574 0
-574 -583 591 0
-591 583 0
-591 574 0
-575 -580 593 0
-593 580 0
-593 575 0
-575 -581 595 0
-595 581 0
-595 575 0
-575 -582 597 0
-597 582 0
-597 575 0
-575 -583 599 0
-599 583 0
-599 575 0
-576 -580 601 0
-601 580 0
-601 576 0
-576 -581 603 0
-603 581 0
-603 576 0
-576 -582 605 0
-605 582 0
-605 576 0
-576 -583 607 0
-607 583 0
-607 576 0
-577 -580 609 0
-609 580 0
-609 577 0
-577 -581 611 0
-611 581 0
-611 577 0
-577 -582 613 0
-613 582 0
-613 577 0
-577 -583 615 0
-615 583 0
-615 577 0
-578 -580 617 0
-617 580 0
-617 578 0
-578 -581 619 0
-619 581 0
-619 578 0
-578 -582 621 0
-621 582 0
-621 578 0
-578 -583 623 0
-623 583 0
-623 578 0
-579 -580 625 0
-625 580 0
-625 579 0
-579 -581 627 0
-627 581 0
-627 579 0
-579 -582 629 0
-629 582 0
-629 579 0
-579 -583 631 0
-631 583 0
-631 579 0
-633 -638 643 0
-643 638 0
-643 633 0
-633 -639 645 0
-645 639 0
-645 633 0
-633 -640 647 0
-647 640 0
-647 633 0
-633 -641 649 0
-649 641 0
-649 633 0
-633 -638 651 0
-634 -638 651 0
-651 638 0
-651 633 634 0
-633 -639 653 0
-634 -639 653 0
-653 639 0
-653 633 634 0
-633 -640 655 0
-634 -640 655 0
-655 640 0
-655 633 634 0
-633 -641 657 0
-634 -641 657 0
-657 641 0
-657 633 634 0
-634 -638 659 0
-635 -638 659 0
-659 638 0
-659 634 635 0
-634 -639 661 0
-635 -639 661 0
-661 639 0
-661 634 635 0
-634 -640 663 0
-635 -640 663 0
-663 640 0
-663 634 635 0
-634 -641 665 0
-635 -641 665 0
-665 641 0
-665 634 635 0
-635 -638 667 0
-636 -638 667 0
-667 638 0
-667 635 636 0
-635 -639 669 0
-636 -639 669 0
-669 639 0
-669 635 636 0
-635 -640 671 0
-636 -640 671 0
-671 640 0
-671 635 636 0
-635 -641 673 0
-636 -641 673 0
-673 641 0
-673 635 636 0
-636 -638 675 0
-637 -638 675 0
-675 638 0
-675 636 637 0
-636 -639 677 0
-637 -639 677 0
-677 639 0
-677 636 637 0
-636 -640 679 0
-637 -640 679 0
-679 640 0
-679 636 637 0
-636 -641 681 0
-637 -641 681 0
-681 641 0
-681 636 637 0
-637 -638 683 0
-683 638 0
-683 637 0
-637 -639 685 0
-685 639 0
-685 637 0
-637 -640 687 0
-687 640 0
-687 637 0
-637 -641 689 0
-689 641 0
-689 637 0
-691 -695 700 0
-700 695 0
-700 691 0
-691 -696 702 0
-702 696 0
-702 691 0
-691 -697 704 0
-704 697 0
-704 691 0
-691 -698 706 0
-706 698 0
-706 691 0
-691 -695 708 0
-692 -695 708 0
-708 695 0
-708 691 692 0
-691 -696 710 0
-692 -696 710 0
-710 696 0
-710 691 692 0
-691 -697 712 0
-692 -697 712 0
-712 697 0
-712 691 692 0
-691 -698 714 0
-692 -698 714 0
-714 698 0
-714 691 692 0
-691 -695 716 0
-692 -695 716 0
-693 -695 716 0
-716 695 0
-716 691 692 693 0
-691 -696 718 0
-692 -696 718 0
-693 -696 718 0
-718 696 0
-718 691 692 693 0
-691 -697 720 0
-692 -697 720 0
-693 -697 720 0
-720 697 0
-720 691 692 693 0
-691 -698 722 0
-692 -698 722 0
-693 -698 722 0
-722 698 0
-722 691 692 693 0
-692 -695 724 0
-693 -695 724 0
-694 -695 724 0
-724 695 0
-724 692 693 694 0
-692 -696 726 0
-693 -696 726 0
-694 -696 726 0
-726 696 0
-726 692 693 694 0
-692 -697 728 0
-693 -697 728 0
-694 -697 728 0
-728 697 0
-728 692 693 694 0
-692 -698 730 0
-693 -698 730 0
-694 -698 730 0
-730 698 0
-730 692 693 694 0
-693 -695 732 0
-694 -695 732 0
-732 695 0
-732 693 694 0
-693 -696 734 0
-694 -696 734 0
-734 696 0
-734 693 694 0
-693 -697 736 0
-694 -697 736 0
-736 697 0
-736 693 694 0
-693 -698 738 0
-694 -698 738 0
-738 698 0
-738 693 694 0
-694 -695 740 0
-740 695 0
-740 694 0
-694 -696 742 0
-742 696 0
-742 694 0
-694 -697 744 0
-744 697 0
-744 694 0
-694 -698 746 0
-746 698 0
-746 694 0
-526 748 0
-585 748 0
-643 748 0
-700 748 0
-748 526 585 643 700 0
-528 749 0
-587 749 0
-645 749 0
-702 749 0
-749 528 587 645 702 0
-530 750 0
-589 750 0
-647 750 0
-704 750 0
-750 530 589 647 704 0
-532 751 0
-591 751 0
-649 751 0
-706 751 0
-751 532 591 649 706 0
-534 752 0
-593 752 0
-651 752 0
-708 752 0
-752 534 593 651 708 0
-536 753 0
-595 753 0
-653 753 0
-710 753 0
-753 536 595 653 710 0
-538 754 0
-597 754 0
-655 754 0
-712 754 0
-754 538 597 655 712 0
-540 755 0
-599 755 0
-657 755 0
-714 755 0
-755 540 599 657 714 0
-542 756 0
-601 756 0
-659 756 0
-716 756 0
-756 542 601 659 716 0
-544 757 0
-603 757 0
-661 757 0
-718 757 0
-757 544 603 661 718 0
-546 758 0
-605 758 0
-663 758 0
-720 758 0
-758 546 605 663 720 0
-548 759 0
-607 759 0
-665 759 0
-722 759 0
-759 548 607 665 722 0
-550 760 0
-609 760 0
-667 760 0
-724 760 0
-760 550 609 667 724 0
-552 761 0
-611 761 0
-669 761 0
-726 761 0
-761 552 611 669 726 0
-554 762 0
-613 762 0
-671 762 0
-728 762 0
-762 554 613 671 728 0
-556 763 0
-615 763 0
-673 763 0
-730 763 0
-763 556 615 673 730 0
-558 764 0
-617 764 0
-675 764 0
-732 764 0
-764 558 617 675 732 0
-560 765 0
-619 765 0
-677 765 0
-734 765 0
-765 560 619 677 734 0
-562 766 0
-621 766 0
-679 766 0
-736 766 0
-766 562 621 679 736 0
-564 767 0
-623 767 0
-681 767 0
-738 767 0
-767 564 623 681 738 0
-566 768 0
-625 768 0
-683 768 0
-740 768 0
-768 566 625 683 740 0
-568 769 0
-627 769 0
-685 769 0
-742 769 0
-769 568 627 685 742 0
-570 770 0
-629 770 0
-687 770 0
-744 770 0
-770 570 629 687 744 0
-572 771 0
-631 771 0
-689 771 0
-746 771 0
-771 572 631 689 746 0
-526 -585 0
-528 -587 0
-530 -589 0
-532 -591 0
-534 -593 0
-536 -595 0
-538 -597 0
-540 -599 0
-542 -601 0
-544 -603 0
-546 -605 0
-548 -607 0
-550 -609 0
-552 -611 0
-554 -613 0
-556 -615 0
-558 -617 0
-560 -619 0
-562 -621 0
-564 -623 0
-566 -625 0
-568 -627 0
-570 -629 0
-572 -631 0
-526 -643 0
-528 -645 0
-530 -647 0
-532 -649 0
-534 -651 0
-536 -653 0
-538 -655 0
-540 -657 0
-542 -659 0
-544 -661 0
-546 -663 0
-548 -665 0
-550 -667 0
-552 -669 0
-554 -671 0
-556 -673 0
-558 -675 0
-560 -677 0
-562 -679 0
-564 -681 0
-566 -683 0
-568 -685 0
-570 -687 0
-572 -689 0
-526 -700 0
-528 -702 0
-530 -704 0
-532 -706 0
-534 -708 0
-536 -710 0
-538 -712 0
-540 -714 0
-542 -716 0
-544 -718 0
-546 -720 0
-548 -722 0
-550 -724 0
-552 -726 0
-554 -728 0
-556 -730 0
-558 -732 0
-560 -734 0
-562 -736 0
-564 -738 0
-566 -740 0
-568 -742 0
-570 -744 0
-572 -746 0
-585 -643 0
-587 -645 0
-589 -647 0
-591 -649 0
-593 -651 0
-595 -653 0
-597 -655 0
-599 -657 0
-601 -659 0
-603 -661 0
-605 -663 0
-607 -665 0
-609 -667 0
-611 -669 0
-613 -671 0
-615 -673 0
-617 -675 0
-619 -677 0
-621 -679 0
-623 -681 0
-625 -683 0
-627 -685 0
-629 -687 0
-631 -689 0
-585 -700 0
-587 -702 0
-589 -704 0
-591 -706 0
-593 -708 0
-595 -710 0
-597 -712 0
-599 -714 0
-601 -716 0
-603 -718 0
-605 -720 0
-607 -722 0
-609 -724 0
-611 -726 0
-613 -728 0
-615 -730 0
-617 -732 0
-619 -734 0
-621 -736 0
-623 -738 0
-625 -740 0
-627 -742 0
-629 -744 0
-631 -746 0
-643 -700 0
-645 -702 0
-647 -704 0
-649 -706 0
-651 -708 0
-653 -710 0
-655 -712 0
-657 -714 0
-659 -716 0
-661 -718 0
-663 -720 0
-665 -722 0
-667 -724 0
-669 -726 0
-671 -728 0
-673 -730 0
-675 -732 0
-677 -734 0
-679 -736 0
-681 -738 0
-683 -740 0
-685 -742 0
-687 -744 0
-689 -746 0
-515 -522 748 0
-515 -523 749 0
-515 -524 750 0
-516 -522 752 0
-516 -523 753 0
-516 -524 754 0
-517 -522 756 0
-517 -523 757 0
-517 -524 758 0
-518 -522 760 0
-518 -523 761 0
-518 -524 762 0
-519 -522 764 0
-519 -523 765 0
-519 -524 766 0
-520 -522 768 0
-520 -523 769 0
-520 -524 770 0
-574 -581 748 0
-574 -582 749 0
-574 -583 750 0
-575 -581 752 0
-575 -582 753 0
-575 -583 754 0
-576 -581 756 0
-576 -582 757 0
-576 -583 758 0
-577 -581 760 0
-577 -582 761 0
-577 -583 762 0
-578 -581 764 0
-578 -582 765 0
-578 -583 766 0
-579 -581 768 0
-579 -582 769 0
-579 -583 770 0
-633 -639 748 752 0
-633 -640 749 753 0
-633 -641 750 754 0
-634 -639 752 756 0
-634 -640 753 757 0
-634 -641 754 758 0
-635 -639 756 760 0
-635 -640 757 761 0
-635 -641 758 762 0
-636 -639 760 764 0
-636 -640 761 765 0
-636 -641 762 766 0
-637 -639 764 768 0
-637 -640 765 769 0
-637 -641 766 770 0
-691 -696 748 752 0
-691 -696 748 756 0
-691 -696 752 756 0
-691 -697 749 753 0
-691 -697 749 757 0
-691 -697 753 757 0
-691 -698 750 754 0
-691 -698 750 758 0
-691 -698 754 758 0
-692 -696 752 756 0
-692 -696 752 760 0
-692 -696 756 760 0
-692 -697 753 757 0
-692 -697 753 761 0
-692 -697 757 761 0
-692 -698 754 758 0
-692 -698 754 762 0
-692 -698 758 762 0
-693 -696 756 760 0
-693 -696 756 764 0
-693 -696 760 764 0
-693 -697 757 761 0
-693 -697 757 765 0
-693 -697 761 765 0
-693 -698 758 762 0
-693 -698 758 766 0
-693 -698 762 766 0
-694 -696 760 764 0
-694 -696 760 768 0
-694 -696 764 768 0
-694 -697 761 765 0
-694 -697 761 769 0
-694 -697 765 769 0
-694 -698 762 766 0
-694 -698 762 770 0
-694 -698 766 770 0
-526 -749 527 0
-527 526 0
-527 749 0
-528 -750 529 0
-529 528 0
-529 750 0
-530 -751 531 0
-531 530 0
-531 751 0
-533 0
-534 -753 535 0
-535 534 0
-535 753 0
-536 -754 537 0
-537 536 0
-537 754 0
-538 -755 539 0
-539 538 0
-539 755 0
-541 0
-542 -757 543 0
-543 542 0
-543 757 0
-544 -758 545 0
-545 544 0
-545 758 0
-546 -759 547 0
-547 546 0
-547 759 0
-549 0
-550 -761 551 0
-551 550 0
-551 761 0
-552 -762 553 0
-553 552 0
-553 762 0
-554 -763 555 0
-555 554 0
-555 763 0
-557 0
-558 -765 559 0
-559 558 0
-559 765 0
-560 -766 561 0
-561 560 0
-561 766 0
-562 -767 563 0
-563 562 0
-563 767 0
-565 0
-566 -769 567 0
-567 566 0
-567 769 0
-568 -770 569 0
-569 568 0
-569 770 0
-570 -771 571 0
-571 570 0
-571 771 0
-573 0
-525 -527 0
-525 -529 0
-525 -531 0
-525 -533 0
-525 -535 0
-525 -537 0
-525 -539 0
-525 -541 0
-525 -543 0
-525 -545 0
-525 -547 0
-525 -549 0
-525 -551 0
-525 -553 0
-525 -555 0
-525 -557 0
-525 -559 0
-525 -561 0
-525 -563 0
-525 -565 0
-525 -567 0
-525 -569 0
-525 -571 0
-525 -573 0
525 527 529 531 533 535 537 539 541 543 545 547 549 551 553 555 557 559 561 563 565 567 569 571 573 0
-585 -749 586 0
-586 585 0
-586 749 0
-587 -750 588 0
-588 587 0
-588 750 0
-589 -751 590 0
-590 589 0
-590 751 0
-592 0
-593 -753 594 0
-594 593 0
-594 753 0
-595 -754 596 0
-596 595 0
-596 754 0
-597 -755 598 0
-598 597 0
-598 755 0
-600 0
-601 -757 602 0
-602 601 0
-602 757 0
-603 -758 604 0
-604 603 0
-604 758 0
-605 -759 606 0
-606 605 0
-606 759 0
-608 0
-609 -761 610 0
-610 609 0
-610 761 0
-611 -762 612 0
-612 611 0
-612 762 0
-613 -763 614 0
-614 613 0
-614 763 0
-616 0
-617 -765 618 0
-618 617 0
-618 765 0
-619 -766 620 0
-620 619 0
-620 766 0
-621 -767 622 0
-622 621 0
-622 767 0
-624 0
-625 -769 626 0
-626 625 0
-626 769 0
-627 -770 628 0
-628 627 0
-628 770 0
-629 -771 630 0
-630 629 0
-630 771 0
-632 0
-584 -586 0
-584 -588 0
-584 -590 0
-584 -592 0
-584 -594 0
-584 -596 0
-584 -598 0
-584 -600 0
-584 -602 0
-584 -604 0
-584 -606 0
-584 -608 0
-584 -610 0
-584 -612 0
-584 -614 0
-584 -616 0
-584 -618 0
-584 -620 0
-584 -622 0
-584 -624 0
-584 -626 0
-584 -628 0
-584 -630 0
-584 -632 0
584 586 588 590 592 594 596 598 600 602 604 606 608 610 612 614 616 618 620 622 624 626 628 630 632 0
-643 -749 644 0
-644 643 0
-644 749 0
-645 -750 646 0
-646 645 0
-646 750 0
-647 -751 648 0
-648 647 0
-648 751 0
-650 0
-651 -753 652 0
-652 651 0
-652 753 0
-653 -754 654 0
-654 653 0
-654 754 0
-655 -755 656 0
-656 655 0
-656 755 0
-658 0
-659 -757 660 0
-660 659 0
-660 757 0
-661 -758 662 0
-662 661 0
-662 758 0
-663 -759 664 0
-664 663 0
-664 759 0
-666 0
-667 -761 668 0
-668 667 0
-668 761 0
-669 -762 670 0
-670 669 0
-670 762 0
-671 -763 672 0
-672 671 0
-672 763 0
-674 0
-675 -765 676 0
-676 675 0
-676 765 0
-677 -766 678 0
-678 677 0
-678 766 0
-679 -767 680 0
-680 679 0
-680 767 0
-682 0
-683 -769 684 0
-684 683 0
-684 769 0
-685 -770 686 0
-686 685 0
-686 770 0
-687 -771 688 0
-688 687 0
-688 771 0
-690 0
-642 -644 0
-642 -646 0
-642 -648 0
-642 -650 0
-642 -652 0
-642 -654 0
-642 -656 0
-642 -658 0
-642 -660 0
-642 -662 0
-642 -664 0
-642 -666 0
-642 -668 0
-642 -670 0
-642 -672 0
-642 -674 0
-642 -676 0
-642 -678 0
-642 -680 0
-642 -682 0
-642 -684 0
-642 -686 0
-642 -688 0
-642 -690 0
642 644 646 648 650 652 654 656 658 660 662 664 666 668 670 672 674 676 678 680 682 684 686 688 690 0
-700 -749 701 0
-701 700 0
-701 749 0
-702 -750 703 0
-703 702 0
-703 750 0
-704 -751 705 0
-705 704 0
-705 751 0
-707 0
-708 -753 709 0
-709 708 0
-709 753 0
-710 -754 711 0
-711 710 0
-711 754 0
-712 -755 713 0
-713 712 0
-713 755 0
-715 0
-716 -757 717 0
-717 716 0
-717 757 0
-718 -758 719 0
-719 718 0
-719 758 0
-720 -759 721 0
-721 720 0
-721 759 0
-723 0
-724 -761 725 0
-725 724 0
-725 761 0
-726 -762 727 0
-727 726 0
-727 762 0
-728 -763 729 0
-729 728 0
-729 763 0
-731 0
-732 -765 733 0
-733 732 0
-733 765 0
-734 -766 735 0
-735 734 0
-735 766 0
-736 -767 737 0
-737 736 0
-737 767 0
-739 0
-740 -769 741 0
-741 740 0
-741 769 0
-742 -770 743 0
-743 742 0
-743 770 0
-744 -771 745 0
-745 744 0
-745 771 0
-747 0
-699 -701 0
-699 -703 0
-699 -705 0
-699 -707 0
-699 -709 0
-699 -711 0
-699 -713 0
-699 -715 0
-699 -717 0
-699 -719 0
-699 -721 0
-699 -723 0
-699 -725 0
-699 -727 0
-699 -729 0
-699 -731 0
-699 -733 0
-699 -735 0
-699 -737 0
-699 -739 0
-699 -741 0
-699 -743 0
-699 -745 0
-699 -747 0
699 701 703 705 707 709 711 713 715 717 719 721 723 725 727 729 731 733 735 737 739 741 743 745 747 0
772 773 774 775 776 777 0
-772 -773 0
-772 -774 0
-772 -775 0
-772 -776 0
-772 -777 0
-773 -774 0
-773 -775 0
-773 -776 0
-773 -777 0
-774 -775 0
-774 -776 0
-774 -777 0
-775 -776 0
-775 -777 0
-776 -777 0
778 779 780 781 0
-778 -779 0
-778 -780 0
-778 -781 0
-779 -780 0
-779 -781 0
-780 -781 0
831 832 833 834 835 836 0
-831 -832 0
-831 -833 0
-831 -834 0
-831 -835 0
-831 -836 0
-832 -833 0
-832 -834 0
-832 -835 0
-832 -836 0
-833 -834 0
-833 -835 0
-833 -836 0
-834 -835 0
-834 -836 0
-835 -836 0
837 838 839 840 0
-837 -838 0
-837 -839 0
-837 -840 0
-838 -839 0
-838 -840 0
-839 -840 0
890 891 892 893 894 0
-890 -891 0
-890 -892 0
-890 -893 0
-890 -894 0
-891 -892 0
-891 -893 0
-891 -894 0
-892 -893 0
-892 -894 0
-893 -894 0
895 896 897 898 0
-895 -896 0
-895 -897 0
-895 -898 0
-896 -897 0
-896 -898 0
-897 -898 0
948 949 950 951 0
-948 -949 0
-948 -950 0
-948 -951 0
-949 -950 0
-949 -951 0
-950 -951 0
952 953 954 955 0
-952 -953 0
-952 -954 0
-952 -955 0
-953 -954 0
-953 -955 0
-954 -955 0
-772 -778 783 0
-783 778 0
-783 772 0
-772 -779 785 0
-785 779 0
-785 772 0
-772 -780 787 0
-787 780 0
-787 772 0
-772 -781 789 0
-789 781 0
-789 772 0
-773 -778 791 0
-791 778 0
-791 773 0
-773 -779 793 0
-793 779 0
-793 773 0
-773 -780 795 0
-795 780 0
-795 773 0
-773 -781 797 0
-797 781 0
-797 773 0
-774 -778 799 0
-799 778 0
-799 774 0
-774 -779 801 0
-801 779 0
-801 774 0
-774 -780 803 0
-803 780 0
-803 774 0
-774 -781 805 0
-805 781 0
-805 774 0
-775 -778 807 0
-807 778 0
-807 775 0
-775 -779 809 0
-809 779 0
-809 775 0
-775 -780 811 0
-811 780 0
-811 775 0
-775 -781 813 0
-813 781 0
-813 775 0
-776 -778 815 0
-815 778 0
-815 776 0
-776 -779 817 0
-817 779 0
-817 776 0
-776 -780 819 0
-819 780 0
-819 776 0
-776 -781 821 0
-821 781 0
-821 776 0
-777 -778 823 0
-823 778 0
-823 777 0
-777 -779 825 0
-825 779 0
-825 777 0
-777 -780 827 0
-827 780 0
-827 777 0
-777 -781 829 0
-829 781 0
-829 777 0
-831 -837 842 0
-842 837 0
-842 831 0
-831 -838 844 0
-844 838 0
-844 831 0
-831 -839 846 0
-846 839 0
-846 831 0
-831 -840 848 0
-848 840 0
-848 831 0
-832 -837 850 0
-850 837 0
-850 832 0
-832 -838 852 0
-852 838 0
-852 832 0
-832 -839 854 0
-854 839 0
-854 832 0
-832 -840 856 0
-856 840 0
-856 832 0
-833 -837 858 0
-858 837 0
-858 833 0
-833 -838 860 0
-860 838 0
-860 833 0
-833 -839 862 0
-862 839 0
-862 833 0
-833 -840 864 0
-864 840 0
-864 833 0
-834 -837 866 0
-866 837 0
-866 834 0
-834 -838 868 0
-868 838 0
-868 834 0
-834 -839 870 0
-870 839 0
-870 834 0
-834 -840 872 0
-872 840 0
-872 834 0
-835 -837 874 0
-874 837 0
-874 835 0
-835 -838 876 0
-876 838 0
-876 835 0
-835 -839 878 0
-878 839 0
-878 835 0
-835 -840 880 0
-880 840 0
-880 835 0
-836 -837 882 0
-882 837 0
-882 836 0
-836 -838 884 0
-884 838 0
-884 836 0
-836 -839 886 0
-886 839 0
-886 836 0
-836 -840 888 0
-888 840 0
-888 836 0
-890 -895 900 0
-900 895 0
-900 890 0
-890 -896 902 0
-902 896 0
-902 890 0
-890 -897 904 0
-904 897 0
-904 890 0
-890 -898 906 0
-906 898 0
-906 890 0
-890 -895 908 0
-891 -895 908 0
-908 895 0
-908 890 891 0
-890 -896 910 0
-891 -896 910 0
-910 896 0
-910 890 891 0
-890 -897 912 0
-891 -897 912 0
-912 897 0
-912 890 891 0
-890 -898 914 0
-891 -898 914 0
-914 898 0
-914 890 891 0
-891 -895 916 0
-892 -895 916 0
-916 895 0
-916 891 892 0
-891 -896 918 0
-892 -896 918 0
-918 896 0
-918 891 892 0
-891 -897 920 0
-892 -897 920 0
-920 897 0
-920 891 892 0
-891 -898 922 0
-892 -898 922 0
-922 898 0
-922 891 892 0
-892 -895 924 0
-893 -895 924 0
-924 895 0
-924 892 893 0
-892 -896 926 0
-893 -896 926 0
-926 896 0
-926 892 893 0
-892 -897 928 0
-893 -897 928 0
-928 897 0
-928 892 893 0
-892 -898 930 0
-893 -898 930 0
-930 898 0
-930 892 893 0
-893 -895 932 0
-894 -895 932 0
-932 895 0
-932 893 894 0
-893 -896 934 0
-894 -896 934 0
-934 896 0
-934 893 894 0
-893 -897 936 0
-894 -897 936 0
-936 897 0
-936 893 894 0
-893 -898 938 0
-894 -898 938 0
-938 898 0
-938 893 894 0
-894 -895 940 0
-940 895 0
-940 894 0
-894 -896 942 0
-942 896 0
-942 894 0
-894 -897 944 0
-944 897 0
-944 894 0
-894 -898 946 0
-946 898 0
-946 894 0
-948 -952 957 0
-957 952 0
-957 948 0
-948 -953 959 0
-959 953 0
-959 948 0
-948 -954 961 0
-961 954 0
-961 948 0
-948 -955 963 0
-963 955 0
-963 948 0
-948 -952 965 0
-949 -952 965 0
-965 952 0
-965 948 949 0
-948 -953 967 0
-949 -953 967 0
-967 953 0
-967 948 949 0
-948 -954 969 0
-949 -954 969 0
-969 954 0
-969 948 949 0
-948 -955 971 0
-949 -955 971 0
-971 955 0
-971 948 949 0
-948 -952 973 0
-949 -952 973 0
-950 -952 973 0
-973 952 0
-973 948 949 950 0
-948 -953 975 0
-949 -953 975 0
-950 -953 975 0
-975 953 0
-975 948 949 950 0
-948 -954 977 0
-949 -954 977 0
-950 -954 977 0
-977 954 0
-977 948 949 950 0
-948 -955 979 0
-949 -955 979 0
-950 -955 979 0
-979 955 0
-979 948 949 950 0
-949 -952 981 0
-950 -952 981 0
-951 -952 981 0
-981 952 0
-981 949 950 951 0
-949 -953 983 0
-950 -953 983 0
-951 -953 983 0
-983 953 0
-983 949 950 951 0
-949 -954 985 0
-950 -954 985 0
-951 -954 985 0
-985 954 0
-985 949 950 951 0
-949 -955 987 0
-950 -955 987 0
-951 -955 987 0
-987 955 0
-987 949 950 951 0
-950 -952 989 0
-951 -952 989 0
-989 952 0
-989 950 951 0
-950 -953 991 0
-951 -953 991 0
-991 953 0
-991 950 951 0
-950 -954 993 0
-951 -954 993 0
-993 954 0
-993 950 951 0
-950 -955 995 0
-951 -955 995 0
-995 955 0
-995 950 951 0
-951 -952 997 0
-997 952 0
-997 951 0
-951 -953 999 0
-999 953 0
-999 951 0
-951 -954 1001 0
-1001 954 0
-1001 951 0
-951 -955 1003 0
-1003 955 0
-1003 951 0
-783 1005 0
-842 1005 0
-900 1005 0
-957 1005 0
-1005 783 842 900 957 0
-785 1006 0
-844 1006 0
-902 1006 0
-959 1006 0
-1006 785 844 902 959 0
-787 1007 0
-846 1007 0
-904 1007 0
-961 1007 0
-1007 787 846 904 961 0
-789 1008 0
-848 1008 0
-906 1008 0
-963 1008 0
-1008 789 848 906 963 0
-791 1009 0
-850 1009 0
-908 1009 0
-965 1009 0
-1009 791 850 908 965 0
-793 1010 0
-852 1010 0
-910 1010 0
-967 1010 0
-1010 793 852 910 967 0
-795 1011 0
-854 1011 0
-912 1011 0
-969 1011 0
-1011 795 854 912 969 0
-797 1012 0
-856 1012 0
-914 1012 0
-971 1012 0
-1012 797 856 914 971 0
-799 1013 0
-858 1013 0
-916 1013 0
-973 1013 0
-1013 799 858 916 973 0
-801 1014 0
-860 1014 0
-918 1014 0
-975 1014 0
-1014 801 860 918 975 0
-803 1015 0
-862 1015 0
-920 1015 0
-977 1015 0
-1015 803 862 920 977 0
-805 1016 0
-864 1016 0
-922 1016 0
-979 1016 0
-1016 805 864 922 979 0
-807 1017 0
-866 1017 0
-924 1017 0
-981 1017 0
-1017 807 866 924 981 0
-809 1018 0
-868 1018 0
-926 1018 0
-983 1018 0
-1018 809 868 926 983 0
-811 1019 0
-870 1019 0
-928 1019 0
-985 1019 0
-1019 811 870 928 985 0
-813 1020 0
-872 1020 0
-930 1020 0
-987 1020 0
-1020 813 872 930 987 0
-815 1021 0
-874 1021 0
-932 1021 0
-989 1021 0
-1021 815 874 932 989 0
-817 1022 0
-876 1022 0
-934 1022 0
-991 1022 0
-1022 817 876 934 991 0
-819 1023 0
-878 1023 0
-936 1023 0
-993 1023 0
-1023 819 878 936 993 0
-821 1024 0
-880 1024 0
-938 1024 0
-995 1024 0
-1024 821 880 938 995 0
-823 1025 0
-882 1025 0
-940 1025 0
-997 1025 0
-1025 823 882 940 997 0
-825 1026 0
-884 1026 0
-942 1026 0
-999 1026 0
-1026 825 884 942 999 0
-827 1027 0
-886 1027 0
-944 1027 0
-1001 1027 0
-1027 827 886 944 1001 0
-829 1028 0
-888 1028 0
-946 1028 0
-1003 1028 0
-1028 829 888 946 1003 0
-783 -842 0
-785 -844 0
-787 -846 0
-789 -848 0
-791 -850 0
-793 -852 0
-795 -854 0
-797 -856 0
-799 -858 0
-801 -860 0
-803 -862 0
-805 -864 0
-807 -866 0
-809 -868 0
-811 -870 0
-813 -872 0
-815 -874 0
-817 -876 0
-819 -878 0
-821 -880 0
-823 -882 0
-825 -884 0
-827 -886 0
-829 -888 0
-783 -900 0
-785 -902 0
-787 -904 0
-789 -906 0
-791 -908 0
-793 -910 0
-795 -912 0
-797 -914 0
-799 -916 0
-801 -918 0
-803 -920 0
-805 -922 0
-807 -924 0
-809 -926 0
-811 -928 0
-813 -930 0
-815 -932 0
-817 -934 0
-819 -936 0
-821 -938 0
-823 -940 0
-825 -942 0
-827 -944 0
-829 -946 0
-783 -957 0
-785 -959 0
-787 -961 0
-789 -963 0
-791 -965 0
-793 -967 0
-795 -969 0
-797 -971 0
-799 -973 0
-801 -975 0
-803 -977 0
-805 -979 0
-807 -981 0
-809 -983 0
-811 -985 0
-813 -987 0
-815 -989 0
-817 -991 0
-819 -993 0
-821 -995 0
-823 -997 0
-825 -999 0
-827 -1001 0
-829 -1003 0
-842 -900 0
-844 -902 0
-846 -904 0
-848 -906 0
-850 -908 0
-852 -910 0
-854 -912 0
-856 -914 0
-858 -916 0
-860 -918 0
-862 -920 0
-864 -922 0
-866 -924 0
-868 -926 0
-870 -928 0
-872 -930 0
-874 -932 0
-876 -934 0
-878 -936 0
-880 -938 0
-882 -940 0
-884 -942 0
-886 -944 0
-888 -946 0
-842 -957 0
-844 -959 0
-846 -961 0
-848 -963 0
-850 -965 0
-852 -967 0
-854 -969 0
-856 -971 0
-858 -973 0
-860 -975 0
-862 -977 0
-864 -979 0
-866 -981 0
-868 -983 0
-870 -985 0
-872 -987 0
-874 -989 0
-876 -991 0
-878 -993 0
-880 -995 0
-882 -997 0
-884 -999 0
-886 -1001 0
-888 -1003 0
-900 -957 0
-902 -959 0
-904 -961 0
-906 -963 0
-908 -965 0
-910 -967 0
-912 -969 0
-914 -971 0
-916 -973 0
-918 -975 0
-920 -977 0
-922 -979 0
-924 -981 0
-926 -983 0
-928 -985 0
-930 -987 0
-932 -989 0
-934 -991 0
-936 -993 0
-938 -995 0
-940 -997 0
-942 -999 0
-944 -1001 0
-946 -1003 0
-772 -779 1005 0
-772 -780 1006 0
-772 -781 1007 0
-773 -779 1009 0
-773 -780 1010 0
-773 -781 1011 0
-774 -779 1013 0
-774 -780 1014 0
-774 -781 1015 0
-775 -779 1017 0
-775 -780 1018 0
-775 -781 1019 0
-776 -779 1021 0
-776 -780 1022 0
-776 -781 1023 0
-777 -779 1025 0
-777 -780 1026 0
-777 -781 1027 0
-831 -838 1005 0
-831 -839 1006 0
-831 -840 1007 0
-832 -838 1009 0
-832 -839 1010 0
-832 -840 1011 0
-833 -838 1013 0
-833 -839 1014 0
-833 -840 1015 0
-834 -838 1017 0
-834 -839 1018 0
-834 -840 1019 0
-835 -838 1021 0
-835 -839 1022 0
-835 -840 1023 0
-836 -838 1025 0
-836 -839 1026 0
-836 -840 1027 0
-890 -896 1005 1009 0
-890 -897 1006 1010 0
-890 -898 1007 1011 0
-891 -896 1009 1013 0
-891 -897 1010 1014 0
-891 -898 1011 1015 0
-892 -896 1013 1017 0
-892 -897 1014 1018 0
-892 -898 1015 1019 0
-893 -896 1017 1021 0
-893 -897 1018 1022 0
-893 -898 1019 1023 0
-894 -896 1021 1025 0
-894 -897 1022 1026 0
-894 -898 1023 1027 0
-948 -953 1005 1009 0
-948 -953 1005 1013 0
-948 -953 1009 1013 0
-948 -954 1006 1010 0
-948 -954 1006 1014 0
-948 -954 1010 1014 0
-948 -955 1007 1011 0
-948 -955 1007 1015 0
-948 -955 1011 1015 0
-949 -953 1009 1013 0
-949 -953 1009 1017 0
-949 -953 1013 1017 0
-949 -954 1010 1014 0
-949 -954 1010 1018 0
-949 -954 1014 1018 0
-949 -955 1011 1015 0
-949 -955 1011 1019 0
-949 -955 1015 1019 0
-950 -953 1013 1017 0
-950 -953 1013 1021 0
-950 -953 1017 1021 0
-950 -954 1014 1018 0
-950 -954 1014 1022 0
-950 -954 1018 1022 0
-950 -955 1015 1019 0
-950 -955 1015 1023 0
-950 -955 1019 1023 0
-951 -953 1017 1021 0
-951 -953 1017 1025 0
-951 -953 1021 1025 0
-951 -954 1018 1022 0
-951 -954 1018 1026 0
-951 -954 1022 1026 0
-951 -955 1019 1023 0
-951 -955 1019 1027 0
-951 -955 1023 1027 0
-783 -1006 784 0
-784 783 0
-784 1006 0
-785 -1007 786 0
-786 785 0
-786 1007 0
-787 -1008 788 0
-788 787 0
-788 1008 0
-790 0
-791 -1010 792 0
-792 791 0
-792 1010 0
-793 -1011 794 0
-794 793 0
-794 1011 0
-795 -1012 796 0
-796 795 0
-796 1012 0
-798 0
-799 -1014 800 0
-800 799 0
-800 1014 0
-801 -1015 802 0
-802 801 0
-802 1015 0
-803 -1016 804 0
-804 803 0
-804 1016 0
-806 0
-807 -1018 808 0
-808 807 0
-808 1018 0
-809 -1019 810 0
-810 809 0
-810 1019 0
-811 -1020 812 0
-812 811 0
-812 1020 0
-814 0
-815 -1022 816 0
-816 815 0
-816 1022 0
-817 -1023 818 0
-818 817 0
-818 1023 0
-819 -1024 820 0
-820 819 0
-820 1024 0
-822 0
-823 -1026 824 0
-824 823 0
-824 1026 0
-825 -1027 826 0
-826 825 0
-826 1027 0
-827 -1028 828 0
-828 827 0
-828 1028 0
-830 0
-782 -784 0
-782 -786 0
-782 -788 0
-782 -790 0
-782 -792 0
-782 -794 0
-782 -796 0
-782 -798 0
-782 -800 0
-782 -802 0
-782 -804 0
-782 -806 0
-782 -808 0
-782 -810 0
-782 -812 0
-782 -814 0
-782 -816 0
-782 -818 0
-782 -820 0
-782 -822 0
-782 -824 0
-782 -826 0
-782 -828 0
-782 -830 0
782 784 786 788 790 792 794 796 798 800 802 804 806 808 810 812 814 816 818 820 822 824 826 828 830 0
-842 -1006 843 0
-843 842 0
-843 1006 0
-844 -1007 845 0
-845 844 0
-845 1007 0
-846 -1008 847 0
-847 846 0
-847 1008 0
-849 0
-850 -1010 851 0
-851 850 0
-851 1010 0
-852 -1011 853 0
-853 852 0
-853 1011 0
-854 -1012 855 0
-855 854 0
-855 1012 0
-857 0
-858 -1014 859 0
-859 858 0
-859 1014 0
-860 -1015 861 0
-861 860 0
-861 1015 0
-862 -1016 863 0
-863 862 0
-863 1016 0
-865 0
-866 -1018 867 0
-867 866 0
-867 1018 0
-868 -1019 869 0
-869 868 0
-869 1019 0
-870 -1020 871 0
-871 870 0
-871 1020 0
-873 0
-874 -1022 875 0
-875 874 0
-875 1022 0
-876 -1023 877 0
-877 876 0
-877 1023 0
-878 -1024 879 0
-879 878 0
-879 1024 0
-881 0
-882 -1026 883 0
-883 882 0
-883 1026 0
-884 -1027 885 0
-885 884 0
-885 1027 0
-886 -1028 887 0
-887 886 0
-887 1028 0
-889 0
-841 -843 0
-841 -845 0
-841 -847 0
-841 -849 0
-841 -851 0
-841 -853 0
-841 -855 0
-841 -857 0
-841 -859 0
-841 -861 0
-841 -863 0
-841 -865 0
-841 -867 0
-841 -869 0
-841 -871 0
-841 -873 0
-841 -875 0
-841 -877 0
-841 -879 0
-841 -881 0
-841 -883 0
-841 -885 0
-841 -887 0
-841 -889 0
841 843 845 847 849 851 853 855 857 859 861 863 865 867 869 871 873 875 877 879 881 883 885 887 889 0
-900 -1006 901 0
-901 900 0
-901 1006 0
-902 -1007 903 0
-903 902 0
-903 1007 0
-904 -1008 905 0
-905 904 0
-905 1008 0
-907 0
-908 -1010 909 0
-909 908 0
-909 1010 0
-910 -1011 911 0
-911 910 0
-911 1011 0
-912 -1012 913 0
-913 912 0
-913 1012 0
-915 0
-916 -1014 917 0
-917 916 0
-917 1014 0
-918 -1015 919 0
-919 918 0
-919 1015 0
-920 -1016 921 0
-921 920 0
-921 1016 0
-923 0
-924 -1018 925 0
-925 924 0
-925 1018 0
-926 -1019 927 0
-927 926 0
-927 1019 0
-928 -1020 929 0
-929 928 0
-929 1020 0
-931 0
-932 -1022 933 0
-933 932 0
-933 1022 0
-934 -1023 935 0
-935 934 0
-935 1023 0
-936 -1024 937 0
-937 936 0
-937 1024 0
-939 0
-940 -1026 941 0
-941 940 0
-941 1026 0
-942 -1027 943 0
-943 942 0
-943 1027 0
-944 -1028 945 0
-945 944 0
-945 1028 0
-947 0
-899 -901 0
-899 -903 0
-899 -905 0
-899 -907 0
-899 -909 0
-899 -911 0
-899 -913 0
-899 -915 0
-899 -917 0
-899 -919 0
-899 -921 0
-899 -923 0
-899 -925 0
-899 -927 0
-899 -929 0
-899 -931 0
-899 -933 0
-899 -935 0
-899 -937 0
-899 -939 0
-899 -941 0
-899 -943 0
-899 -945 0
-899 -947 0
899 901 903 905 907 909 911 913 915 917 919 921 923 925 927 929 931 933 935 937 939 941 943 945 947 0
-957 -1006 958 0
-958 957 0
-958 1006 0
-959 -1007 960 0
-960 959 0
-960 1007 0
-961 -1008 962 0
-962 961 0
-962 1008 0
-964 0
-965 -1010 966 0
-966 965 0
-966 1010 0
-967 -1011 968 0
-968 967 0
-968 1011 0
-969 -1012 970 0
-970 969 0
-970 1012 0
-972 0
-973 -1014 974 0
-974 973 0
-974 1014 0
-975 -1015 976 0
-976 975 0
-976 1015 0
-977 -1016 978 0
-978 977 0
-978 1016 0
-980 0
-981 -1018 982 0
-982 981 0
-982 1018 0
-983 -1019 984 0
-984 983 0
-984 1019 0
-985 -1020 986 0
-986 985 0
-986 1020 0
-988 0
-989 -1022 990 0
-990 989 0
-990 1022 0
-991 -1023 992 0
-992 991 0
-992 1023 0
-993 -1024 994 0
-994 993 0
-994 1024 0
-996 0
-997 -1026 998 0
-998 997 0
-998 1026 0
-999 -1027 1000 0
-1000 999 0
-1000 1027 0
-1001 -1028 1002 0
-1002 1001 0
-1002 1028 0
-1004 0
-956 -958 0
-956 -960 0
-956 -962 0
-956 -964 0
-956 -966 0
-956 -968 0
-956 -970 0
-956 -972 0
-956 -974 0
-956 -976 0
-956 -978 0
-956 -980 0
-956 -982 0
-956 -984 0
-956 -986 0
-956 -988 0
-956 -990 0
-956 -992 0
-956 -994 0
-956 -996 0
-956 -998 0
-956 -1000 0
-956 -1002 0
-956 -1004 0
956 958 960 962 964 966 968 970 972 974 976 978 980 982 984 986 988 990 992 994 996 998 1000 1002 1004 0
1029 1030 1031 1032 1033 1034 0
-1029 -1030 0
-1029 -1031 0
-1029 -1032 0
-1029 -1033 0
-1029 -1034 0
-1030 -1031 0
-1030 -1032 0
-1030 -1033 0
-1030 -1034 0
-1031 -1032 0
-1031 -1033 0
-1031 -1034 0
-1032 -1033 0
-1032 -1034 0
-1033 -1034 0
1035 1036 1037 1038 0
-1035 -1036 0
-1035 -1037 0
-1035 -1038 0
-1036 -1037 0
-1036 -1038 0
-1037 -1038 0
1088 1089 1090 1091 1092 1093 0
-1088 -1089 0
-1088 -1090 0
-1088 -1091 0
-1088 -1092 0
-1088 -1093 0
-1089 -1090 0
-1089 -1091 0
-1089 -1092 0
-1089 -1093 0
-1090 -1091 0
-1090 -1092 0
-1090 -1093 0
-1091 -1092 0
-1091 -1093 0
-1092 -1093 0
1094 1095 1096 1097 0
-1094 -1095 0
-1094 -1096 0
-1094 -1097 0
-1095 -1096 0
-1095 -1097 0
-1096 -1097 0
1147 1148 1149 1150 1151 0
-1147 -1148 0
-1147 -1149 0
-1147 -1150 0
-1147 -1151 0
-1148 -1149 0
-1148 -1150 0
-1148 -1151 0
-1149 -1150 0
-1149 -1151 0
-1150 -1151 0
1152 1153 1154 1155 0
-1152 -1153 0
-1152 -1154 0
-1152 -1155 0
-1153 -1154 0
-1153 -1155 0
-1154 -1155 0
1205 1206 1207 1208 0
-1205 -1206 0
-1205 -1207 0
-1205 -1208 0
-1206 -1207 0
-1206 -1208 0
-1207 -1208 0
1209 1210 1211 1212 0
-1209 -1210 0
-1209 -1211 0
-1209 -1212 0
-1210 -1211 0
-1210 -1212 0
-1211 -1212 0
-1029 -1035 1040 0
-1040 1035 0
-1040 1029 0
-1029 -1036 1042 0
-1042 1036 0
-1042 1029 0
-1029 -1037 1044 0
-1044 1037 0
-1044 1029 0
-1029 -1038 1046 0
-1046 1038 0
-1046 1029 0
-1030 -1035 1048 0
-1048 1035 0
-1048 1030 0
-1030 -1036 1050 0
-1050 1036 0
-1050 1030 0
-1030 -1037 1052 0
-1052 1037 0
-1052 1030 0
-1030 -1038 1054 0
-1054 1038 0
-1054 1030 0
-1031 -1035 1056 0
-1056 1035 0
-1056 1031 0
-1031 -1036 1058 0
-1058 1036 0
-1058 1031 0
-1031 -1037 1060 0
-1060 1037 0
-1060 1031 0
-1031 -1038 1062 0
-1062 1038 0
-1062 1031 0
-1032 -1035 1064 0
-1064 1035 0
-1064 1032 0
-1032 -1036 1066 0
-1066 1036 0
-1066 1032 0
-1032 -1037 1068 0
-1068 1037 0
-1068 1032 0
-1032 -1038 1070 0
-1070 1038 0
-1070 1032 0
-1033 -1035 1072 0
-1072 1035 0
-1072 1033 0
-1033 -1036 1074 0
-1074 1036 0
-1074 1033 0
-1033 -1037 1076 0
-1076 1037 0
-1076 1033 0
-1033 -1038 1078 0
-1078 1038 0
-1078 1033 0
-1034 -1035 1080 0
-1080 1035 0
-1080 1034 0
-1034 -1036 1082 0
-1082 1036 0
-1082 1034 0
-1034 -1037 1084 0
-1084 1037 0
-1084 1034 0
-1034 -1038 1086 0
-1086 1038 0
-1086 1034 0
-1088 -1094 1099 0
-1099 1094 0
-1099 1088 0
-1088 -1095 1101 0
-1101 1095 0
-1101 1088 0
-1088 -1096 1103 0
-1103 1096 0
-1103 1088 0
-1088 -1097 1105 0
-1105 1097 0
-1105 1088 0
-1089 -1094 1107 0
-1107 1094 0
-1107 1089 0
-1089 -1095 1109 0
-1109 1095 0
-1109 1089 0
-1089 -1096 1111 0
-1111 1096 0
-1111 1089 0
-1089 -1097 1113 0
-1113 1097 0
-1113 1089 0
-1090 -1094 1115 0
-1115 1094 0
-1115 1090 0
-1090 -1095 1117 0
-1117 1095 0
-1117 1090 0
-1090 -1096 1119 0
-1119 1096 0
-1119 1090 0
-1090 -1097 1121 0
-1121 1097 0
-1121 1090 0
-1091 -1094 1123 0
-1123 1094 0
-1123 1091 0
-1091 -1095 1125 0
-1125 1095 0
-1125 1091 0
-1091 -1096 1127 0
-1127 1096 0
-1127 1091 0
-1091 -1097 1129 0
-1129 1097 0
-1129 1091 0
-1092 -1094 1131 0
-1131 1094 0
-1131 1092 0
-1092 -1095 1133 0
-1133 1095 0
-1133 1092 0
-1092 -1096 1135 0
-1135 1096 0
-1135 1092 0
-1092 -1097 1137 0
-1137 1097 0
-1137 1092 0
-1093 -1094 1139 0
-1139 1094 0
-1139 1093 0
-1093 -1095 1141 0
-1141 1095 0
-1141 1093 0
-1093 -1096 1143 0
-1143 1096 0
-1143 1093 0
-1093 -1097 1145 0
-1145 1097 0
-1145 1093 0
-1147 -1152 1157 0
-1157 1152 0
-1157 1147 0
-1147 -1153 1159 0
-1159 1153 0
-1159 1147 0
-1147 -1154 1161 0
-1161 1154 0
-1161 1147 0
-1147 -1155 1163 0
-1163 1155 0
-1163 1147 0
-1147 -1152 1165 0
-1148 -1152 1165 0
-1165 1152 0
-1165 1147 1148 0
-1147 -1153 1167 0
-1148 -1153 1167 0
-1167 1153 0
-1167 1147 1148 0
-1147 -1154 1169 0
-1148 -1154 1169 0
-1169 1154 0
-1169 1147 1148 0
-1147 -1155 1171 0
-1148 -1155 1171 0
-1171 1155 0
-1171 1147 1148 0
-1148 -1152 1173 0
-1149 -1152 1173 0
-1173 1152 0
-1173 1148 1149 0
-1148 -1153 1175 0
-1149 -1153 1175 0
-1175 1153 0
-1175 1148 1149 0
-1148 -1154 1177 0
-1149 -1154 1177 0
-1177 1154 0
-1177 1148 1149 0
-1148 -1155 1179 0
-1149 -1155 1179 0
-1179 1155 0
-1179 1148 1149 0
-1149 -1152 1181 0
-1150 -1152 1181 0
-1181 1152 0
-1181 1149 1150 0
-1149 -1153 1183 0
-1150 -1153 1183 0
-1183 1153 0
-1183 1149 1150 0
-1149 -1154 1185 0
-1150 -1154 1185 0
-1185 1154 0
-1185 1149 1150 0
-1149 -1155 1187 0
-1150 -1155 1187 0
-1187 1155 0
-1187 1149 1150 0
-1150 -1152 1189 0
-1151 -1152 1189 0
-1189 1152 0
-1189 1150 1151 0
-1150 -1153 1191 0
-1151 -1153 1191 0
-1191 1153 0
-1191 1150 1151 0
-1150 -1154 1193 0
-1151 -1154 1193 0
-1193 1154 0
-1193 1150 1151 0
-1150 -1155 1195 0
-1151 -1155 1195 0
-1195 1155 0
-1195 1150 1151 0
-1151 -1152 1197 0
-1197 1152 0
-1197 1151 0
-1151 -1153 1199 0
-1199 1153 0
-1199 1151 0
-1151 -1154 1201 0
-1201 1154 0
-1201 1151 0
-1151 -1155 1203 0
-1203 1155 0
-1203 1151 0
-1205 -1209 1214 0
-1214 1209 0
-1214 1205 0
-1205 -1210 1216 0
-1216 1210 0
-1216 1205 0
-1205 -1211 1218 0
-1218 1211 0
-1218 1205 0
-1205 -1212 1220 0
-1220 1212 0
-1220 1205 0
-1205 -1209 1222 0
-1206 -1209 1222 0
-1222 1209 0
-1222 1205 1206 0
-1205 -1210 1224 0
-1206 -1210 1224 0
-1224 1210 0
-1224 1205 1206 0
-1205 -1211 1226 0
-1206 -1211 1226 0
-1226 1211 0
-1226 1205 1206 0
-1205 -1212 1228 0
-1206 -1212 1228 0
-1228 1212 0
-1228 1205 1206 0
-1205 -1209 1230 0
-1206 -1209 1230 0
-1207 -1209 1230 0
-1230 1209 0
-1230 1205 1206 1207 0
-1205 -1210 1232 0
-1206 -1210 1232 0
-1207 -1210 1232 0
-1232 1210 0
-1232 1205 1206 1207 0
-1205 -1211 1234 0
-1206 -1211 1234 0
-1207 -1211 1234 0
-1234 1211 0
-1234 1205 1206 1207 0
-1205 -1212 1236 0
-1206 -1212 1236 0
-1207 -1212 1236 0
-1236 1212 0
-1236 1205 1206 1207 0
-1206 -1209 1238 0
-1207 -1209 1238 0
-1208 -1209 1238 0
-1238 1209 0
-1238 1206 1207 1208 0
-1206 -1210 1240 0
-1207 -1210 1240 0
-1208 -1210 1240 0
-1240 1210 0
-1240 1206 1207 1208 0
-1206 -1211 1242 0
-1207 -1211 1242 0
-1208 -1211 1242 0
-1242 1211 0
-1242 1206 1207 1208 0
-1206 -1212 1244 0
-1207 -1212 1244 0
-1208 -1212 1244 0
-1244 1212 0
-1244 1206 1207 1208 0
-1207 -1209 1246 0
-1208 -1209 1246 0
-1246 1209 0
-1246 1207 1208 0
-1207 -1210 1248 0
-1208 -1210 1248 0
-1248 1210 0
-1248 1207 1208 0
-1207 -1211 1250 0
-1208 -1211 1250 0
-1250 1211 0
-1250 1207 1208 0
-1207 -1212 1252 0
-1208 -1212 1252 0
-1252 1212 0
-1252 1207 1208 0
-1208 -1209 1254 0
-1254 1209 0
-1254 1208 0
-1208 -1210 1256 0
-1256 1210 0
-1256 1208 0
-1208 -1211 1258 0
-1258 1211 0
-1258 1208 0
-1208 -1212 1260 0
-1260 1212 0
-1260 1208 0
-1040 1262 0
-1099 1262 0
-1157 1262 0
-1214 1262 0
-1262 1040 1099 1157 1214 0
-1042 1263 0
-1101 1263 0
-1159 1263 0
-1216 1263 0
-1263 1042 1101 1159 1216 0
-1044 1264 0
-1103 1264 0
-1161 1264 0
-1218 1264 0
-1264 1044 1103 1161 1218 0
-1046 1265 0
-1105 1265 0
-1163 1265 0
-1220 1265 0
-1265 1046 1105 1163 1220 0
-1048 1266 0
-1107 1266 0
-1165 1266 0
-1222 1266 0
-1266 1048 1107 1165 1222 0
-1050 1267 0
-1109 1267 0
-1167 1267 0
-1224 1267 0
-1267 1050 1109 1167 1224 0
-1052 1268 0
-1111 1268 0
-1169 1268 0
-1226 1268 0
-1268 1052 1111 1169 1226 0
-1054 1269 0
-1113 1269 0
-1171 1269 0
-1228 1269 0
-1269 1054 1113 1171 1228 0
-1056 1270 0
-1115 1270 0
-1173 1270 0
-1230 1270 0
-1270 1056 1115 1173 1230 0
-1058 1271 0
-1117 1271 0
-1175 1271 0
-1232 1271 0
-1271 1058 1117 1175 1232 0
-1060 1272 0
-1119 1272 0
-1177 1272 0
-1234 1272 0
-1272 1060 1119 1177 1234 0
-1062 1273 0
-1121 1273 0
-1179 1273 0
-1236 1273 0
-1273 1062 1121 1179 1236 0
-1064 1274 0
-1123 1274 0
-1181 1274 0
-1238 1274 0
-1274 1064 1123 1181 1238 0
-1066 1275 0
-1125 1275 0
-1183 1275 0
-1240 1275 0
-1275 1066 1125 1183 1240 0
-1068 1276 0
-1127 1276 0
-1185 1276 0
-1242 1276 0
-1276 1068 1127 1185 1242 0
-1070 1277 0
-1129 1277 0
-1187 1277 0
-1244 1277 0
-1277 1070 1129 1187 1244 0
-1072 1278 0
-1131 1278 0
-1189 1278 0
-1246 1278 0
-1278 1072 1131 1189 1246 0
-1074 1279 0
-1133 1279 0
-1191 1279 0
-1248 1279 0
-1279 1074 1133 1191 1248 0
-1076 1280 0
-1135 1280 0
-1193 1280 0
-1250 1280 0
-1280 1076 1135 1193 1250 0
-1078 1281 0
-1137 1281 0
-1195 1281 0
-1252 1281 0
-1281 1078 1137 1195 1252 0
-1080 1282 0
-1139 1282 0
-1197 1282 0
-1254 1282 0
-1282 1080 1139 1197 1254 0
-1082 1283 0
-1141 1283 0
-1199 1283 0
-1256 1283 0
-1283 1082 1141 1199 1256 0
-1084 1284 0
-1143 1284 0
-1201 1284 0
-1258 1284 0
-1284 1084 1143 1201 1258 0
-1086 1285 0
-1145 1285 0
-1203 1285 0
-1260 1285 0
-1285 1086 1145 1203 1260 0
-1040 -1099 0
-1042 -1101 0
-1044 -1103 0
-1046 -1105 0
-1048 -1107 0
-1050 -1109 0
-1052 -1111 0
-1054 -1113 0
-1056 -1115 0
-1058 -1117 0
-1060 -1119 0
-1062 -1121 0
-1064 -1123 0
-1066 -1125 0
-1068 -1127 0
-1070 -1129 0
-1072 -1131 0
-1074 -1133 0
-1076 -1135 0
-1078 -1137 0
-1080 -1139 0
-1082 -1141 0
-1084 -1143 0
-1086 -1145 0
-1040 -1157 0
-1042 -1159 0
-1044 -1161 0
-1046 -1163 0
-1048 -1165 0
-1050 -1167 0
-1052 -1169 0
-1054 -1171 0
-1056 -1173 0
-1058 -1175 0
-1060 -1177 0
-1062 -1179 0
-1064 -1181 0
-1066 -1183 0
-1068 -1185 0
-1070 -1187 0
-1072 -1189 0
-1074 -1191 0
-1076 -1193 0
-1078 -1195 0
-1080 -1197 0
-1082 -1199 0
-1084 -1201 0
-1086 -1203 0
-1040 -1214 0
-1042 -1216 0
-1044 -1218 0
-1046 -1220 0
-1048 -1222 0
-1050 -1224 0
-1052 -1226 0
-1054 -1228 0
-1056 -1230 0
-1058 -1232 0
-1060 -1234 0
-1062 -1236 0
-1064 -1238 0
-1066 -1240 0
-1068 -1242 0
-1070 -1244 0
-1072 -1246 0
-1074 -1248 0
-1076 -1250 0
-1078 -1252 0
-1080 -1254 0
-1082 -1256 0
-1084 -1258 0
-1086 -1260 0
-1099 -1157 0
-1101 -1159 0
-1103 -1161 0
-1105 -1163 0
-1107 -1165 0
-1109 -1167 0
-1111 -1169 0
-1113 -1171 0
-1115 -1173 0
-1117 -1175 0
-1119 -1177 0
-1121 -1179 0
-1123 -1181 0
-1125 -1183 0
-1127 -1185 0
-1129 -1187 0
-1131 -1189 0
-1133 -1191 0
-1135 -1193 0
-1137 -1195 0
-1139 -1197 0
-1141 -1199 0
-1143 -1201 0
-1145 -1203 0
-1099 -1214 0
-1101 -1216 0
-1103 -1218 0
-1105 -1220 0
-1107 -1222 0
-1109 -1224 0
-1111 -1226 0
-1113 -1228 0
-1115 -1230 0
-1117 -1232 0
-1119 -1234 0
-1121 -1236 0
-1123 -1238 0
-1125 -1240 0
-1127 -1242 0
-1129 -1244 0
-1131 -1246 0
-1133 -1248 0
-1135 -1250 0
-1137 -1252 0
-1139 -1254 0
-1141 -1256 0
-1143 -1258 0
-1145 -1260 0
-1157 -1214 0
-1159 -1216 0
-1161 -1218 0
-1163 -1220 0
-1165 -1222 0
-1167 -1224 0
-1169 -1226 0
-1171 -1228 0
-1173 -1230 0
-1175 -1232 0
-1177 -1234 0
-1179 -1236 0
-1181 -1238 0
-1183 -1240 0
-1185 -1242 0
-1187 -1244 0
-1189 -1246 0
-1191 -1248 0
-1193 -1250 0
-1195 -1252 0
-1197 -1254 0
-1199 -1256 0
-1201 -1258 0
-1203 -1260 0
-1029 -1036 1262 0
-1029 -1037 1263 0
-1029 -1038 1264 0
-1030 -1036 1266 0
-1030 -1037 1267 0
-1030 -1038 1268 0
-1031 -1036 1270 0
-1031 -1037 1271 0
-1031 -1038 1272 0
-1032 -1036 1274 0
-1032 -1037 1275 0
-1032 -1038 1276 0
-1033 -1036 1278 0
-1033 -1037 1279 0
-1033 -1038 1280 0
-1034 -1036 1282 0
-1034 -1037 1283 0
-1034 -1038 1284 0
-1088 -1095 1262 0
-1088 -1096 1263 0
-1088 -1097 1264 0
-1089 -1095 1266 0
-1089 -1096 1267 0
-1089 -1097 1268 0
-1090 -1095 1270 0
-1090 -1096 1271 0
-1090 -1097 1272 0
-1091 -1095 1274 0
-1091 -1096 1275 0
-1091 -1097 1276 0
-1092 -1095 1278 0
-1092 -1096 1279 0
-1092 -1097 1280 0
-1093 -1095 1282 0
-1093 -1096 1283 0
-1093 -1097 1284 0
-1147 -1153 1262 1266 0
-1147 -1154 1263 1267 0
-1147 -1155 1264 1268 0
-1148 -1153 1266 1270 0
-1148 -1154 1267 1271 0
-1148 -1155 1268 1272 0
-1149 -1153 1270 1274 0
-1149 -1154 1271 1275 0
-1149 -1155 1272 1276 0
-1150 -1153 1274 1278 0
-1150 -1154 1275 1279 0
-1150 -1155 1276 1280 0
-1151 -1153 1278 1282 0
-1151 -1154 1279 1283 0
-1151 -1155 1280 1284 0
-1205 -1210 1262 1266 0
-1205 -1210 1262 1270 0
-1205 -1210 1266 1270 0
-1205 -1211 1263 1267 0
-1205 -1211 1263 1271 0
-1205 -1211 1267 1271 0
-1205 -1212 1264 1268 0
-1205 -1212 1264 1272 0
-1205 -1212 1268 1272 0
-1206 -1210 1266 1270 0
-1206 -1210 1266 1274 0
-1206 -1210 1270 1274 0
-1206 -1211 1267 1271 0
-1206 -1211 1267 1275 0
-1206 -1211 1271 1275 0
-1206 -1212 1268 1272 0
-1206 -1212 1268 1276 0
-1206 -1212 1272 1276 0
-1207 -1210 1270 1274 0
-1207 -1210 1270 1278 0
-1207 -1210 1274 1278 0
-1207 -1211 1271 1275 0
-1207 -1211 1271 1279 0
-1207 -1211 1275 1279 0
-1207 -1212 1272 1276 0
-1207 -1212 1272 1280 0
-1207 -1212 1276 1280 0
-1208 -1210 1274 1278 0
-1208 -1210 1274 1282 0
-1208 -1210 1278 1282 0
-1208 -1211 1275 1279 0
-1208 -1211 1275 1283 0
-1208 -1211 1279 1283 0
-1208 -1212 1276 1280 0
-1208 -1212 1276 1284 0
-1208 -1212 1280 1284 0
-1040 -1263 1041 0
-1041 1040 0
-1041 1263 0
-1042 -1264 1043 0
-1043 1042 0
-1043 1264 0
-1044 -1265 1045 0
-1045 1044 0
-1045 1265 0
-1047 0
-1048 -1267 1049 0
-1049 1048 0
-1049 1267 0
-1050 -1268 1051 0
-1051 1050 0
-1051 1268 0
-1052 -1269 1053 0
-1053 1052 0
-1053 1269 0
-1055 0
-1056 -1271 1057 0
-1057 1056 0
-1057 1271 0
-1058 -1272 1059 0
-1059 1058 0
-1059 1272 0
-1060 -1273 1061 0
-1061 1060 0
-1061 1273 0
-1063 0
-1064 -1275 1065 0
-1065 1064 0
-1065 1275 0
-1066 -1276 1067 0
-1067 1066 0
-1067 1276 0
-1068 -1277 1069 0
-1069 1068 0
-1069 1277 0
-1071 0
-1072 -1279 1073 0
-1073 1072 0
-1073 1279 0
-1074 -1280 1075 0
-1075 1074 0
-1075 1280 0
-1076 -1281 1077 0
-1077 1076 0
-1077 1281 0
-1079 0
-1080 -1283 1081 0
-1081 1080 0
-1081 1283 0
-1082 -1284 1083 0
-1083 1082 0
-1083 1284 0
-1084 -1285 1085 0
-1085 1084 0
-1085 1285 0
-1087 0
-1039 -1041 0
-1039 -1043 0
-1039 -1045 0
-1039 -1047 0
-1039 -1049 0
-1039 -1051 0
-1039 -1053 0
-1039 -1055 0
-1039 -1057 0
-1039 -1059 0
-1039 -1061 0
-1039 -1063 0
-1039 -1065 0
-1039 -1067 0
-1039 -1069 0
-1039 -1071 0
-1039 -1073 0
-1039 -1075 0
-1039 -1077 0
-1039 -1079 0
-1039 -1081 0
-1039 -1083 0
-1039 -1085 0
-1039 -1087 0
1039 1041 1043 1045 1047 1049 1051 1053 1055 1057 1059 1061 1063 1065 1067 1069 1071 1073 1075 1077 1079 1081 1083 1085 1087 0
-1099 -1263 1100 0
-1100 1099 0
-1100 1263 0
-1101 -1264 1102 0
-1102 1101 0
-1102 1264 0
-1103 -1265 1104 0
-1104 1103 0
-1104 1265 0
-1106 0
-1107 -1267 1108 0
-1108 1107 0
-1108 1267 0
-1109 -1268 1110 0
-1110 1109 0
-1110 1268 0
-1111 -1269 1112 0
-1112 1111 0
-1112 1269 0
-1114 0
-1115 -1271 1116 0
-1116 1115 0
-1116 1271 0
-1117 -1272 1118 0
-1118 1117 0
-1118 1272 0
-1119 -1273 1120 0
-1120 1119 0
-1120 1273 0
-1122 0
-1123 -1275 1124 0
-1124 1123 0
-1124 1275 0
-1125 -1276 1126 0
-1126 1125 0
-1126 1276 0
-1127 -1277 1128 0
-1128 1127 0
-1128 1277 0
-1130 0
-1131 -1279 1132 0
-1132 1131 0
-1132 1279 0
-1133 -1280 1134 0
-1134 1133 0
-1134 1280 0
-1135 -1281 1136 0
-1136 1135 0
-1136 1281 0
-1138 0
-1139 -1283 1140 0
-1140 1139 0
-1140 1283 0
-1141 -1284 1142 0
-1142 1141 0
-1142 1284 0
-1143 -1285 1144 0
-1144 1143 0
-1144 1285 0
-1146 0
-1098 -1100 0
-1098 -1102 0
-1098 -1104 0
-1098 -1106 0
-1098 -1108 0
-1098 -1110 0
-1098 -1112 0
-1098 -1114 0
-1098 -1116 0
-1098 -1118 0
-1098 -1120 0
-1098 -1122 0
-1098 -1124 0
-1098 -1126 0
-1098 -1128 0
-1098 -1130 0
-1098 -1132 0
-1098 -1134 0
-1098 -1136 0
-1098 -1138 0
-1098 -1140 0
-1098 -1142 0
-1098 -1144 0
-1098 -1146 0
1098 1100 1102 1104 1106 1108 1110 1112 1114 1116 1118 1120 1122 1124 1126 1128 1130 1132 1134 1136 1138 1140 1142 1144 1146 0
-1157 -1263 1158 0
-1158 1157 0
-1158 1263 0
-1159 -1264 1160 0
-1160 1159 0
-1160 1264 0
-1161 -1265 1162 0
-1162 1161 0
-1162 1265 0
-1164 0
-1165 -1267 1166 0
-1166 1165 0
-1166 1267 0
-1167 -1268 1168 0
-1168 1167 0
-1168 1268 0
-1169 -1269 1170 0
-1170 1169 0
-1170 1269 0
-1172 0
-1173 -1271 1174 0
-1174 1173 0
-1174 1271 0
-1175 -1272 1176 0
-1176 1175 0
-1176 1272 0
-1177 -1273 1178 0
-1178 1177 0
-1178 1273 0
-1180 0
-1181 -1275 1182 0
-1182 1181 0
-1182 1275 0
-1183 -1276 1184 0
-1184 1183 0
-1184 1276 0
-1185 -1277 1186 0
-1186 1185 0
-1186 1277 0
-1188 0
-1189 -1279 1190 0
-1190 1189 0
-1190 1279 0
-1191 -1280 1192 0
-1192 1191 0
-1192 1280 0
-1193 -1281 1194 0
-1194 1193 0
-1194 1281 0
-1196 0
-1197 -1283 1198 0
-1198 1197 0
-1198 1283 0
-1199 -1284 1200 0
-1200 1199 0
-1200 1284 0
-1201 -1285 1202 0
-1202 1201 0
-1202 1285 0
-1204 0
-1156 -1158 0
-1156 -1160 0
-1156 -1162 0
-1156 -1164 0
-1156 -1166 0
-1156 -1168 0
-1156 -1170 0
-1156 -1172 0
-1156 -1174 0
-1156 -1176 0
-1156 -1178 0
-1156 -1180 0
-1156 -1182 0
-1156 -1184 0
-1156 -1186 0
-1156 -1188 0
-1156 -1190 0
-1156 -1192 0
-1156 -1194 0
-1156 -1196 0
-1156 -1198 0
-1156 -1200 0
-1156 -1202 0
-1156 -1204 0
1156 1158 1160 1162 1164 1166 1168 1170 1172 1174 1176 1178 1180 1182 1184 1186 1188 1190 1192 1194 1196 1198 1200 1202 1204 0
-1214 -1263 1215 0
-1215 1214 0
-1215 1263 0
-1216 -1264 1217 0
-1217 1216 0
-1217 1264 0
-1218 -1265 1219 0
-1219 1218 0
-1219 1265 0
-1221 0
-1222 -1267 1223 0
-1223 1222 0
-1223 1267 0
-1224 -1268 1225 0
-1225 1224 0
-1225 1268 0
-1226 -1269 1227 0
-1227 1226 0
-1227 1269 0
-1229 0
-1230 -1271 1231 0
-1231 1230 0
-1231 1271 0
-1232 -1272 1233 0
-1233 1232 0
-1233 1272 0
-1234 -1273 1235 0
-1235 1234 0
-1235 1273 0
-1237 0
-1238 -1275 1239 0
-1239 1238 0
-1239 1275 0
-1240 -1276 1241 0
-1241 1240 0
-1241 1276 0
-1242 -1277 1243 0
-1243 1242 0
-1243 1277 0
-1245 0
-1246 -1279 1247 0
-1247 1246 0
-1247 1279 0
-1248 -1280 1249 0
-1249 1248 0
-1249 1280 0
-1250 -1281 1251 0
-1251 1250 0
-1251 1281 0
-1253 0
-1254 -1283 1255 0
-1255 1254 0
-1255 1283 0
-1256 -1284 1257 0
-1257 1256 0
-1257 1284 0
-1258 -1285 1259 0
-1259 1258 0
-1259 1285 0
-1261 0
-1213 -1215 0
-1213 -1217 0
-1213 -1219 0
-1213 -1221 0
-1213 -1223 0
-1213 -1225 0
-1213 -1227 0
-1213 -1229 0
-1213 -1231 0
-1213 -1233 0
-1213 -1235 0
-1213 -1237 0
-1213 -1239 0
-1213 -1241 0
-1213 -1243 0
-1213 -1245 0
-1213 -1247 0
-1213 -1249 0
-1213 -1251 0
-1213 -1253 0
-1213 -1255 0
-1213 -1257 0
-1213 -1259 0
-1213 -1261 0
1213 1215 1217 1219 1221 1223 1225 1227 1229 1231 1233 1235 1237 1239 1241 1243 1245 1247 1249 1251 1253 1255 1257 1259 1261 0
1286 1287 1288 1289 1290 1291 0
-1286 -1287 0
-1286 -1288 0
-1286 -1289 0
-1286 -1290 0
-1286 -1291 0
-1287 -1288 0
-1287 -1289 0
-1287 -1290 0
-1287 -1291 0
-1288 -1289 0
-1288 -1290 0
-1288 -1291 0
-1289 -1290 0
-1289 -1291 0
-1290 -1291 0
1292 1293 1294 1295 0
-1292 -1293 0
-1292 -1294 0
-1292 -1295 0
-1293 -1294 0
-1293 -1295 0
-1294 -1295 0
1345 1346 1347 1348 1349 1350 0
-1345 -1346 0
-1345 -1347 0
-1345 -1348 0
-1345 -1349 0
-1345 -1350 0
-1346 -1347 0
-1346 -1348 0
-1346 -1349 0
-1346 -1350 0
-1347 -1348 0
-1347 -1349 0
-1347 -1350 0
-1348 -1349 0
-1348 -1350 0
-1349 -1350 0
1351 1352 1353 1354 0
-1351 -1352 0
-1351 -1353 0
-1351 -1354 0
-1352 -1353 0
-1352 -1354 0
-1353 -1354 0
1404 1405 1406 1407 1408 0
-1404 -1405 0
-1404 -1406 0
-1404 -1407 0
-1404 -1408 0
-1405 -1406 0
-1405 -1407 0
-1405 -1408 0
-1406 -1407 0
-1406 -1408 0
-1407 -1408 0
1409 1410 1411 1412 0
-1409 -1410 0
-1409 -1411 0
-1409 -1412 0
-1410 -1411 0
-1410 -1412 0
-1411 -1412 0
1462 1463 1464 1465 0
-1462 -1463 0
-1462 -1464 0
-1462 -1465 0
-1463 -1464 0
-1463 -1465 0
-1464 -1465 0
1466 1467 1468 1469 0
-1466 -1467 0
-1466 -1468 0
-1466 -1469 0
-1467 -1468 0
-1467 -1469 0
-1468 -1469 0
-1286 -1292 1297 0
-1297 1292 0
-1297 1286 0
-1286 -1293 1299 0
-1299 1293 0
-1299 1286 0
-1286 -1294 1301 0
-1301 1294 0
-1301 1286 0
-1286 -1295 1303 0
-1303 1295 0
-1303 1286 0
-1287 -1292 1305 0
-1305 1292 0
-1305 1287 0
-1287 -1293 1307 0
-1307 1293 0
-1307 1287 0
-1287 -1294 1309 0
-1309 1294 0
-1309 1287 0
-1287 -1295 1311 0
-1311 1295 0
-1311 1287 0
-1288 -1292 1313 0
-1313 1292 0
-1313 1288 0
-1288 -1293 1315 0
-1315 1293 0
-1315 1288 0
-1288 -1294 1317 0
-1317 1294 0
-1317 1288 0
-1288 -1295 1319 0
-1319 1295 0
-1319 1288 0
-1289 -1292 1321 0
-1321 1292 0
-1321 1289 0
-1289 -1293 1323 0
-1323 1293 0
-1323 1289 0
-1289 -1294 1325 0
-1325 1294 0
-1325 1289 0
-1289 -1295 1327 0
-1327 1295 0
-1327 1289 0
-1290 -1292 1329 0
-1329 1292 0
-1329 1290 0
-1290 -1293 1331 0
-1331 1293 0
-1331 1290 0
-1290 -1294 1333 0
-1333 1294 0
-1333 1290 0
-1290 -1295 1335 0
-1335 1295 0
-1335 1290 0
-1291 -1292 1337 0
-1337 1292 0
-1337 1291 0
-1291 -1293 1339 0
-1339 1293 0
-1339 1291 0
-1291 -1294 1341 0
-1341 1294 0
-1341 1291 0
-1291 -1295 1343 0
-1343 1295 0
-1343 1291 0
-1345 -1351 1356 0
-1356 1351 0
-1356 1345 0
-1345 -1352 1358 0
-1358 1352 0
-1358 1345 0
-1345 -1353 1360 0
-1360 1353 0
-1360 1345 0
-1345 -1354 1362 0
-1362 1354 0
-1362 1345 0
-1346 -1351 1364 0
-1364 1351 0
-1364 1346 0
-1346 -1352 1366 0
-1366 1352 0
-1366 1346 0
-1346 -1353 1368 0
-1368 1353 0
-1368 1346 0
-1346 -1354 1370 0
-1370 1354 0
-1370 1346 0
-1347 -1351 1372 0
-1372 1351 0
-1372 1347 0
-1347 -1352 1374 0
-1374 1352 0
-1374 1347 0
-1347 -1353 1376 0
-1376 1353 0
-1376 1347 0
-1347 -1354 1378 0
-1378 1354 0
-1378 1347 0
-1348 -1351 1380 0
-1380 1351 0
-1380 1348 0
-1348 -1352 1382 0
-1382 1352 0
-1382 1348 0
-1348 -1353 1384 0
-1384 1353 0
-1384 1348 0
-1348 -1354 1386 0
-1386 1354 0
-1386 1348 0
-1349 -1351 1388 0
-1388 1351 0
-1388 1349 0
-1349 -1352 1390 0
-1390 1352 0
-1390 1349 0
-1349 -1353 1392 0
-1392 1353 0
-1392 1349 0
-1349 -1354 1394 0
-1394 1354 0
-1394 1349 0
-1350 -1351 1396 0
-1396 1351 0
-1396 1350 0
-1350 -1352 1398 0
-1398 1352 0
-1398 1350 0
-1350 -1353 1400 0
-1400 1353 0
-1400 1350 0
-1350 -1354 1402 0
-1402 1354 0
-1402 1350 0
-1404 -1409 1414 0
-1414 1409 0
-1414 1404 0
-1404 -1410 1416 0
-1416 1410 0
-1416 1404 0
-1404 -1411 1418 0
-1418 1411 0
-1418 1404 0
-1404 -1412 1420 0
-1420 1412 0
-1420 1404 0
-1404 -1409 1422 0
-1405 -1409 1422 0
-1422 1409 0
-1422 1404 1405 0
-1404 -1410 1424 0
-1405 -1410 1424 0
-1424 1410 0
-1424 1404 1405 0
-1404 -1411 1426 0
-1405 -1411 1426 0
-1426 1411 0
-1426 1404 1405 0
-1404 -1412 1428 0
-1405 -1412 1428 0
-1428 1412 0
-1428 1404 1405 0
-1405 -1409 1430 0
-1406 -1409 1430 0
-1430 1409 0
-1430 1405 1406 0
-1405 -1410 1432 0
-1406 -1410 1432 0
-1432 1410 0
-1432 1405 1406 0
-1405 -1411 1434 0
-1406 -1411 1434 0
-1434 1411 0
-1434 1405 1406 0
-1405 -1412 1436 0
-1406 -1412 1436 0
-1436 1412 0
-1436 1405 1406 0
-1406 -1409 1438 0
-1407 -1409 1438 0
-1438 1409 0
-1438 1406 1407 0
-1406 -1410 1440 0
-1407 -1410 1440 0
-1440 1410 0
-1440 1406 1407 0
-1406 -1411 1442 0
-1407 -1411 1442 0
-1442 1411 0
-1442 1406 1407 0
-1406 -1412 1444 0
-1407 -1412 1444 0
-1444 1412 0
-1444 1406 1407 0
-1407 -1409 1446 0
-1408 -1409 1446 0
-1446 1409 0
-1446 1407 1408 0
-1407 -1410 1448 0
-1408 -1410 1448 0
-1448 1410 0
-1448 1407 1408 0
-1407 -1411 1450 0
-1408 -1411 1450 0
-1450 1411 0
-1450 1407 1408 0
-1407 -1412 1452 0
-1408 -1412 1452 0
-1452 1412 0
-1452 1407 1408 0
-1408 -1409 1454 0
-1454 1409 0
-1454 1408 0
-1408 -1410 1456 0
-1456 1410 0
-1456 1408 0
-1408 -1411 1458 0
-1458 1411 0
-1458 1408 0
-1408 -1412 1460 0
-1460 1412 0
-1460 1408 0
-1462 -1466 1471 0
-1471 1466 0
-1471 1462 0
-1462 -1467 1473 0
-1473 1467 0
-1473 1462 0
-1462 -1468 1475 0
-1475 1468 0
-1475 1462 0
-1462 -1469 1477 0
-1477 1469 0
-1477 1462 0
-1462 -1466 1479 0
-1463 -1466 1479 0
-1479 1466 0
-1479 1462 1463 0
-1462 -1467 1481 0
-1463 -1467 1481 0
-1481 1467 0
-1481 1462 1463 0
-1462 -1468 1483 0
-1463 -1468 1483 0
-1483 1468 0
-1483 1462 1463 0
-1462 -1469 1485 0
-1463 -1469 1485 0
-1485 1469 0
-1485 1462 1463 0
-1462 -1466 1487 0
-1463 -1466 1487 0
-1464 -1466 1487 0
-1487 1466 0
-1487 1462 1463 1464 0
-1462 -1467 1489 0
-1463 -1467 1489 0
-1464 -1467 1489 0
-1489 1467 0
-1489 1462 1463 1464 0
-1462 -1468 1491 0
-1463 -1468 1491 0
-1464 -1468 1491 0
-1491 1468 0
-1491 1462 1463 1464 0
-1462 -1469 1493 0
-1463 -1469 1493 0
-1464 -1469 1493 0
-1493 1469 0
-1493 1462 1463 1464 0
-1463 -1466 1495 0
-1464 -1466 1495 0
-1465 -1466 1495 0
-1495 1466 0
-1495 1463 1464 1465 0
-1463 -1467 1497 0
-1464 -1467 1497 0
-1465 -1467 1497 0
-1497 1467 0
-1497 1463 1464 1465 0
-1463 -1468 1499 0
-1464 -1468 1499 0
-1465 -1468 1499 0
-1499 1468 0
-1499 1463 1464 1465 0
-1463 -1469 1501 0
-1464 -1469 1501 0
-1465 -1469 1501 0
-1501 1469 0
-1501 1463 1464 1465 0
-1464 -1466 1503 0
-1465 -1466 1503 0
-1503 1466 0
-1503 1464 1465 0
-1464 -1467 1505 0
-1465 -1467 1505 0
-1505 1467 0
-1505 1464 1465 0
-1464 -1468 1507 0
-1465 -1468 1507 0
-1507 1468 0
-1507 1464 1465 0
-1464 -1469 1509 0
-1465 -1469 1509 0
-1509 1469 0
-1509 1464 1465 0
-1465 -1466 1511 0
-1511 1466 0
-1511 1465 0
-1465 -1467 1513 0
-1513 1467 0
-1513 1465 0
-1465 -1468 1515 0
-1515 1468 0
-1515 1465 0
-1465 -1469 1517 0
-1517 1469 0
-1517 1465 0
-1297 1519 0
-1356 1519 0
-1414 1519 0
-1471 1519 0
-1519 1297 1356 1414 1471 0
-1299 1520 0
-1358 1520 0
-1416 1520 0
-1473 1520 0
-1520 1299 1358 1416 1473 0
-1301 1521 0
-1360 1521 0
-1418 1521 0
-1475 1521 0
-1521 1301 1360 1418 1475 0
-1303 1522 0
-1362 1522 0
-1420 1522 0
-1477 1522 0
-1522 1303 1362 1420 1477 0
-1305 1523 0
-1364 1523 0
-1422 1523 0
-1479 1523 0
-1523 1305 1364 1422 1479 0
-1307 1524 0
-1366 1524 0
-1424 1524 0
-1481 1524 0
-1524 1307 1366 1424 1481 0
-1309 1525 0
-1368 1525 0
-1426 1525 0
-1483 1525 0
-1525 1309 1368 1426 1483 0
-1311 1526 0
-1370 1526 0
-1428 1526 0
-1485 1526 0
-1526 1311 1370 1428 1485 0
-1313 1527 0
-1372 1527 0
-1430 1527 0
-1487 1527 0
-1527 1313 1372 1430 1487 0
-1315 1528 0
-1374 1528 0
-1432 1528 0
-1489 1528 0
-1528 1315 1374 1432 1489 0
-1317 1529 0
-1376 1529 0
-1434 1529 0
-1491 1529 0
-1529 1317 1376 1434 1491 0
-1319 1530 0
-1378 1530 0
-1436 1530 0
-1493 1530 0
-1530 1319 1378 1436 1493 0
-1321 1531 0
-1380 1531 0
-1438 1531 0
-1495 1531 0
-1531 1321 1380 1438 1495 0
-1323 1532 0
-1382 1532 0
-1440 1532 0
-1497 1532 0
-1532 1323 1382 1440 1497 0
-1325 1533 0
-1384 1533 0
-1442 1533 0
-1499 1533 0
-1533 1325 1384 1442 1499 0
-1327 1534 0
-1386 1534 0
-1444 1534 0
-1501 1534 0
-1534 1327 1386 1444 1501 0
-1329 1535 0
-1388 1535 0
-1446 1535 0
-1503 1535 0
-1535 1329 1388 1446 1503 0
-1331 1536 0
-1390 1536 0
-1448 1536 0
-1505 1536 0
-1536 1331 1390 1448 1505 0
-1333 1537 0
-1392 1537 0
-1450 1537 0
-1507 1537 0
-1537 1333 1392 1450 1507 0
-1335 1538 0
-1394 1538 0
-1452 1538 0
-1509 1538 0
-1538 1335 1394 1452 1509 0
-1337 1539 0
-1396 1539 0
-1454 1539 0
-1511 1539 0
-1539 1337 1396 1454 1511 0
-1339 1540 0
-1398 1540 0
-1456 1540 0
-1513 1540 0
-1540 1339 1398 1456 1513 0
-1341 1541 0
-1400 1541 0
-1458 1541 0
-1515 1541 0
-1541 1341 1400 1458 1515 0
-1343 1542 0
-1402 1542 0
-1460 1542 0
-1517 1542 0
-1542 1343 1402 1460 1517 0
-1297 -1356 0
-1299 -1358 0
-1301 -1360 0
-1303 -1362 0
-1305 -1364 0
-1307 -1366 0
-1309 -1368 0
-1311 -1370 0
-1313 -1372 0
-1315 -1374 0
-1317 -1376 0
-1319 -1378 0
-1321 -1380 0
-1323 -1382 0
-1325 -1384 0
-1327 -1386 0
-1329 -1388 0
-1331 -1390 0
-1333 -1392 0
-1335 -1394 0
-1337 -1396 0
-1339 -1398 0
-1341 -1400 0
-1343 -1402 0
-1297 -1414 0
-1299 -1416 0
-1301 -1418 0
-1303 -1420 0
-1305 -1422 0
-1307 -1424 0
-1309 -1426 0
-1311 -1428 0
-1313 -1430 0
-1315 -1432 0
-1317 -1434 0
-1319 -1436 0
-1321 -1438 0
-1323 -1440 0
-1325 -1442 0
-1327 -1444 0
-1329 -1446 0
-1331 -1448 0
-1333 -1450 0
-1335 -1452 0
-1337 -1454 0
-1339 -1456 0
-1341 -1458 0
-1343 -1460 0
-1297 -1471 0
-1299 -1473 0
-1301 -1475 0
-1303 -1477 0
-1305 -1479 0
-1307 -1481 0
-1309 -1483 0
-1311 -1485 0
-1313 -1487 0
-1315 -1489 0
-1317 -1491 0
-1319 -1493 0
-1321 -1495 0
-1323 -1497 0
-1325 -1499 0
-1327 -1501 0
-1329 -1503 0
-1331 -1505 0
-1333 -1507 0
-1335 -1509 0
-1337 -1511 0
-1339 -1513 0
-1341 -1515 0
-1343 -1517 0
-1356 -1414 0
-1358 -1416 0
-1360 -1418 0
-1362 -1420 0
-1364 -1422 0
-1366 -1424 0
-1368 -1426 0
-1370 -1428 0
-1372 -1430 0
-1374 -1432 0
-1376 -1434 0
-1378 -1436 0
-1380 -1438 0
-1382 -1440 0
-1384 -1442 0
-1386 -1444 0
-1388 -1446 0
-1390 -1448 0
-1392 -1450 0
-1394 -1452 0
-1396 -1454 0
-1398 -1456 0
-1400 -1458 0
-1402 -1460 0
-1356 -1471 0
-1358 -1473 0
-1360 -1475 0
-1362 -1477 0
-1364 -1479 0
-1366 -1481 0
-1368 -1483 0
-1370 -1485 0
-1372 -1487 0
-1374 -1489 0
-1376 -1491 0
-1378 -1493 0
-1380 -1495 0
-1382 -1497 0
-1384 -1499 0
-1386 -1501 0
-1388 -1503 0
-1390 -1505 0
-1392 -1507 0
-1394 -1509 0
-1396 -1511 0
-1398 -1513 0
-1400 -1515 0
-1402 -1517 0
-1414 -1471 0
-1416 -1473 0
-1418 -1475 0
-1420 -1477 0
-1422 -1479 0
-1424 -1481 0
-1426 -1483 0
-1428 -1485 0
-1430 -1487 0
-1432 -1489 0
-1434 -1491 0
-1436 -1493 0
-1438 -1495 0
-1440 -1497 0
-1442 -1499 0
-1444 -1501 0
-1446 -1503 0
-1448 -1505 0
-1450 -1507 0
-1452 -1509 0
-1454 -1511 0
-1456 -1513 0
-1458 -1515 0
-1460 -1517 0
-1286 -1293 1519 0
-1286 -1294 1520 0
-1286 -1295 1521 0
-1287 -1293 1523 0
-1287 -1294 1524 0
-1287 -1295 1525 0
-1288 -1293 1527 0
-1288 -1294 1528 0
-1288 -1295 1529 0
-1289 -1293 1531 0
-1289 -1294 1532 0
-1289 -1295 1533 0
-1290 -1293 1535 0
-1290 -1294 1536 0
-1290 -1295 1537 0
-1291 -1293 1539 0
-1291 -1294 1540 0
-1291 -1295 1541 0
-1345 -1352 1519 0
-1345 -1353 1520 0
-1345 -1354 1521 0
-1346 -1352 1523 0
-1346 -1353 1524 0
-1346 -1354 1525 0
-1347 -1352 1527 0
-1347 -1353 1528 0
-1347 -1354 1529 0
-1348 -1352 1531 0
-1348 -1353 1532 0
-1348 -1354 1533 0
-1349 -1352 1535 0
-1349 -1353 1536 0
-1349 -1354 1537 0
-1350 -1352 1539 0
-1350 -1353 1540 0
-1350 -1354 1541 0
-1404 -1410 1519 1523 0
-1404 -1411 1520 1524 0
-1404 -1412 1521 1525 0
-1405 -1410 1523 1527 0
-1405 -1411 1524 1528 0
-1405 -1412 1525 1529 0
-1406 -1410 1527 1531 0
-1406 -1411 1528 1532 0
-1406 -1412 1529 1533 0
-1407 -1410 1531 1535 0
-1407 -1411 1532 1536 0
-1407 -1412 1533 1537 0
-1408 -1410 1535 1539 0
-1408 -1411 1536 1540 0
-1408 -1412 1537 1541 0
-1462 -1467 1519 1523 0
-1462 -1467 1519 1527 0
-1462 -1467 1523 1527 0
-1462 -1468 1520 1524 0
-1462 -1468 1520 1528 0
-1462 -1468 1524 1528 0
-1462 -1469 1521 1525 0
-1462 -1469 1521 1529 0
-1462 -1469 1525 1529 0
-1463 -1467 1523 1527 0
-1463 -1467 1523 1531 0
-1463 -1467 1527 1531 0
-1463 -1468 1524 1528 0
-1463 -1468 1524 1532 0
-1463 -1468 1528 1532 0
-1463 -1469 1525 1529 0
-1463 -1469 1525 1533 0
-1463 -1469 1529 1533 0
-1464 -1467 1527 1531 0
-1464 -1467 1527 1535 0
-1464 -1467 1531 1535 0
-1464 -1468 1528 1532 0
-1464 -1468 1528 1536 0
-1464 -1468 1532 1536 0
-1464 -1469 1529 1533 0
-1464 -1469 1529 1537 0
-1464 -1469 1533 1537 0
-1465 -1467 1531 1535 0
-1465 -1467 1531 1539 0
-1465 -1467 1535 1539 0
-1465 -1468 1532 1536 0
-1465 -1468 1532 1540 0
-1465 -1468 1536 1540 0
-1465 -1469 1533 1537 0
-1465 -1469 1533 1541 0
-1465 -1469 1537 1541 0
-1297 -1520 1298 0
-1298 1297 0
-1298 1520 0
-1299 -1521 1300 0
-1300 1299 0
-1300 1521 0
-1301 -1522 1302 0
-1302 1301 0
-1302 1522 0
-1304 0
-1305 -1524 1306 0
-1306 1305 0
-1306 1524 0
-1307 -1525 1308 0
-1308 1307 0
-1308 1525 0
-1309 -1526 1310 0
-1310 1309 0
-1310 1526 0
-1312 0
-1313 -1528 1314 0
-1314 1313 0
-1314 1528 0
-1315 -1529 1316 0
-1316 1315 0
-1316 1529 0
-1317 -1530 1318 0
-1318 1317 0
-1318 1530 0
-1320 0
-1321 -1532 1322 0
-1322 1321 0
-1322 1532 0
-1323 -1533 1324 0
-1324 1323 0
-1324 1533 0
-1325 -1534 1326 0
-1326 1325 0
-1326 1534 0
-1328 0
-1329 -1536 1330 0
-1330 1329 0
-1330 1536 0
-1331 -1537 1332 0
-1332 1331 0
-1332 1537 0
-1333 -1538 1334 0
-1334 1333 0
-1334 1538 0
-1336 0
-1337 -1540 1338 0
-1338 1337 0
-1338 1540 0
-1339 -1541 1340 0
-1340 1339 0
-1340 1541 0
-1341 -1542 1342 0
-1342 1341 0
-1342 1542 0
-1344 0
-1296 -1298 0
-1296 -1300 0
-1296 -1302 0
-1296 -1304 0
-1296 -1306 0
-1296 -1308 0
-1296 -1310 0
-1296 -1312 0
-1296 -1314 0
-1296 -1316 0
-1296 -1318 0
-1296 -1320 0
-1296 -1322 0
-1296 -1324 0
-1296 -1326 0
-1296 -1328 0
-1296 -1330 0
-1296 -1332 0
-1296 -1334 0
-1296 -1336 0
-1296 -1338 0
-1296 -1340 0
-1296 -1342 0
-1296 -1344 0
1296 1298 1300 1302 1304 1306 1308 1310 1312 1314 1316 1318 1320 1322 1324 1326 1328 1330 1332 1334 1336 1338 1340 1342 1344 0
-1356 -1520 1357 0
-1357 1356 0
-1357 1520 0
-1358 -1521 1359 0
-1359 1358 0
-1359 1521 0
-1360 -1522 1361 0
-1361 1360 0
-1361 1522 0
-1363 0
-1364 -1524 1365 0
-1365 1364 0
-1365 1524 0
-1366 -1525 1367 0
-1367 1366 0
-1367 1525 0
-1368 -1526 1369 0
-1369 1368 0
-1369 1526 0
-1371 0
-1372 -1528 1373 0
-1373 1372 0
-1373 1528 0
-1374 -1529 1375 0
-1375 1374 0
-1375 1529 0
-1376 -1530 1377 0
-1377 1376 0
-1377 1530 0
-1379 0
-1380 -1532 1381 0
-1381 1380 0
-1381 1532 0
-1382 -1533 1383 0
-1383 1382 0
-1383 1533 0
-1384 -1534 1385 0
-1385 1384 0
-1385 1534 0
-1387 0
-1388 -1536 1389 0
-1389 1388 0
-1389 1536 0
-1390 -1537 1391 0
-1391 1390 0
-1391 1537 0
-1392 -1538 1393 0
-1393 1392 0
-1393 1538 0
-1395 0
-1396 -1540 1397 0
-1397 1396 0
-1397 1540 0
-1398 -1541 1399 0
-1399 1398 0
-1399 1541 0
-1400 -1542 1401 0
-1401 1400 0
-1401 1542 0
-1403 0
-1355 -1357 0
-1355 -1359 0
-1355 -1361 0
-1355 -1363 0
-1355 -1365 0
-1355 -1367 0
-1355 -1369 0
-1355 -1371 0
-1355 -1373 0
-1355 -1375 0
-1355 -1377 0
-1355 -1379 0
-1355 -1381 0
-1355 -1383 0
-1355 -1385 0
-1355 -1387 0
-1355 -1389 0
-1355 -1391 0
-1355 -1393 0
-1355 -1395 0
-1355 -1397 0
-1355 -1399 0
-1355 -1401 0
-1355 -1403 0
1355 1357 1359 1361 1363 1365 1367 1369 1371 1373 1375 1377 1379 1381 1383 1385 1387 1389 1391 1393 1395 1397 1399 1401 1403 0
-1414 -1520 1415 0
-1415 1414 0
-1415 1520 0
-1416 -1521 1417 0
-1417 1416 0
-1417 1521 0
-1418 -1522 1419 0
-1419 1418 0
-1419 1522 0
-1421 0
-1422 -1524 1423 0
-1423 1422 0
-1423 1524 0
-1424 -1525 1425 0
-1425 1424 0
-1425 1525 0
-1426 -1526 1427 0
-1427 1426 0
-1427 1526 0
-1429 0
-1430 -1528 1431 0
-1431 1430 0
-1431 1528 0
-1432 -1529 1433 0
-1433 1432 0
-1433 1529 0
-1434 -1530 1435 0
-1435 1434 0
-1435 1530 0
-1437 0
-1438 -1532 1439 0
-1439 1438 0
-1439 1532 0
-1440 -1533 1441 0
-1441 1440 0
-1441 1533 0
-1442 -1534 1443 0
-1443 1442 0
-1443 1534 0
-1445 0
-1446 -1536 1447 0
-1447 1446 0
-1447 1536 0
-1448 -1537 1449 0
-1449 1448 0
-1449 1537 0
-1450 -1538 1451 0
-1451 1450 0
-1451 1538 0
-1453 0
-1454 -1540 1455 0
-1455 1454 0
-1455 1540 0
-1456 -1541 1457 0
-1457 1456 0
-1457 1541 0
-1458 -1542 1459 0
-1459 1458 0
-1459 1542 0
-1461 0
-1413 -1415 0
-1413 -1417 0
-1413 -1419 0
-1413 -1421 0
-1413 -1423 0
-1413 -1425 0
-1413 -1427 0
-1413 -1429 0
-1413 -1431 0
-1413 -1433 0
-1413 -1435 0
-1413 -1437 0
-1413 -1439 0
-1413 -1441 0
-1413 -1443 0
-1413 -1445 0
-1413 -1447 0
-1413 -1449 0
-1413 -1451 0
-1413 -1453 0
-1413 -1455 0
-1413 -1457 0
-1413 -1459 0
-1413 -1461 0
1413 1415 1417 1419 1421 1423 1425 1427 1429 1431 1433 1435 1437 1439 1441 1443 1445 1447 1449 1451 1453 1455 1457 1459 1461 0
-1471 -1520 1472 0
-1472 1471 0
-1472 1520 0
-1473 -1521 1474 0
-1474 1473 0
-1474 1521 0
-1475 -1522 1476 0
-1476 1475 0
-1476 1522 0
-1478 0
-1479 -1524 1480 0
-1480 1479 0
-1480 1524 0
-1481 -1525 1482 0
-1482 1481 0
-1482 1525 0
-1483 -1526 1484 0
-1484 1483 0
-1484 1526 0
-1486 0
-1487 -1528 1488 0
-1488 1487 0
-1488 1528 0
-1489 -1529 1490 0
-1490 1489 0
-1490 1529 0
-1491 -1530 1492 0
-1492 1491 0
-1492 1530 0
-1494 0
-1495 -1532 1496 0
-1496 1495 0
-1496 1532 0
-1497 -1533 1498 0
-1498 1497 0
-1498 1533 0
-1499 -1534 1500 0
-1500 1499 0
-1500 1534 0
-1502 0
-1503 -1536 1504 0
-1504 1503 0
-1504 1536 0
-1505 -1537 1506 0
-1506 1505 0
-1506 1537 0
-1507 -1538 1508 0
-1508 1507 0
-1508 1538 0
-1510 0
-1511 -1540 1512 0
-1512 1511 0
-1512 1540 0
-1513 -1541 1514 0
-1514 1513 0
-1514 1541 0
-1515 -1542 1516 0
-1516 1515 0
-1516 1542 0
-1518 0
-1470 -1472 0
-1470 -1474 0
-1470 -1476 0
-1470 -1478 0
-1470 -1480 0
-1470 -1482 0
-1470 -1484 0
-1470 -1486 0
-1470 -1488 0
-1470 -1490 0
-1470 -1492 0
-1470 -1494 0
-1470 -1496 0
-1470 -1498 0
-1470 -1500 0
-1470 -1502 0
-1470 -1504 0
-1470 -1506 0
-1470 -1508 0
-1470 -1510 0
-1470 -1512 0
-1470 -1514 0
-1470 -1516 0
-1470 -1518 0
1470 1472 1474 1476 1478 1480 1482 1484 1486 1488 1490 1492 1494 1496 1498 1500 1502 1504 1506 1508 1510 1512 1514 1516 1518 0
-1543 -1544 0
-1543 -1545 0
-1543 -1546 0
-1543 -1547 0
-1543 -1548 0
-1543 -1549 0
-1543 -1550 0
-1543 -1551 0
-1543 -1552 0
-1543 -1553 0
-1543 -1554 0
-1543 -1555 0
-1543 -1556 0
-1543 -1557 0
-1543 -1558 0
-1543 -1559 0
-1543 -1560 0
-1543 -1561 0
-1543 -1562 0
-1543 -1563 0
-1543 -1564 0
-1543 -1565 0
-1543 -1566 0
-1543 -1567 0
-1543 -1568 0
-1543 -1569 0
-1543 -1570 0
-1543 -1571 0
-1543 -1572 0
-1543 -1573 0
-1543 -1574 0
-1543 -1575 0
-1543 -1576 0
-1543 -1577 0
-1543 -1578 0
-1543 -1579 0
-1543 -1580 0
-1543 -1581 0
-1543 -1582 0
-1543 -1583 0
-1543 -1584 0
-1543 -1585 0
-1543 -1586 0
-1543 -1587 0
-1543 -1588 0
-1543 -1589 0
-1543 -1590 0
-1543 -1591 0
-1543 -1592 0
-1543 -1593 0
-1543 -1594 0
-1543 -1595 0
-1543 -1596 0
-1543 -1597 0
-1543 -1598 0
-1543 -1599 0
-1543 -1600 0
-1543 -1601 0
-1543 -1602 0
-1543 -1603 0
-1543 -1604 0
-1543 -1605 0
-1543 -1606 0
-1543 -1607 0
-1543 -1608 0
-1543 -1609 0
-1543 -1610 0
-1543 -1611 0
-1543 -1612 0
-1543 -1613 0
-1543 -1614 0
-1543 -1615 0
-1543 -1616 0
-1543 -1617 0
-1543 -1618 0
-1543 -1619 0
-1543 -1620 0
-1543 -1621 0
-1543 -1622 0
-1543 -1623 0
-1543 -1624 0
-1543 -1625 0
-1543 -1626 0
-1544 -1545 0
-1544 -1546 0
-1544 -1547 0
-1544 -1548 0
-1544 -1549 0
-1544 -1550 0
-1544 -1551 0
-1544 -1552 0
-1544 -1553 0
-1544 -1554 0
-1544 -1555 0
-1544 -1556 0
-1544 -1557 0
-1544 -1558 0
-1544 -1559 0
-1544 -1560 0
-1544 -1561 0
-1544 -1562 0
-1544 -1563 0
-1544 -1564 0
-1544 -1565 0
-1544 -1566 0
-1544 -1567 0
-1544 -1568 0
-1544 -1569 0
-1544 -1570 0
-1544 -1571 0
-1544 -1572 0
-1544 -1573 0
-1544 -1574 0
-1544 -1575 0
-1544 -1576 0
-1544 -1577 0
-1544 -1578 0
-1544 -1579 0
-1544 -1580 0
-1544 -1581 0
-1544 -1582 0
-1544 -1583 0
-1544 -1584 0
-1544 -1585 0
-1544 -1586 0
-1544 -1587 0
-1544 -1588 0
-1544 -1589 0
-1544 -1590 0
-1544 -1591 0
-1544 -1592 0
-1544 -1593 0
-1544 -1594 0
-1544 -1595 0
-1544 -1596 0
-1544 -1597 0
-1544 -1598 0
-1544 -1599 0
-1544 -1600 0
-1544 -1601 0
-1544 -1602 0
-1544 -1603 0
-1544 -1604 0
-1544 -1605 0
-1544 -1606 0
-1544 -1607 0
-1544 -1608 0
-1544 -1609 0
-1544 -1610 0
-1544 -1611 0
-1544 -1612 0
-1544 -1613 0
-1544 -1614 0
-1544 -1615 0
-1544 -1616 0
-1544 -1617 0
-1544 -1618 0
-1544 -1619 0
-1544 -1620 0
-1544 -1621 0
-1544 -1622 0
-1544 -1623 0
-1544 -1624 0
-1544 -1625 0
-1544 -1626 0
-1545 -1546 0
-1545 -1547 0
-1545 -1548 0
-1545 -1549 0
-1545 -1550 0
-1545 -1551 0
-1545 -1552 0
-1545 -1553 0
-1545 -1554 0
-1545 -1555 0
-1545 -1556 0
-1545 -1557 0
-1545 -1558 0
-1545 -1559 0
-1545 -1560 0
-1545 -1561 0
-1545 -1562 0
-1545 -1563 0
-1545 -1564 0
-1545 -1565 0
-1545 -1566 0
-1545 -1567 0
-1545 -1568 0
-1545 -1569 0
-1545 -1570 0
-1545 -1571 0
-1545 -1572 0
-1545 -1573 0
-1545 -1574 0
-1545 -1575 0
-1545 -1576 0
-1545 -1577 0
-1545 -1578 0
-1545 -1579 0
-1545 -1580 0
-1545 -1581 0
-1545 -1582 0
-1545 -1583 0
-1545 -1584 0
-1545 -1585 0
-1545 -1586 0
-1545 -1587 0
-1545 -1588 0
-1545 -1589 0
-1545 -1590 0
-1545 -1591 0
-1545 -1592 0
-1545 -1593 0
-1545 -1594 0
-1545 -1595 0
-1545 -1596 0
-1545 -1597 0
-1545 -1598 0
-1545 -1599 0
-1545 -1600 0
-1545 -1601 0
-1545 -1602 0
-1545 -1603 0
-1545 -1604 0
-1545 -1605 0
-1545 -1606 0
-1545 -1607 0
-1545 -1608 0
-1545 -1609 0
-1545 -1610 0
-1545 -1611 0
-1545 -1612 0
-1545 -1613 0
-1545 -1614 0
-1545 -1615 0
-1545 -1616 0
-1545 -1617 0
-1545 -1618 0
-1545 -1619 0
-1545 -1620 0
-1545 -1621 0
-1545 -1622 0
-1545 -1623 0
-1545 -1624 0
-1545 -1625 0
-1545 -1626 0
-1546 -1547 0
-1546 -1548 0
-1546 -1549 0
-1546 -1550 0
-1546 -1551 0
-1546 -1552 0
-1546 -1553 0
-1546 -1554 0
-1546 -1555 0
-1546 -1556 0
-1546 -1557 0
-1546 -1558 0
-1546 -1559 0
-1546 -1560 0
-1546 -1561 0
-1546 -1562 0
-1546 -1563 0
-1546 -1564 0
-1546 -1565 0
-1546 -1566 0
-1546 -1567 0
-1546 -1568 0
-1546 -1569 0
-1546 -1570 0
-1546 -1571 0
-1546 -1572 0
-1546 -1573 0
-1546 -1574 0
-1546 -1575 0
-1546 -1576 0
-1546 -1577 0
-1546 -1578 0
-1546 -1579 0
-1546 -1580 0
-1546 -1581 0
-1546 -1582 0
-1546 -1583 0
-1546 -1584 0
-1546 -1585 0
-1546 -1586 0
-1546 -1587 0
-1546 -1588 0
-1546 -1589 0
-1546 -1590 0
-1546 -1591 0
-1546 -1592 0
-1546 -1593 0
-1546 -1594 0
-1546 -1595 0
-1546 -1596 0
-1546 -1597 0
-1546 -1598 0
-1546 -1599 0
-1546 -1600 0
-1546 -1601 0
-1546 -1602 0
-1546 -1603 0
-1546 -1604 0
-1546 -1605 0
-1546 -1606 0
-1546 -1607 0
-1546 -1608 0
-1546 -1609 0
-1546 -1610 0
-1546 -1611 0
-1546 -1612 0
-1546 -1613 0
-1546 -1614 0
-1546 -1615 0
-1546 -1616 0
-1546 -1617 0
-1546 -1618 0
-1546 -1619 0
-1546 -1620 0
-1546 -1621 0
-1546 -1622 0
-1546 -1623 0
-1546 -1624 0
-1546 -1625 0
-1546 -1626 0
-1547 -1548 0
-1547 -1549 0
-1547 -1550 0
-1547 -1551 0
-1547 -1552 0
-1547 -1553 0
-1547 -1554 0
-1547 -1555 0
-1547 -1556 0
-1547 -1557 0
-1547 -1558 0
-1547 -1559 0
-1547 -1560 0
-1547 -1561 0
-1547 -1562 0
-1547 -1563 0
-1547 -1564 0
-1547 -1565 0
-1547 -1566 0
-1547 -1567 0
-1547 -1568 0
-1547 -1569 0
-1547 -1570 0
-1547 -1571 0
-1547 -1572 0
-1547 -1573 0
-1547 -1574 0
-1547 -1575 0
-1547 -1576 0
-1547 -1577 0
-1547 -1578 0
-1547 -1579 0
-1547 -1580 0
-1547 -1581 0
-1547 -1582 0
-1547 -1583 0
-1547 -1584 0
-1547 -1585 0
-1547 -1586 0
-1547 -1587 0
-1547 -1588 0
-1547 -1589 0
-1547 -1590 0
-1547 -1591 0
-1547 -1592 0
-1547 -1593 0
-1547 -1594 0
-1547 -1595 0
-1547 -1596 0
-1547 -1597 0
-1547 -1598 0
-1547 -1599 0
-1547 -1600 0
-1547 -1601 0
-1547 -1602 0
-1547 -1603 0
-1547 -1604 0
-1547 -1605 0
-1547 -1606 0
-1547 -1607 0
-1547 -1608 0
-1547 -1609 0
-1547 -1610 0
-1547 -1611 0
-1547 -1612 0
-1547 -1613 0
-1547 -1614 0
-1547 -1615 0
-1547 -1616 0
-1547 -1617 0
-1547 -1618 0
-1547 -1619 0
-1547 -1620 0
-1547 -1621 0
-1547 -1622 0
-1547 -1623 0
-1547 -1624 0
-1547 -1625 0
-1547 -1626 0
-1548 -1549 0
-1548 -1550 0
-1548 -1551 0
-1548 -1552 0
-1548 -1553 0
-1548 -1554 0
-1548 -1555 0
-1548 -1556 0
-1548 -1557 0
-1548 -1558 0
-1548 -1559 0
-1548 -1560 0
-1548 -1561 0
-1548 -1562 0
-1548 -1563 0
-1548 -1564 0
-1548 -1565 0
-1548 -1566 0
-1548 -1567 0
-1548 -1568 0
-1548 -1569 0
-1548 -1570 0
-1548 -1571 0
-1548 -1572 0
-1548 -1573 0
-1548 -1574 0
-1548 -1575 0
-1548 -1576 0
-1548 -1577 0
-1548 -1578 0
-1548 -1579 0
-1548 -1580 0
-1548 -1581 0
-1548 -1582 0
-1548 -1583 0
-1548 -1584 0
-1548 -1585 0
-1548 -1586 0
-1548 -1587 0
-1548 -1588 0
-1548 -1589 0
-1548 -1590 0
-1548 -1591 0
-1548 -1592 0
-1548 -1593 0
-1548 -1594 0
-1548 -1595 0
-1548 -1596 0
-1548 -1597 0
-1548 -1598 0
-1548 -1599 0
-1548 -1600 0
-1548 -1601 0
-1548 -1602 0
-1548 -1603 0
-1548 -1604 0
-1548 -1605 0
-1548 -1606 0
-1548 -1607 0
-1548 -1608 0
-1548 -1609 0
-1548 -1610 0
-1548 -1611 0
-1548 -1612 0
-1548 -1613 0
-1548 -1614 0
-1548 -1615 0
-1548 -1616 0
-1548 -1617 0
-1548 -1618 0
-1548 -1619 0
-1548 -1620 0
-1548 -1621 0
-1548 -1622 0
-1548 -1623 0
-1548 -1624 0
-1548 -1625 0
-1548 -1626 0
-1549 -1550 0
-1549 -1551 0
-1549 -1552 0
-1549 -1553 0
-1549 -1554 0
-1549 -1555 0
-1549 -1556 0
-1549 -1557 0
-1549 -1558 0
-1549 -1559 0
-1549 -1560 0
-1549 -1561 0
-1549 -1562 0
-1549 -1563 0
-1549 -1564 0
-1549 -1565 0
-1549 -1566 0
-1549 -1567 0
-1549 -1568 0
-1549 -1569 0
-1549 -1570 0
-1549 -1571 0
-1549 -1572 0
-1549 -1573 0
-1549 -1574 0
-1549 -1575 0
-1549 -1576 0
-1549 -1577 0
-1549 -1578 0
-1549 -1579 0
-1549 -1580 0
-1549 -1581 0
-1549 -1582 0
-1549 -1583 0
-1549 -1584 0
-1549 -1585 0
-1549 -1586 0
-1549 -1587 0
-1549 -1588 0
-1549 -1589 0
-1549 -1590 0
-1549 -1591 0
-1549 -1592 0
-1549 -1593 0
-1549 -1594 0
-1549 -1595 0
-1549 -1596 0
-1549 -1597 0
-1549 -1598 0
-1549 -1599 0
-1549 -1600 0
-1549 -1601 0
-1549 -1602 0
-1549 -1603 0
-1549 -1604 0
-1549 -1605 0
-1549 -1606 0
-1549 -1607 0
-1549 -1608 0
-1549 -1609 0
-1549 -1610 0
-1549 -1611 0
-1549 -1612 0
-1549 -1613 0
-1549 -1614 0
-1549 -1615 0
-1549 -1616 0
-1549 -1617 0
-1549 -1618 0
-1549 -1619 0
-1549 -1620 0
-1549 -1621 0
-1549 -1622 0
-1549 -1623 0
-1549 -1624 0
-1549 -1625 0
-1549 -1626 0
-1550 -1551 0
-1550 -1552 0
-1550 -1553 0
-1550 -1554 0
-1550 -1555 0
-1550 -1556 0
-1550 -1557 0
-1550 -1558 0
-1550 -1559 0
-1550 -1560 0
-1550 -1561 0
-1550 -1562 0
-1550 -1563 0
-1550 -1564 0
-1550 -1565 0
-1550 -1566 0
-1550 -1567 0
-1550 -1568 0
-1550 -1569 0
-1550 -1570 0
-1550 -1571 0
-1550 -1572 0
-1550 -1573 0
-1550 -1574 0
-1550 -1575 0
-1550 -1576 0
-1550 -1577 0
-1550 -1578 0
-1550 -1579 0
-1550 -1580 0
-1550 -1581 0
-1550 -1582 0
-1550 -1583 0
-1550 -1584 0
-1550 -1585 0
-1550 -1586 0
-1550 -1587 0
-1550 -1588 0
-1550 -1589 0
-1550 -1590 0
-1550 -1591 0
-1550 -1592 0
-1550 -1593 0
-1550 -1594 0
-1550 -1595 0
-1550 -1596 0
-1550 -1597 0
-1550 -1598 0
-1550 -1599 0
-1550 -1600 0
-1550 -1601 0
-1550 -1602 0
-1550 -1603 0
-1550 -1604 0
-1550 -1605 0
-1550 -1606 0
-1550 -1607 0
-1550 -1608 0
-1550 -1609 0
-1550 -1610 0
-1550 -1611 0
-1550 -1612 0
-1550 -1613 0
-1550 -1614 0
-1550 -1615 0
-1550 -1616 0
-1550 -1617 0
-1550 -1618 0
-1550 -1619 0
-1550 -1620 0
-1550 -1621 0
-1550 -1622 0
-1550 -1623 0
-1550 -1624 0
-1550 -1625 0
-1550 -1626 0
-1551 -1552 0
-1551 -1553 0
-1551 -1554 0
-1551 -1555 0
-1551 -1556 0
-1551 -1557 0
-1551 -1558 0
-1551 -1559 0
-1551 -1560 0
-1551 -1561 0
-1551 -1562 0
-1551 -1563 0
-1551 -1564 0
-1551 -1565 0
-1551 -1566 0
-1551 -1567 0
-1551 -1568 0
-1551 -1569 0
-1551 -1570 0
-1551 -1571 0
-1551 -1572 0
-1551 -1573 0
-1551 -1574 0
-1551 -1575 0
-1551 -1576 0
-1551 -1577 0
-1551 -1578 0
-1551 -1579 0
-1551 -1580 0
-1551 -1581 0
-1551 -1582 0
-1551 -1583 0
-1551 -1584 0
-1551 -1585 0
-1551 -1586 0
-1551 -1587 0
-1551 -1588 0
-1551 -1589 0
-1551 -1590 0
-1551 -1591 0
-1551 -1592 0
-1551 -1593 0
-1551 -1594 0
-1551 -1595 0
-1551 -1596 0
-1551 -1597 0
-1551 -1598 0
-1551 -1599 0
-1551 -1600 0
-1551 -1601 0
-1551 -1602 0
-1551 -1603 0
-1551 -1604 0
-1551 -1605 0
-1551 -1606 0
-1551 -1607 0
-1551 -1608 0
-1551 -1609 0
-1551 -1610 0
-1551 -1611 0
-1551 -1612 0
-1551 -1613 0
-1551 -1614 0
-1551 -1615 0
-1551 -1616 0
-1551 -1617 0
-1551 -1618 0
-1551 -1619 0
-1551 -1620 0
-1551 -1621 0
-1551 -1622 0
-1551 -1623 0
-1551 -1624 0
-1551 -1625 0
-1551 -1626 0
-1552 -1553 0
-1552 -1554 0
-1552 -1555 0
-1552 -1556 0
-1552 -1557 0
-1552 -1558 0
-1552 -1559 0
-1552 -1560 0
-1552 -1561 0
-1552 -1562 0
-1552 -1563 0
-1552 -1564 0
-1552 -1565 0
-1552 -1566 0
-1552 -1567 0
-1552 -1568 0
-1552 -1569 0
-1552 -1570 0
-1552 -1571 0
-1552 -1572 0
-1552 -1573 0
-1552 -1574 0
-1552 -1575 0
-1552 -1576 0
-1552 -1577 0
-1552 -1578 0
-1552 -1579 0
-1552 -1580 0
-1552 -1581 0
-1552 -1582 0
-1552 -1583 0
-1552 -1584 0
-1552 -1585 0
-1552 -1586 0
-1552 -1587 0
-1552 -1588 0
-1552 -1589 0
-1552 -1590 0
-1552 -1591 0
-1552 -1592 0
-1552 -1593 0
-1552 -1594 0
-1552 -1595 0
-1552 -1596 0
-1552 -1597 0
-1552 -1598 0
-1552 -1599 0
-1552 -1600 0
-1552 -1601 0
-1552 -1602 0
-1552 -1603 0
-1552 -1604 0
-1552 -1605 0
-1552 -1606 0
-1552 -1607 0
-1552 -1608 0
-1552 -1609 0
-1552 -1610 0
-1552 -1611 0
-1552 -1612 0
-1552 -1613 0
-1552 -1614 0
-1552 -1615 0
-1552 -1616 0
-1552 -1617 0
-1552 -1618 0
-1552 -1619 0
-1552 -1620 0
-1552 -1621 0
-1552 -1622 0
-1552 -1623 0
-1552 -1624 0
-1552 -1625 0
-1552 -1626 0
-1553 -1554 0
-1553 -1555 0
-1553 -1556 0
-1553 -1557 0
-1553 -1558 0
-1553 -1559 0
-1553 -1560 0
-1553 -1561 0
-1553 -1562 0
-1553 -1563 0
-1553 -1564 0
-1553 -1565 0
-1553 -1566 0
-1553 -1567 0
-1553 -1568 0
-1553 -1569 0
-1553 -1570 0
-1553 -1571 0
-1553 -1572 0
-1553 -1573 0
-1553 -1574 0
-1553 -1575 0
-1553 -1576 0
-1553 -1577 0
-1553 -1578 0
-1553 -1579 0
-1553 -1580 0
-1553 -1581 0
-1553 -1582 0
-1553 -1583 0
-1553 -1584 0
-1553 -1585 0
-1553 -1586 0
-1553 -1587 0
-1553 -1588 0
-1553 -1589 0
-1553 -1590 0
-1553 -1591 0
-1553 -1592 0
-1553 -1593 0
-1553 -1594 0
-1553 -1595 0
-1553 -1596 0
-1553 -1597 0
-1553 -1598 0
-1553 -1599 0
-1553 -1600 0
-1553 -1601 0
-1553 -1602 0
-1553 -1603 0
-1553 -1604 0
-1553 -1605 0
-1553 -1606 0
-1553 -1607 0
-1553 -1608 0
-1553 -1609 0
-1553 -1610 0
-1553 -1611 0
-1553 -1612 0
-1553 -1613 0
-1553 -1614 0
-1553 -1615 0
-1553 -1616 0
-1553 -1617 0
-1553 -1618 0
-1553 -1619 0
-1553 -1620 0
-1553 -1621 0
-1553 -1622 0
-1553 -1623 0
-1553 -1624 0
-1553 -1625 0
-1553 -1626 0
-1554 -1555 0
-1554 -1556 0
-1554 -1557 0
-1554 -1558 0
-1554 -1559 0
-1554 -1560 0
-1554 -1561 0
-1554 -1562 0
-1554 -1563 0
-1554 -1564 0
-1554 -1565 0
-1554 -1566 0
-1554 -1567 0
-1554 -1568 0
-1554 -1569 0
-1554 -1570 0
-1554 -1571 0
-1554 -1572 0
-1554 -1573 0
-1554 -1574 0
-1554 -1575 0
-1554 -1576 0
-1554 -1577 0
-1554 -1578 0
-1554 -1579 0
-1554 -1580 0
-1554 -1581 0
-1554 -1582 0
-1554 -1583 0
-1554 -1584 0
-1554 -1585 0
-1554 -1586 0
-1554 -1587 0
-1554 -1588 0
-1554 -1589 0
-1554 -1590 0
-1554 -1591 0
-1554 -1592 0
-1554 -1593 0
-1554 -1594 0
-1554 -1595 0
-1554 -1596 0
-1554 -1597 0
-1554 -1598 0
-1554 -1599 0
-1554 -1600 0
-1554 -1601 0
-1554 -1602 0
-1554 -1603 0
-1554 -1604 0
-1554 -1605 0
-1554 -1606 0
-1554 -1607 0
-1554 -1608 0
-1554 -1609 0
-1554 -1610 0
-1554 -1611 0
-1554 -1612 0
-1554 -1613 0
-1554 -1614 0
-1554 -1615 0
-1554 -1616 0
-1554 -1617 0
-1554 -1618 0
-1554 -1619 0
-1554 -1620 0
-1554 -1621 0
-1554 -1622 0
-1554 -1623 0
-1554 -1624 0
-1554 -1625 0
-1554 -1626 0
-1555 -1556 0
-1555 -1557 0
-1555 -1558 0
-1555 -1559 0
-1555 -1560 0
-1555 -1561 0
-1555 -1562 0
-1555 -1563 0
-1555 -1564 0
-1555 -1565 0
-1555 -1566 0
-1555 -1567 0
-1555 -1568 0
-1555 -1569 0
-1555 -1570 0
-1555 -1571 0
-1555 -1572 0
-1555 -1573 0
-1555 -1574 0
-1555 -1575 0
-1555 -1576 0
-1555 -1577 0
-1555 -1578 0
-1555 -1579 0
-1555 -1580 0
-1555 -1581 0
-1555 -1582 0
-1555 -1583 0
-1555 -1584 0
-1555 -1585 0
-1555 -1586 0
-1555 -1587 0
-1555 -1588 0
-1555 -1589 0
-1555 -1590 0
-1555 -1591 0
-1555 -1592 0
-1555 -1593 0
-1555 -1594 0
-1555 -1595 0
-1555 -1596 0
-1555 -1597 0
-1555 -1598 0
-1555 -1599 0
-1555 -1600 0
-1555 -1601 0
-1555 -1602 0
-1555 -1603 0
-1555 -1604 0
-1555 -1605 0
-1555 -1606 0
-1555 -1607 0
-1555 -1608 0
-1555 -1609 0
-1555 -1610 0
-1555 -1611 0
-1555 -1612 0
-1555 -1613 0
-1555 -1614 0
-1555 -1615 0
-1555 -1616 0
-1555 -1617 0
-1555 -1618 0
-1555 -1619 0
-1555 -1620 0
-1555 -1621 0
-1555 -1622 0
-1555 -1623 0
-1555 -1624 0
-1555 -1625 0
-1555 -1626 0
-1556 -1557 0
-1556 -1558 0
-1556 -1559 0
-1556 -1560 0
-1556 -1561 0
-1556 -1562 0
-1556 -1563 0
-1556 -1564 0
-1556 -1565 0
-1556 -1566 0
-1556 -1567 0
-1556 -1568 0
-1556 -1569 0
-1556 -1570 0
-1556 -1571 0
-1556 -1572 0
-1556 -1573 0
-1556 -1574 0
-1556 -1575 0
-1556 -1576 0
-1556 -1577 0
-1556 -1578 0
-1556 -1579 0
-1556 -1580 0
-1556 -1581 0
-1556 -1582 0
-1556 -1583 0
-1556 -1584 0
-1556 -1585 0
-1556 -1586 0
-1556 -1587 0
-1556 -1588 0
-1556 -1589 0
-1556 -1590 0
-1556 -1591 0
-1556 -1592 0
-1556 -1593 0
-1556 -1594 0
-1556 -1595 0
-1556 -1596 0
-1556 -1597 0
-1556 -1598 0
-1556 -1599 0
-1556 -1600 0
-1556 -1601 0
-1556 -1602 0
-1556 -1603 0
-1556 -1604 0
-1556 -1605 0
-1556 -1606 0
-1556 -1607 0
-1556 -1608 0
-1556 -1609 0
-1556 -1610 0
-1556 -1611 0
-1556 -1612 0
-1556 -1613 0
-1556 -1614 0
-1556 -1615 0
-1556 -1616 0
-1556 -1617 0
-1556 -1618 0
-1556 -1619 0
-1556 -1620 0
-1556 -1621 0
-1556 -1622 0
-1556 -1623 0
-1556 -1624 0
-1556 -1625 0
-1556 -1626 0
-1557 -1558 0
-1557 -1559 0
-1557 -1560 0
-1557 -1561 0
-1557 -1562 0
-1557 -1563 0
-1557 -1564 0
-1557 -1565 0
-1557 -1566 0
-1557 -1567 0
-1557 -1568 0
-1557 -1569 0
-1557 -1570 0
-1557 -1571 0
-1557 -1572 0
-1557 -1573 0
-1557 -1574 0
-1557 -1575 0
-1557 -1576 0
-1557 -1577 0
-1557 -1578 0
-1557 -1579 0
-1557 -1580 0
-1557 -1581 0
-1557 -1582 0
-1557 -1583 0
-1557 -1584 0
-1557 -1585 0
-1557 -1586 0
-1557 -1587 0
-1557 -1588 0
-1557 -1589 0
-1557 -1590 0
-1557 -1591 0
-1557 -1592 0
-1557 -1593 0
-1557 -1594 0
-1557 -1595 0
-1557 -1596 0
-1557 -1597 0
-1557 -1598 0
-1557 -1599 0
-1557 -1600 0
-1557 -1601 0
-1557 -1602 0
-1557 -1603 0
-1557 -1604 0
-1557 -1605 0
-1557 -1606 0
-1557 -1607 0
-1557 -1608 0
-1557 -1609 0
-1557 -1610 0
-1557 -1611 0
-1557 -1612 0
-1557 -1613 0
-1557 -1614 0
-1557 -1615 0
-1557 -1616 0
-1557 -1617 0
-1557 -1618 0
-1557 -1619 0
-1557 -1620 0
-1557 -1621 0
-1557 -1622 0
-1557 -1623 0
-1557 -1624 0
-1557 -1625 0
-1557 -1626 0
-1558 -1559 0
-1558 -1560 0
-1558 -1561 0
-1558 -1562 0
-1558 -1563 0
-1558 -1564 0
-1558 -1565 0
-1558 -1566 0
-1558 -1567 0
-1558 -1568 0
-1558 -1569 0
-1558 -1570 0
-1558 -1571 0
-1558 -1572 0
-1558 -1573 0
-1558 -1574 0
-1558 -1575 0
-1558 -1576 0
-1558 -1577 0
-1558 -1578 0
-1558 -1579 0
-1558 -1580 0
-1558 -1581 0
-1558 -1582 0
-1558 -1583 0
-1558 -1584 0
-1558 -1585 0
-1558 -1586 0
-1558 -1587 0
-1558 -1588 0
-1558 -1589 0
-1558 -1590 0
-1558 -1591 0
-1558 -1592 0
-1558 -1593 0
-1558 -1594 0
-1558 -1595 0
-1558 -1596 0
-1558 -1597 0
-1558 -1598 0
-1558 -1599 0
-1558 -1600 0
-1558 -1601 0
-1558 -1602 0
-1558 -1603 0
-1558 -1604 0
-1558 -1605 0
-1558 -1606 0
-1558 -1607 0
-1558 -1608 0
-1558 -1609 0
-1558 -1610 0
-1558 -1611 0
-1558 -1612 0
-1558 -1613 0
-1558 -1614 0
-1558 -1615 0
-1558 -1616 0
-1558 -1617 0
-1558 -1618 0
-1558 -1619 0
-1558 -1620 0
-1558 -1621 0
-1558 -1622 0
-1558 -1623 0
-1558 -1624 0
-1558 -1625 0
-1558 -1626 0
-1559 -1560 0
-1559 -1561 0
-1559 -1562 0
-1559 -1563 0
-1559 -1564 0
-1559 -1565 0
-1559 -1566 0
-1559 -1567 0
-1559 -1568 0
-1559 -1569 0
-1559 -1570 0
-1559 -1571 0
-1559 -1572 0
-1559 -1573 0
-1559 -1574 0
-1559 -1575 0
-1559 -1576 0
-1559 -1577 0
-1559 -1578 0
-1559 -1579 0
-1559 -1580 0
-1559 -1581 0
-1559 -1582 0
-1559 -1583 0
-1559 -1584 0
-1559 -1585 0
-1559 -1586 0
-1559 -1587 0
-1559 -1588 0
-1559 -1589 0
-1559 -1590 0
-1559 -1591 0
-1559 -1592 0
-1559 -1593 0
-1559 -1594 0
-1559 -1595 0
-1559 -1596 0
-1559 -1597 0
-1559 -1598 0
-1559 -1599 0
-1559 -1600 0
-1559 -1601 0
-1559 -1602 0
-1559 -1603 0
-1559 -1604 0
-1559 -1605 0
-1559 -1606 0
-1559 -1607 0
-1559 -1608 0
-1559 -1609 0
-1559 -1610 0
-1559 -1611 0
-1559 -1612 0
-1559 -1613 0
-1559 -1614 0
-1559 -1615 0
-1559 -1616 0
-1559 -1617 0
-1559 -1618 0
-1559 -1619 0
-1559 -1620 0
-1559 -1621 0
-1559 -1622 0
-1559 -1623 0
-1559 -1624 0
-1559 -1625 0
-1559 -1626 0
-1560 -1561 0
-1560 -1562 0
-1560 -1563 0
-1560 -1564 0
-1560 -1565 0
-1560 -1566 0
-1560 -1567 0
-1560 -1568 0
-1560 -1569 0
-1560 -1570 0
-1560 -1571 0
-1560 -1572 0
-1560 -1573 0
-1560 -1574 0
-1560 -1575 0
-1560 -1576 0
-1560 -1577 0
-1560 -1578 0
-1560 -1579 0
-1560 -1580 0
-1560 -1581 0
-1560 -1582 0
-1560 -1583 0
-1560 -1584 0
-1560 -1585 0
-1560 -1586 0
-1560 -1587 0
-1560 -1588 0
-1560 -1589 0
-1560 -1590 0
-1560 -1591 0
-1560 -1592 0
-1560 -1593 0
-1560 -1594 0
-1560 -1595 0
-1560 -1596 0
-1560 -1597 0
-1560 -1598 0
-1560 -1599 0
-1560 -1600 0
-1560 -1601 0
-1560 -1602 0
-1560 -1603 0
-1560 -1604 0
-1560 -1605 0
-1560 -1606 0
-1560 -1607 0
-1560 -1608 0
-1560 -1609 0
-1560 -1610 0
-1560 -1611 0
-1560 -1612 0
-1560 -1613 0
-1560 -1614 0
-1560 -1615 0
-1560 -1616 0
-1560 -1617 0
-1560 -1618 0
-1560 -1619 0
-1560 -1620 0
-1560 -1621 0
-1560 -1622 0
-1560 -1623 0
-1560 -1624 0
-1560 -1625 0
-1560 -1626 0
-1561 -1562 0
-1561 -1563 0
-1561 -1564 0
-1561 -1565 0
-1561 -1566 0
-1561 -1567 0
-1561 -1568 0
-1561 -1569 0
-1561 -1570 0
-1561 -1571 0
-1561 -1572 0
-1561 -1573 0
-1561 -1574 0
-1561 -1575 0
-1561 -1576 0
-1561 -1577 0
-1561 -1578 0
-1561 -1579 0
-1561 -1580 0
-1561 -1581 0
-1561 -1582 0
-1561 -1583 0
-1561 -1584 0
-1561 -1585 0
-1561 -1586 0
-1561 -1587 0
-1561 -1588 0
-1561 -1589 0
-1561 -1590 0
-1561 -1591 0
-1561 -1592 0
-1561 -1593 0
-1561 -1594 0
-1561 -1595 0
-1561 -1596 0
-1561 -1597 0
-1561 -1598 0
-1561 -1599 0
-1561 -1600 0
-1561 -1601 0
-1561 -1602 0
-1561 -1603 0
-1561 -1604 0
-1561 -1605 0
-1561 -1606 0
-1561 -1607 0
-1561 -1608 0
-1561 -1609 0
-1561 -1610 0
-1561 -1611 0
-1561 -1612 0
-1561 -1613 0
-1561 -1614 0
-1561 -1615 0
-1561 -1616 0
-1561 -1617 0
-1561 -1618 0
-1561 -1619 0
-1561 -1620 0
-1561 -1621 0
-1561 -1622 0
-1561 -1623 0
-1561 -1624 0
-1561 -1625 0
-1561 -1626 0
-1562 -1563 0
-1562 -1564 0
-1562 -1565 0
-1562 -1566 0
-1562 -1567 0
-1562 -1568 0
-1562 -1569 0
-1562 -1570 0
-1562 -1571 0
-1562 -1572 0
-1562 -1573 0
-1562 -1574 0
-1562 -1575 0
-1562 -1576 0
-1562 -1577 0
-1562 -1578 0
-1562 -1579 0
-1562 -1580 0
-1562 -1581 0
-1562 -1582 0
-1562 -1583 0
-1562 -1584 0
-1562 -1585 0
-1562 -1586 0
-1562 -1587 0
-1562 -1588 0
-1562 -1589 0
-1562 -1590 0
-1562 -1591 0
-1562 -1592 0
-1562 -1593 0
-1562 -1594 0
-1562 -1595 0
-1562 -1596 0
-1562 -1597 0
-1562 -1598 0
-1562 -1599 0
-1562 -1600 0
-1562 -1601 0
-1562 -1602 0
-1562 -1603 0
-1562 -1604 0
-1562 -1605 0
-1562 -1606 0
-1562 -1607 0
-1562 -1608 0
-1562 -1609 0
-1562 -1610 0
-1562 -1611 0
-1562 -1612 0
-1562 -1613 0
-1562 -1614 0
-1562 -1615 0
-1562 -1616 0
-1562 -1617 0
-1562 -1618 0
-1562 -1619 0
-1562 -1620 0
-1562 -1621 0
-1562 -1622 0
-1562 -1623 0
-1562 -1624 0
-1562 -1625 0
-1562 -1626 0
-1563 -1564 0
-1563 -1565 0
-1563 -1566 0
-1563 -1567 0
-1563 -1568 0
-1563 -1569 0
-1563 -1570 0
-1563 -1571 0
-1563 -1572 0
-1563 -1573 0
-1563 -1574 0
-1563 -1575 0
-1563 -1576 0
-1563 -1577 0
-1563 -1578 0
-1563 -1579 0
-1563 -1580 0
-1563 -1581 0
-1563 -1582 0
-1563 -1583 0
-1563 -1584 0
-1563 -1585 0
-1563 -1586 0
-1563 -1587 0
-1563 -1588 0
-1563 -1589 0
-1563 -1590 0
-1563 -1591 0
-1563 -1592 0
-1563 -1593 0
-1563 -1594 0
-1563 -1595 0
-1563 -1596 0
-1563 -1597 0
-1563 -1598 0
-1563 -1599 0
-1563 -1600 0
-1563 -1601 0
-1563 -1602 0
-1563 -1603 0
-1563 -1604 0
-1563 -1605 0
-1563 -1606 0
-1563 -1607 0
-1563 -1608 0
-1563 -1609 0
-1563 -1610 0
-1563 -1611 0
-1563 -1612 0
-1563 -1613 0
-1563 -1614 0
-1563 -1615 0
-1563 -1616 0
-1563 -1617 0
-1563 -1618 0
-1563 -1619 0
-1563 -1620 0
-1563 -1621 0
-1563 -1622 0
-1563 -1623 0
-1563 -1624 0
-1563 -1625 0
-1563 -1626 0
-1564 -1565 0
-1564 -1566 0
-1564 -1567 0
-1564 -1568 0
-1564 -1569 0
-1564 -1570 0
-1564 -1571 0
-1564 -1572 0
-1564 -1573 0
-1564 -1574 0
-1564 -1575 0
-1564 -1576 0
-1564 -1577 0
-1564 -1578 0
-1564 -1579 0
-1564 -1580 0
-1564 -1581 0
-1564 -1582 0
-1564 -1583 0
-1564 -1584 0
-1564 -1585 0
-1564 -1586 0
-1564 -1587 0
-1564 -1588 0
-1564 -1589 0
-1564 -1590 0
-1564 -1591 0
-1564 -1592 0
-1564 -1593 0
-1564 -1594 0
-1564 -1595 0
-1564 -1596 0
-1564 -1597 0
-1564 -1598 0
-1564 -1599 0
-1564 -1600 0
-1564 -1601 0
-1564 -1602 0
-1564 -1603 0
-1564 -1604 0
-1564 -1605 0
-1564 -1606 0
-1564 -1607 0
-1564 -1608 0
-1564 -1609 0
-1564 -1610 0
-1564 -1611 0
-1564 -1612 0
-1564 -1613 0
-1564 -1614 0
-1564 -1615 0
-1564 -1616 0
-1564 -1617 0
-1564 -1618 0
-1564 -1619 0
-1564 -1620 0
-1564 -1621 0
-1564 -1622 0
-1564 -1623 0
-1564 -1624 0
-1564 -1625 0
-1564 -1626 0
-1565 -1566 0
-1565 -1567 0
-1565 -1568 0
-1565 -1569 0
-1565 -1570 0
-1565 -1571 0
-1565 -1572 0
-1565 -1573 0
-1565 -1574 0
-1565 -1575 0
-1565 -1576 0
-1565 -1577 0
-1565 -1578 0
-1565 -1579 0
-1565 -1580 0
-1565 -1581 0
-1565 -1582 0
-1565 -1583 0
-1565 -1584 0
-1565 -1585 0
-1565 -1586 0
-1565 -1587 0
-1565 -1588 0
-1565 -1589 0
-1565 -1590 0
-1565 -1591 0
-1565 -1592 0
-1565 -1593 0
-1565 -1594 0
-1565 -1595 0
-1565 -1596 0
-1565 -1597 0
-1565 -1598 0
-1565 -1599 0
-1565 -1600 0
-1565 -1601 0
-1565 -1602 0
-1565 -1603 0
-1565 -1604 0
-1565 -1605 0
-1565 -1606 0
-1565 -1607 0
-1565 -1608 0
-1565 -1609 0
-1565 -1610 0
-1565 -1611 0
-1565 -1612 0
-1565 -1613 0
-1565 -1614 0
-1565 -1615 0
-1565 -1616 0
-1565 -1617 0
-1565 -1618 0
-1565 -1619 0
-1565 -1620 0
-1565 -1621 0
-1565 -1622 0
-1565 -1623 0
-1565 -1624 0
-1565 -1625 0
-1565 -1626 0
-1566 -1567 0
-1566 -1568 0
-1566 -1569 0
-1566 -1570 0
-1566 -1571 0
-1566 -1572 0
-1566 -1573 0
-1566 -1574 0
-1566 -1575 0
-1566 -1576 0
-1566 -1577 0
-1566 -1578 0
-1566 -1579 0
-1566 -1580 0
-1566 -1581 0
-1566 -1582 0
-1566 -1583 0
-1566 -1584 0
-1566 -1585 0
-1566 -1586 0
-1566 -1587 0
-1566 -1588 0
-1566 -1589 0
-1566 -1590 0
-1566 -1591 0
-1566 -1592 0
-1566 -1593 0
-1566 -1594 0
-1566 -1595 0
-1566 -1596 0
-1566 -1597 0
-1566 -1598 0
-1566 -1599 0
-1566 -1600 0
-1566 -1601 0
-1566 -1602 0
-1566 -1603 0
-1566 -1604 0
-1566 -1605 0
-1566 -1606 0
-1566 -1607 0
-1566 -1608 0
-1566 -1609 0
-1566 -1610 0
-1566 -1611 0
-1566 -1612 0
-1566 -1613 0
-1566 -1614 0
-1566 -1615 0
-1566 -1616 0
-1566 -1617 0
-1566 -1618 0
-1566 -1619 0
-1566 -1620 0
-1566 -1621 0
-1566 -1622 0
-1566 -1623 0
-1566 -1624 0
-1566 -1625 0
-1566 -1626 0
-1567 -1568 0
-1567 -1569 0
-1567 -1570 0
-1567 -1571 0
-1567 -1572 0
-1567 -1573 0
-1567 -1574 0
-1567 -1575 0
-1567 -1576 0
-1567 -1577 0
-1567 -1578 0
-1567 -1579 0
-1567 -1580 0
-1567 -1581 0
-1567 -1582 0
-1567 -1583 0
-1567 -1584 0
-1567 -1585 0
-1567 -1586 0
-1567 -1587 0
-1567 -1588 0
-1567 -1589 0
-1567 -1590 0
-1567 -1591 0
-1567 -1592 0
-1567 -1593 0
-1567 -1594 0
-1567 -1595 0
-1567 -1596 0
-1567 -1597 0
-1567 -1598 0
-1567 -1599 0
-1567 -1600 0
-1567 -1601 0
-1567 -1602 0
-1567 -1603 0
-1567 -1604 0
-1567 -1605 0
-1567 -1606 0
-1567 -1607 0
-1567 -1608 0
-1567 -1609 0
-1567 -1610 0
-1567 -1611 0
-1567 -1612 0
-1567 -1613 0
-1567 -1614 0
-1567 -1615 0
-1567 -1616 0
-1567 -1617 0
-1567 -1618 0
-1567 -1619 0
-1567 -1620 0
-1567 -1621 0
-1567 -1622 0
-1567 -1623 0
-1567 -1624 0
-1567 -1625 0
-1567 -1626 0
-1568 -1569 0
-1568 -1570 0
-1568 -1571 0
-1568 -1572 0
-1568 -1573 0
-1568 -1574 0
-1568 -1575 0
-1568 -1576 0
-1568 -1577 0
-1568 -1578 0
-1568 -1579 0
-1568 -1580 0
-1568 -1581 0
-1568 -1582 0
-1568 -1583 0
-1568 -1584 0
-1568 -1585 0
-1568 -1586 0
-1568 -1587 0
-1568 -1588 0
-1568 -1589 0
-1568 -1590 0
-1568 -1591 0
-1568 -1592 0
-1568 -1593 0
-1568 -1594 0
-1568 -1595 0
-1568 -1596 0
-1568 -1597 0
-1568 -1598 0
-1568 -1599 0
-1568 -1600 0
-1568 -1601 0
-1568 -1602 0
-1568 -1603 0
-1568 -1604 0
-1568 -1605 0
-1568 -1606 0
-1568 -1607 0
-1568 -1608 0
-1568 -1609 0
-1568 -1610 0
-1568 -1611 0
-1568 -1612 0
-1568 -1613 0
-1568 -1614 0
-1568 -1615 0
-1568 -1616 0
-1568 -1617 0
-1568 -1618 0
-1568 -1619 0
-1568 -1620 0
-1568 -1621 0
-1568 -1622 0
-1568 -1623 0
-1568 -1624 0
-1568 -1625 0
-1568 -1626 0
-1569 -1570 0
-1569 -1571 0
-1569 -1572 0
-1569 -1573 0
-1569 -1574 0
-1569 -1575 0
-1569 -1576 0
-1569 -1577 0
-1569 -1578 0
-1569 -1579 0
-1569 -1580 0
-1569 -1581 0
-1569 -1582 0
-1569 -1583 0
-1569 -1584 0
-1569 -1585 0
-1569 -1586 0
-1569 -1587 0
-1569 -1588 0
-1569 -1589 0
-1569 -1590 0
-1569 -1591 0
-1569 -1592 0
-1569 -1593 0
-1569 -1594 0
-1569 -1595 0
-1569 -1596 0
-1569 -1597 0
-1569 -1598 0
-1569 -1599 0
-1569 -1600 0
-1569 -1601 0
-1569 -1602 0
-1569 -1603 0
-1569 -1604 0
-1569 -1605 0
-1569 -1606 0
-1569 -1607 0
-1569 -1608 0
-1569 -1609 0
-1569 -1610 0
-1569 -1611 0
-1569 -1612 0
-1569 -1613 0
-1569 -1614 0
-1569 -1615 0
-1569 -1616 0
-1569 -1617 0
-1569 -1618 0
-1569 -1619 0
-1569 -1620 0
-1569 -1621 0
-1569 -1622 0
-1569 -1623 0
-1569 -1624 0
-1569 -1625 0
-1569 -1626 0
-1570 -1571 0
-1570 -1572 0
-1570 -1573 0
-1570 -1574 0
-1570 -1575 0
-1570 -1576 0
-1570 -1577 0
-1570 -1578 0
-1570 -1579 0
-1570 -1580 0
-1570 -1581 0
-1570 -1582 0
-1570 -1583 0
-1570 -1584 0
-1570 -1585 0
-1570 -1586 0
-1570 -1587 0
-1570 -1588 0
-1570 -1589 0
-1570 -1590 0
-1570 -1591 0
-1570 -1592 0
-1570 -1593 0
-1570 -1594 0
-1570 -1595 0
-1570 -1596 0
-1570 -1597 0
-1570 -1598 0
-1570 -1599 0
-1570 -1600 0
-1570 -1601 0
-1570 -1602 0
-1570 -1603 0
-1570 -1604 0
-1570 -1605 0
-1570 -1606 0
-1570 -1607 0
-1570 -1608 0
-1570 -1609 0
-1570 -1610 0
-1570 -1611 0
-1570 -1612 0
-1570 -1613 0
-1570 -1614 0
-1570 -1615 0
-1570 -1616 0
-1570 -1617 0
-1570 -1618 0
-1570 -1619 0
-1570 -1620 0
-1570 -1621 0
-1570 -1622 0
-1570 -1623 0
-1570 -1624 0
-1570 -1625 0
-1570 -1626 0
-1571 -1572 0
-1571 -1573 0
-1571 -1574 0
-1571 -1575 0
-1571 -1576 0
-1571 -1577 0
-1571 -1578 0
-1571 -1579 0
-1571 -1580 0
-1571 -1581 0
-1571 -1582 0
-1571 -1583 0
-1571 -1584 0
-1571 -1585 0
-1571 -1586 0
-1571 -1587 0
-1571 -1588 0
-1571 -1589 0
-1571 -1590 0
-1571 -1591 0
-1571 -1592 0
-1571 -1593 0
-1571 -1594 0
-1571 -1595 0
-1571 -1596 0
-1571 -1597 0
-1571 -1598 0
-1571 -1599 0
-1571 -1600 0
-1571 -1601 0
-1571 -1602 0
-1571 -1603 0
-1571 -1604 0
-1571 -1605 0
-1571 -1606 0
-1571 -1607 0
-1571 -1608 0
-1571 -1609 0
-1571 -1610 0
-1571 -1611 0
-1571 -1612 0
-1571 -1613 0
-1571 -1614 0
-1571 -1615 0
-1571 -1616 0
-1571 -1617 0
-1571 -1618 0
-1571 -1619 0
-1571 -1620 0
-1571 -1621 0
-1571 -1622 0
-1571 -1623 0
-1571 -1624 0
-1571 -1625 0
-1571 -1626 0
-1572 -1573 0
-1572 -1574 0
-1572 -1575 0
-1572 -1576 0
-1572 -1577 0
-1572 -1578 0
-1572 -1579 0
-1572 -1580 0
-1572 -1581 0
-1572 -1582 0
-1572 -1583 0
-1572 -1584 0
-1572 -1585 0
-1572 -1586 0
-1572 -1587 0
-1572 -1588 0
-1572 -1589 0
-1572 -1590 0
-1572 -1591 0
-1572 -1592 0
-1572 -1593 0
-1572 -1594 0
-1572 -1595 0
-1572 -1596 0
-1572 -1597 0
-1572 -1598 0
-1572 -1599 0
-1572 -1600 0
-1572 -1601 0
-1572 -1602 0
-1572 -1603 0
-1572 -1604 0
-1572 -1605 0
-1572 -1606 0
-1572 -1607 0
-1572 -1608 0
-1572 -1609 0
-1572 -1610 0
-1572 -1611 0
-1572 -1612 0
-1572 -1613 0
-1572 -1614 0
-1572 -1615 0
-1572 -1616 0
-1572 -1617 0
-1572 -1618 0
-1572 -1619 0
-1572 -1620 0
-1572 -1621 0
-1572 -1622 0
-1572 -1623 0
-1572 -1624 0
-1572 -1625 0
-1572 -1626 0
-1573 -1574 0
-1573 -1575 0
-1573 -1576 0
-1573 -1577 0
-1573 -1578 0
-1573 -1579 0
-1573 -1580 0
-1573 -1581 0
-1573 -1582 0
-1573 -1583 0
-1573 -1584 0
-1573 -1585 0
-1573 -1586 0
-1573 -1587 0
-1573 -1588 0
-1573 -1589 0
-1573 -1590 0
-1573 -1591 0
-1573 -1592 0
-1573 -1593 0
-1573 -1594 0
-1573 -1595 0
-1573 -1596 0
-1573 -1597 0
-1573 -1598 0
-1573 -1599 0
-1573 -1600 0
-1573 -1601 0
-1573 -1602 0
-1573 -1603 0
-1573 -1604 0
-1573 -1605 0
-1573 -1606 0
-1573 -1607 0
-1573 -1608 0
-1573 -1609 0
-1573 -1610 0
-1573 -1611 0
-1573 -1612 0
-1573 -1613 0
-1573 -1614 0
-1573 -1615 0
-1573 -1616 0
-1573 -1617 0
-1573 -1618 0
-1573 -1619 0
-1573 -1620 0
-1573 -1621 0
-1573 -1622 0
-1573 -1623 0
-1573 -1624 0
-1573 -1625 0
-1573 -1626 0
-1574 -1575 0
-1574 -1576 0
-1574 -1577 0
-1574 -1578 0
-1574 -1579 0
-1574 -1580 0
-1574 -1581 0
-1574 -1582 0
-1574 -1583 0
-1574 -1584 0
-1574 -1585 0
-1574 -1586 0
-1574 -1587 0
-1574 -1588 0
-1574 -1589 0
-1574 -1590 0
-1574 -1591 0
-1574 -1592 0
-1574 -1593 0
-1574 -1594 0
-1574 -1595 0
-1574 -1596 0
-1574 -1597 0
-1574 -1598 0
-1574 -1599 0
-1574 -1600 0
-1574 -1601 0
-1574 -1602 0
-1574 -1603 0
-1574 -1604 0
-1574 -1605 0
-1574 -1606 0
-1574 -1607 0
-1574 -1608 0
-1574 -1609 0
-1574 -1610 0
-1574 -1611 0
-1574 -1612 0
-1574 -1613 0
-1574 -1614 0
-1574 -1615 0
-1574 -1616 0
-1574 -1617 0
-1574 -1618 0
-1574 -1619 0
-1574 -1620 0
-1574 -1621 0
-1574 -1622 0
-1574 -1623 0
-1574 -1624 0
-1574 -1625 0
-1574 -1626 0
-1575 -1576 0
-1575 -1577 0
-1575 -1578 0
-1575 -1579 0
-1575 -1580 0
-1575 -1581 0
-1575 -1582 0
-1575 -1583 0
-1575 -1584 0
-1575 -1585 0
-1575 -1586 0
-1575 -1587 0
-1575 -1588 0
-1575 -1589 0
-1575 -1590 0
-1575 -1591 0
-1575 -1592 0
-1575 -1593 0
-1575 -1594 0
-1575 -1595 0
-1575 -1596 0
-1575 -1597 0
-1575 -1598 0
-1575 -1599 0
-1575 -1600 0
-1575 -1601 0
-1575 -1602 0
-1575 -1603 0
-1575 -1604 0
-1575 -1605 0
-1575 -1606 0
-1575 -1607 0
-1575 -1608 0
-1575 -1609 0
-1575 -1610 0
-1575 -1611 0
-1575 -1612 0
-1575 -1613 0
-1575 -1614 0
-1575 -1615 0
-1575 -1616 0
-1575 -1617 0
-1575 -1618 0
-1575 -1619 0
-1575 -1620 0
-1575 -1621 0
-1575 -1622 0
-1575 -1623 0
-1575 -1624 0
-1575 -1625 0
-1575 -1626 0
-1576 -1577 0
-1576 -1578 0
-1576 -1579 0
-1576 -1580 0
-1576 -1581 0
-1576 -1582 0
-1576 -1583 0
-1576 -1584 0
-1576 -1585 0
-1576 -1586 0
-1576 -1587 0
-1576 -1588 0
-1576 -1589 0
-1576 -1590 0
-1576 -1591 0
-1576 -1592 0
-1576 -1593 0
-1576 -1594 0
-1576 -1595 0
-1576 -1596 0
-1576 -1597 0
-1576 -1598 0
-1576 -1599 0
-1576 -1600 0
-1576 -1601 0
-1576 -1602 0
-1576 -1603 0
-1576 -1604 0
-1576 -1605 0
-1576 -1606 0
-1576 -1607 0
-1576 -1608 0
-1576 -1609 0
-1576 -1610 0
-1576 -1611 0
-1576 -1612 0
-1576 -1613 0
-1576 -1614 0
-1576 -1615 0
-1576 -1616 0
-1576 -1617 0
-1576 -1618 0
-1576 -1619 0
-1576 -1620 0
-1576 -1621 0
-1576 -1622 0
-1576 -1623 0
-1576 -1624 0
-1576 -1625 0
-1576 -1626 0
-1577 -1578 0
-1577 -1579 0
-1577 -1580 0
-1577 -1581 0
-1577 -1582 0
-1577 -1583 0
-1577 -1584 0
-1577 -1585 0
-1577 -1586 0
-1577 -1587 0
-1577 -1588 0
-1577 -1589 0
-1577 -1590 0
-1577 -1591 0
-1577 -1592 0
-1577 -1593 0
-1577 -1594 0
-1577 -1595 0
-1577 -1596 0
-1577 -1597 0
-1577 -1598 0
-1577 -1599 0
-1577 -1600 0
-1577 -1601 0
-1577 -1602 0
-1577 -1603 0
-1577 -1604 0
-1577 -1605 0
-1577 -1606 0
-1577 -1607 0
-1577 -1608 0
-1577 -1609 0
-1577 -1610 0
-1577 -1611 0
-1577 -1612 0
-1577 -1613 0
-1577 -1614 0
-1577 -1615 0
-1577 -1616 0
-1577 -1617 0
-1577 -1618 0
-1577 -1619 0
-1577 -1620 0
-1577 -1621 0
-1577 -1622 0
-1577 -1623 0
-1577 -1624 0
-1577 -1625 0
-1577 -1626 0
-1578 -1579 0
-1578 -1580 0
-1578 -1581 0
-1578 -1582 0
-1578 -1583 0
-1578 -1584 0
-1578 -1585 0
-1578 -1586 0
-1578 -1587 0
-1578 -1588 0
-1578 -1589 0
-1578 -1590 0
-1578 -1591 0
-1578 -1592 0
-1578 -1593 0
-1578 -1594 0
-1578 -1595 0
-1578 -1596 0
-1578 -1597 0
-1578 -1598 0
-1578 -1599 0
-1578 -1600 0
-1578 -1601 0
-1578 -1602 0
-1578 -1603 0
-1578 -1604 0
-1578 -1605 0
-1578 -1606 0
-1578 -1607 0
-1578 -1608 0
-1578 -1609 0
-1578 -1610 0
-1578 -1611 0
-1578 -1612 0
-1578 -1613 0
-1578 -1614 0
-1578 -1615 0
-1578 -1616 0
-1578 -1617 0
-1578 -1618 0
-1578 -1619 0
-1578 -1620 0
-1578 -1621 0
-1578 -1622 0
-1578 -1623 0
-1578 -1624 0
-1578 -1625 0
-1578 -1626 0
-1579 -1580 0
-1579 -1581 0
-1579 -1582 0
-1579 -1583 0
-1579 -1584 0
-1579 -1585 0
-1579 -1586 0
-1579 -1587 0
-1579 -1588 0
-1579 -1589 0
-1579 -1590 0
-1579 -1591 0
-1579 -1592 0
-1579 -1593 0
-1579 -1594 0
-1579 -1595 0
-1579 -1596 0
-1579 -1597 0
-1579 -1598 0
-1579 -1599 0
-1579 -1600 0
-1579 -1601 0
-1579 -1602 0
-1579 -1603 0
-1579 -1604 0
-1579 -1605 0
-1579 -1606 0
-1579 -1607 0
-1579 -1608 0
-1579 -1609 0
-1579 -1610 0
-1579 -1611 0
-1579 -1612 0
-1579 -1613 0
-1579 -1614 0
-1579 -1615 0
-1579 -1616 0
-1579 -1617 0
-1579 -1618 0
-1579 -1619 0
-1579 -1620 0
-1579 -1621 0
-1579 -1622 0
-1579 -1623 0
-1579 -1624 0
-1579 -1625 0
-1579 -1626 0
-1580 -1581 0
-1580 -1582 0
-1580 -1583 0
-1580 -1584 0
-1580 -1585 0
-1580 -1586 0
-1580 -1587 0
-1580 -1588 0
-1580 -1589 0
-1580 -1590 0
-1580 -1591 0
-1580 -1592 0
-1580 -1593 0
-1580 -1594 0
-1580 -1595 0
-1580 -1596 0
-1580 -1597 0
-1580 -1598 0
-1580 -1599 0
-1580 -1600 0
-1580 -1601 0
-1580 -1602 0
-1580 -1603 0
-1580 -1604 0
-1580 -1605 0
-1580 -1606 0
-1580 -1607 0
-1580 -1608 0
-1580 -1609 0
-1580 -1610 0
-1580 -1611 0
-1580 -1612 0
-1580 -1613 0
-1580 -1614 0
-1580 -1615 0
-1580 -1616 0
-1580 -1617 0
-1580 -1618 0
-1580 -1619 0
-1580 -1620 0
-1580 -1621 0
-1580 -1622 0
-1580 -1623 0
-1580 -1624 0
-1580 -1625 0
-1580 -1626 0
-1581 -1582 0
-1581 -1583 0
-1581 -1584 0
-1581 -1585 0
-1581 -1586 0
-1581 -1587 0
-1581 -1588 0
-1581 -1589 0
-1581 -1590 0
-1581 -1591 0
-1581 -1592 0
-1581 -1593 0
-1581 -1594 0
-1581 -1595 0
-1581 -1596 0
-1581 -1597 0
-1581 -1598 0
-1581 -1599 0
-1581 -1600 0
-1581 -1601 0
-1581 -1602 0
-1581 -1603 0
-1581 -1604 0
-1581 -1605 0
-1581 -1606 0
-1581 -1607 0
-1581 -1608 0
-1581 -1609 0
-1581 -1610 0
-1581 -1611 0
-1581 -1612 0
-1581 -1613 0
-1581 -1614 0
-1581 -1615 0
-1581 -1616 0
-1581 -1617 0
-1581 -1618 0
-1581 -1619 0
-1581 -1620 0
-1581 -1621 0
-1581 -1622 0
-1581 -1623 0
-1581 -1624 0
-1581 -1625 0
-1581 -1626 0
-1582 -1583 0
-1582 -1584 0
-1582 -1585 0
-1582 -1586 0
-1582 -1587 0
-1582 -1588 0
-1582 -1589 0
-1582 -1590 0
-1582 -1591 0
-1582 -1592 0
-1582 -1593 0
-1582 -1594 0
-1582 -1595 0
-1582 -1596 0
-1582 -1597 0
-1582 -1598 0
-1582 -1599 0
-1582 -1600 0
-1582 -1601 0
-1582 -1602 0
-1582 -1603 0
-1582 -1604 0
-1582 -1605 0
-1582 -1606 0
-1582 -1607 0
-1582 -1608 0
-1582 -1609 0
-1582 -1610 0
-1582 -1611 0
-1582 -1612 0
-1582 -1613 0
-1582 -1614 0
-1582 -1615 0
-1582 -1616 0
-1582 -1617 0
-1582 -1618 0
-1582 -1619 0
-1582 -1620 0
-1582 -1621 0
-1582 -1622 0
-1582 -1623 0
-1582 -1624 0
-1582 -1625 0
-1582 -1626 0
-1583 -1584 0
-1583 -1585 0
-1583 -1586 0
-1583 -1587 0
-1583 -1588 0
-1583 -1589 0
-1583 -1590 0
-1583 -1591 0
-1583 -1592 0
-1583 -1593 0
-1583 -1594 0
-1583 -1595 0
-1583 -1596 0
-1583 -1597 0
-1583 -1598 0
-1583 -1599 0
-1583 -1600 0
-1583 -1601 0
-1583 -1602 0
-1583 -1603 0
-1583 -1604 0
-1583 -1605 0
-1583 -1606 0
-1583 -1607 0
-1583 -1608 0
-1583 -1609 0
-1583 -1610 0
-1583 -1611 0
-1583 -1612 0
-1583 -1613 0
-1583 -1614 0
-1583 -1615 0
-1583 -1616 0
-1583 -1617 0
-1583 -1618 0
-1583 -1619 0
-1583 -1620 0
-1583 -1621 0
-1583 -1622 0
-1583 -1623 0
-1583 -1624 0
-1583 -1625 0
-1583 -1626 0
-1584 -1585 0
-1584 -1586 0
-1584 -1587 0
-1584 -1588 0
-1584 -1589 0
-1584 -1590 0
-1584 -1591 0
-1584 -1592 0
-1584 -1593 0
-1584 -1594 0
-1584 -1595 0
-1584 -1596 0
-1584 -1597 0
-1584 -1598 0
-1584 -1599 0
-1584 -1600 0
-1584 -1601 0
-1584 -1602 0
-1584 -1603 0
-1584 -1604 0
-1584 -1605 0
-1584 -1606 0
-1584 -1607 0
-1584 -1608 0
-1584 -1609 0
-1584 -1610 0
-1584 -1611 0
-1584 -1612 0
-1584 -1613 0
-1584 -1614 0
-1584 -1615 0
-1584 -1616 0
-1584 -1617 0
-1584 -1618 0
-1584 -1619 0
-1584 -1620 0
-1584 -1621 0
-1584 -1622 0
-1584 -1623 0
-1584 -1624 0
-1584 -1625 0
-1584 -1626 0
-1585 -1586 0
-1585 -1587 0
-1585 -1588 0
-1585 -1589 0
-1585 -1590 0
-1585 -1591 0
-1585 -1592 0
-1585 -1593 0
-1585 -1594 0
-1585 -1595 0
-1585 -1596 0
-1585 -1597 0
-1585 -1598 0
-1585 -1599 0
-1585 -1600 0
-1585 -1601 0
-1585 -1602 0
-1585 -1603 0
-1585 -1604 0
-1585 -1605 0
-1585 -1606 0
-1585 -1607 0
-1585 -1608 0
-1585 -1609 0
-1585 -1610 0
-1585 -1611 0
-1585 -1612 0
-1585 -1613 0
-1585 -1614 0
-1585 -1615 0
-1585 -1616 0
-1585 -1617 0
-1585 -1618 0
-1585 -1619 0
-1585 -1620 0
-1585 -1621 0
-1585 -1622 0
-1585 -1623 0
-1585 -1624 0
-1585 -1625 0
-1585 -1626 0
-1586 -1587 0
-1586 -1588 0
-1586 -1589 0
-1586 -1590 0
-1586 -1591 0
-1586 -1592 0
-1586 -1593 0
-1586 -1594 0
-1586 -1595 0
-1586 -1596 0
-1586 -1597 0
-1586 -1598 0
-1586 -1599 0
-1586 -1600 0
-1586 -1601 0
-1586 -1602 0
-1586 -1603 0
-1586 -1604 0
-1586 -1605 0
-1586 -1606 0
-1586 -1607 0
-1586 -1608 0
-1586 -1609 0
-1586 -1610 0
-1586 -1611 0
-1586 -1612 0
-1586 -1613 0
-1586 -1614 0
-1586 -1615 0
-1586 -1616 0
-1586 -1617 0
-1586 -1618 0
-1586 -1619 0
-1586 -1620 0
-1586 -1621 0
-1586 -1622 0
-1586 -1623 0
-1586 -1624 0
-1586 -1625 0
-1586 -1626 0
-1587 -1588 0
-1587 -1589 0
-1587 -1590 0
-1587 -1591 0
-1587 -1592 0
-1587 -1593 0
-1587 -1594 0
-1587 -1595 0
-1587 -1596 0
-1587 -1597 0
-1587 -1598 0
-1587 -1599 0
-1587 -1600 0
-1587 -1601 0
-1587 -1602 0
-1587 -1603 0
-1587 -1604 0
-1587 -1605 0
-1587 -1606 0
-1587 -1607 0
-1587 -1608 0
-1587 -1609 0
-1587 -1610 0
-1587 -1611 0
-1587 -1612 0
-1587 -1613 0
-1587 -1614 0
-1587 -1615 0
-1587 -1616 0
-1587 -1617 0
-1587 -1618 0
-1587 -1619 0
-1587 -1620 0
-1587 -1621 0
-1587 -1622 0
-1587 -1623 0
-1587 -1624 0
-1587 -1625 0
-1587 -1626 0
-1588 -1589 0
-1588 -1590 0
-1588 -1591 0
-1588 -1592 0
-1588 -1593 0
-1588 -1594 0
-1588 -1595 0
-1588 -1596 0
-1588 -1597 0
-1588 -1598 0
-1588 -1599 0
-1588 -1600 0
-1588 -1601 0
-1588 -1602 0
-1588 -1603 0
-1588 -1604 0
-1588 -1605 0
-1588 -1606 0
-1588 -1607 0
-1588 -1608 0
-1588 -1609 0
-1588 -1610 0
-1588 -1611 0
-1588 -1612 0
-1588 -1613 0
-1588 -1614 0
-1588 -1615 0
-1588 -1616 0
-1588 -1617 0
-1588 -1618 0
-1588 -1619 0
-1588 -1620 0
-1588 -1621 0
-1588 -1622 0
-1588 -1623 0
-1588 -1624 0
-1588 -1625 0
-1588 -1626 0
-1589 -1590 0
-1589 -1591 0
-1589 -1592 0
-1589 -1593 0
-1589 -1594 0
-1589 -1595 0
-1589 -1596 0
-1589 -1597 0
-1589 -1598 0
-1589 -1599 0
-1589 -1600 0
-1589 -1601 0
-1589 -1602 0
-1589 -1603 0
-1589 -1604 0
-1589 -1605 0
-1589 -1606 0
-1589 -1607 0
-1589 -1608 0
-1589 -1609 0
-1589 -1610 0
-1589 -1611 0
-1589 -1612 0
-1589 -1613 0
-1589 -1614 0
-1589 -1615 0
-1589 -1616 0
-1589 -1617 0
-1589 -1618 0
-1589 -1619 0
-1589 -1620 0
-1589 -1621 0
-1589 -1622 0
-1589 -1623 0
-1589 -1624 0
-1589 -1625 0
-1589 -1626 0
-1590 -1591 0
-1590 -1592 0
-1590 -1593 0
-1590 -1594 0
-1590 -1595 0
-1590 -1596 0
-1590 -1597 0
-1590 -1598 0
-1590 -1599 0
-1590 -1600 0
-1590 -1601 0
-1590 -1602 0
-1590 -1603 0
-1590 -1604 0
-1590 -1605 0
-1590 -1606 0
-1590 -1607 0
-1590 -1608 0
-1590 -1609 0
-1590 -1610 0
-1590 -1611 0
-1590 -1612 0
-1590 -1613 0
-1590 -1614 0
-1590 -1615 0
-1590 -1616 0
-1590 -1617 0
-1590 -1618 0
-1590 -1619 0
-1590 -1620 0
-1590 -1621 0
-1590 -1622 0
-1590 -1623 0
-1590 -1624 0
-1590 -1625 0
-1590 -1626 0
-1591 -1592 0
-1591 -1593 0
-1591 -1594 0
-1591 -1595 0
-1591 -1596 0
-1591 -1597 0
-1591 -1598 0
-1591 -1599 0
-1591 -1600 0
-1591 -1601 0
-1591 -1602 0
-1591 -1603 0
-1591 -1604 0
-1591 -1605 0
-1591 -1606 0
-1591 -1607 0
-1591 -1608 0
-1591 -1609 0
-1591 -1610 0
-1591 -1611 0
-1591 -1612 0
-1591 -1613 0
-1591 -1614 0
-1591 -1615 0
-1591 -1616 0
-1591 -1617 0
-1591 -1618 0
-1591 -1619 0
-1591 -1620 0
-1591 -1621 0
-1591 -1622 0
-1591 -1623 0
-1591 -1624 0
-1591 -1625 0
-1591 -1626 0
-1592 -1593 0
-1592 -1594 0
-1592 -1595 0
-1592 -1596 0
-1592 -1597 0
-1592 -1598 0
-1592 -1599 0
-1592 -1600 0
-1592 -1601 0
-1592 -1602 0
-1592 -1603 0
-1592 -1604 0
-1592 -1605 0
-1592 -1606 0
-1592 -1607 0
-1592 -1608 0
-1592 -1609 0
-1592 -1610 0
-1592 -1611 0
-1592 -1612 0
-1592 -1613 0
-1592 -1614 0
-1592 -1615 0
-1592 -1616 0
-1592 -1617 0
-1592 -1618 0
-1592 -1619 0
-1592 -1620 0
-1592 -1621 0
-1592 -1622 0
-1592 -1623 0
-1592 -1624 0
-1592 -1625 0
-1592 -1626 0
-1593 -1594 0
-1593 -1595 0
-1593 -1596 0
-1593 -1597 0
-1593 -1598 0
-1593 -1599 0
-1593 -1600 0
-1593 -1601 0
-1593 -1602 0
-1593 -1603 0
-1593 -1604 0
-1593 -1605 0
-1593 -1606 0
-1593 -1607 0
-1593 -1608 0
-1593 -1609 0
-1593 -1610 0
-1593 -1611 0
-1593 -1612 0
-1593 -1613 0
-1593 -1614 0
-1593 -1615 0
-1593 -1616 0
-1593 -1617 0
-1593 -1618 0
-1593 -1619 0
-1593 -1620 0
-1593 -1621 0
-1593 -1622 0
-1593 -1623 0
-1593 -1624 0
-1593 -1625 0
-1593 -1626 0
-1594 -1595 0
-1594 -1596 0
-1594 -1597 0
-1594 -1598 0
-1594 -1599 0
-1594 -1600 0
-1594 -1601 0
-1594 -1602 0
-1594 -1603 0
-1594 -1604 0
-1594 -1605 0
-1594 -1606 0
-1594 -1607 0
-1594 -1608 0
-1594 -1609 0
-1594 -1610 0
-1594 -1611 0
-1594 -1612 0
-1594 -1613 0
-1594 -1614 0
-1594 -1615 0
-1594 -1616 0
-1594 -1617 0
-1594 -1618 0
-1594 -1619 0
-1594 -1620 0
-1594 -1621 0
-1594 -1622 0
-1594 -1623 0
-1594 -1624 0
-1594 -1625 0
-1594 -1626 0
-1595 -1596 0
-1595 -1597 0
-1595 -1598 0
-1595 -1599 0
-1595 -1600 0
-1595 -1601 0
-1595 -1602 0
-1595 -1603 0
-1595 -1604 0
-1595 -1605 0
-1595 -1606 0
-1595 -1607 0
-1595 -1608 0
-1595 -1609 0
-1595 -1610 0
-1595 -1611 0
-1595 -1612 0
-1595 -1613 0
-1595 -1614 0
-1595 -1615 0
-1595 -1616 0
-1595 -1617 0
-1595 -1618 0
-1595 -1619 0
-1595 -1620 0
-1595 -1621 0
-1595 -1622 0
-1595 -1623 0
-1595 -1624 0
-1595 -1625 0
-1595 -1626 0
-1596 -1597 0
-1596 -1598 0
-1596 -1599 0
-1596 -1600 0
-1596 -1601 0
-1596 -1602 0
-1596 -1603 0
-1596 -1604 0
-1596 -1605 0
-1596 -1606 0
-1596 -1607 0
-1596 -1608 0
-1596 -1609 0
-1596 -1610 0
-1596 -1611 0
-1596 -1612 0
-1596 -1613 0
-1596 -1614 0
-1596 -1615 0
-1596 -1616 0
-1596 -1617 0
-1596 -1618 0
-1596 -1619 0
-1596 -1620 0
-1596 -1621 0
-1596 -1622 0
-1596 -1623 0
-1596 -1624 0
-1596 -1625 0
-1596 -1626 0
-1597 -1598 0
-1597 -1599 0
-1597 -1600 0
-1597 -1601 0
-1597 -1602 0
-1597 -1603 0
-1597 -1604 0
-1597 -1605 0
-1597 -1606 0
-1597 -1607 0
-1597 -1608 0
-1597 -1609 0
-1597 -1610 0
-1597 -1611 0
-1597 -1612 0
-1597 -1613 0
-1597 -1614 0
-1597 -1615 0
-1597 -1616 0
-1597 -1617 0
-1597 -1618 0
-1597 -1619 0
-1597 -1620 0
-1597 -1621 0
-1597 -1622 0
-1597 -1623 0
-1597 -1624 0
-1597 -1625 0
-1597 -1626 0
-1598 -1599 0
-1598 -1600 0
-1598 -1601 0
-1598 -1602 0
-1598 -1603 0
-1598 -1604 0
-1598 -1605 0
-1598 -1606 0
-1598 -1607 0
-1598 -1608 0
-1598 -1609 0
-1598 -1610 0
-1598 -1611 0
-1598 -1612 0
-1598 -1613 0
-1598 -1614 0
-1598 -1615 0
-1598 -1616 0
-1598 -1617 0
-1598 -1618 0
-1598 -1619 0
-1598 -1620 0
-1598 -1621 0
-1598 -1622 0
-1598 -1623 0
-1598 -1624 0
-1598 -1625 0
-1598 -1626 0
-1599 -1600 0
-1599 -1601 0
-1599 -1602 0
-1599 -1603 0
-1599 -1604 0
-1599 -1605 0
-1599 -1606 0
-1599 -1607 0
-1599 -1608 0
-1599 -1609 0
-1599 -1610 0
-1599 -1611 0
-1599 -1612 0
-1599 -1613 0
-1599 -1614 0
-1599 -1615 0
-1599 -1616 0
-1599 -1617 0
-1599 -1618 0
-1599 -1619 0
-1599 -1620 0
-1599 -1621 0
-1599 -1622 0
-1599 -1623 0
-1599 -1624 0
-1599 -1625 0
-1599 -1626 0
-1600 -1601 0
-1600 -1602 0
-1600 -1603 0
-1600 -1604 0
-1600 -1605 0
-1600 -1606 0
-1600 -1607 0
-1600 -1608 0
-1600 -1609 0
-1600 -1610 0
-1600 -1611 0
-1600 -1612 0
-1600 -1613 0
-1600 -1614 0
-1600 -1615 0
-1600 -1616 0
-1600 -1617 0
-1600 -1618 0
-1600 -1619 0
-1600 -1620 0
-1600 -1621 0
-1600 -1622 0
-1600 -1623 0
-1600 -1624 0
-1600 -1625 0
-1600 -1626 0
-1601 -1602 0
-1601 -1603 0
-1601 -1604 0
-1601 -1605 0
-1601 -1606 0
-1601 -1607 0
-1601 -1608 0
-1601 -1609 0
-1601 -1610 0
-1601 -1611 0
-1601 -1612 0
-1601 -1613 0
-1601 -1614 0
-1601 -1615 0
-1601 -1616 0
-1601 -1617 0
-1601 -1618 0
-1601 -1619 0
-1601 -1620 0
-1601 -1621 0
-1601 -1622 0
-1601 -1623 0
-1601 -1624 0
-1601 -1625 0
-1601 -1626 0
-1602 -1603 0
-1602 -1604 0
-1602 -1605 0
-1602 -1606 0
-1602 -1607 0
-1602 -1608 0
-1602 -1609 0
-1602 -1610 0
-1602 -1611 0
-1602 -1612 0
-1602 -1613 0
-1602 -1614 0
-1602 -1615 0
-1602 -1616 0
-1602 -1617 0
-1602 -1618 0
-1602 -1619 0
-1602 -1620 0
-1602 -1621 0
-1602 -1622 0
-1602 -1623 0
-1602 -1624 0
-1602 -1625 0
-1602 -1626 0
-1603 -1604 0
-1603 -1605 0
-1603 -1606 0
-1603 -1607 0
-1603 -1608 0
-1603 -1609 0
-1603 -1610 0
-1603 -1611 0
-1603 -1612 0
-1603 -1613 0
-1603 -1614 0
-1603 -1615 0
-1603 -1616 0
-1603 -1617 0
-1603 -1618 0
-1603 -1619 0
-1603 -1620 0
-1603 -1621 0
-1603 -1622 0
-1603 -1623 0
-1603 -1624 0
-1603 -1625 0
-1603 -1626 0
-1604 -1605 0
-1604 -1606 0
-1604 -1607 0
-1604 -1608 0
-1604 -1609 0
-1604 -1610 0
-1604 -1611 0
-1604 -1612 0
-1604 -1613 0
-1604 -1614 0
-1604 -1615 0
-1604 -1616 0
-1604 -1617 0
-1604 -1618 0
-1604 -1619 0
-1604 -1620 0
-1604 -1621 0
-1604 -1622 0
-1604 -1623 0
-1604 -1624 0
-1604 -1625 0
-1604 -1626 0
-1605 -1606 0
-1605 -1607 0
-1605 -1608 0
-1605 -1609 0
-1605 -1610 0
-1605 -1611 0
-1605 -1612 0
-1605 -1613 0
-1605 -1614 0
-1605 -1615 0
-1605 -1616 0
-1605 -1617 0
-1605 -1618 0
-1605 -1619 0
-1605 -1620 0
-1605 -1621 0
-1605 -1622 0
-1605 -1623 0
-1605 -1624 0
-1605 -1625 0
-1605 -1626 0
-1606 -1607 0
-1606 -1608 0
-1606 -1609 0
-1606 -1610 0
-1606 -1611 0
-1606 -1612 0
-1606 -1613 0
-1606 -1614 0
-1606 -1615 0
-1606 -1616 0
-1606 -1617 0
-1606 -1618 0
-1606 -1619 0
-1606 -1620 0
-1606 -1621 0
-1606 -1622 0
-1606 -1623 0
-1606 -1624 0
-1606 -1625 0
-1606 -1626 0
-1607 -1608 0
-1607 -1609 0
-1607 -1610 0
-1607 -1611 0
-1607 -1612 0
-1607 -1613 0
-1607 -1614 0
-1607 -1615 0
-1607 -1616 0
-1607 -1617 0
-1607 -1618 0
-1607 -1619 0
-1607 -1620 0
-1607 -1621 0
-1607 -1622 0
-1607 -1623 0
-1607 -1624 0
-1607 -1625 0
-1607 -1626 0
-1608 -1609 0
-1608 -1610 0
-1608 -1611 0
-1608 -1612 0
-1608 -1613 0
-1608 -1614 0
-1608 -1615 0
-1608 -1616 0
-1608 -1617 0
-1608 -1618 0
-1608 -1619 0
-1608 -1620 0
-1608 -1621 0
-1608 -1622 0
-1608 -1623 0
-1608 -1624 0
-1608 -1625 0
-1608 -1626 0
-1609 -1610 0
-1609 -1611 0
-1609 -1612 0
-1609 -1613 0
-1609 -1614 0
-1609 -1615 0
-1609 -1616 0
-1609 -1617 0
-1609 -1618 0
-1609 -1619 0
-1609 -1620 0
-1609 -1621 0
-1609 -1622 0
-1609 -1623 0
-1609 -1624 0
-1609 -1625 0
-1609 -1626 0
-1610 -1611 0
-1610 -1612 0
-1610 -1613 0
-1610 -1614 0
-1610 -1615 0
-1610 -1616 0
-1610 -1617 0
-1610 -1618 0
-1610 -1619 0
-1610 -1620 0
-1610 -1621 0
-1610 -1622 0
-1610 -1623 0
-1610 -1624 0
-1610 -1625 0
-1610 -1626 0
-1611 -1612 0
-1611 -1613 0
-1611 -1614 0
-1611 -1615 0
-1611 -1616 0
-1611 -1617 0
-1611 -1618 0
-1611 -1619 0
-1611 -1620 0
-1611 -1621 0
-1611 -1622 0
-1611 -1623 0
-1611 -1624 0
-1611 -1625 0
-1611 -1626 0
-1612 -1613 0
-1612 -1614 0
-1612 -1615 0
-1612 -1616 0
-1612 -1617 0
-1612 -1618 0
-1612 -1619 0
-1612 -1620 0
-1612 -1621 0
-1612 -1622 0
-1612 -1623 0
-1612 -1624 0
-1612 -1625 0
-1612 -1626 0
-1613 -1614 0
-1613 -1615 0
-1613 -1616 0
-1613 -1617 0
-1613 -1618 0
-1613 -1619 0
-1613 -1620 0
-1613 -1621 0
-1613 -1622 0
-1613 -1623 0
-1613 -1624 0
-1613 -1625 0
-1613 -1626 0
-1614 -1615 0
-1614 -1616 0
-1614 -1617 0
-1614 -1618 0
-1614 -1619 0
-1614 -1620 0
-1614 -1621 0
-1614 -1622 0
-1614 -1623 0
-1614 -1624 0
-1614 -1625 0
-1614 -1626 0
-1615 -1616 0
-1615 -1617 0
-1615 -1618 0
-1615 -1619 0
-1615 -1620 0
-1615 -1621 0
-1615 -1622 0
-1615 -1623 0
-1615 -1624 0
-1615 -1625 0
-1615 -1626 0
-1616 -1617 0
-1616 -1618 0
-1616 -1619 0
-1616 -1620 0
-1616 -1621 0
-1616 -1622 0
-1616 -1623 0
-1616 -1624 0
-1616 -1625 0
-1616 -1626 0
-1617 -1618 0
-1617 -1619 0
-1617 -1620 0
-1617 -1621 0
-1617 -1622 0
-1617 -1623 0
-1617 -1624 0
-1617 -1625 0
-1617 -1626 0
-1618 -1619 0
-1618 -1620 0
-1618 -1621 0
-1618 -1622 0
-1618 -1623 0
-1618 -1624 0
-1618 -1625 0
-1618 -1626 0
-1619 -1620 0
-1619 -1621 0
-1619 -1622 0
-1619 -1623 0
-1619 -1624 0
-1619 -1625 0
-1619 -1626 0
-1620 -1621 0
-1620 -1622 0
-1620 -1623 0
-1620 -1624 0
-1620 -1625 0
-1620 -1626 0
-1621 -1622 0
-1621 -1623 0
-1621 -1624 0
-1621 -1625 0
-1621 -1626 0
-1622 -1623 0
-1622 -1624 0
-1622 -1625 0
-1622 -1626 0
-1623 -1624 0
-1623 -1625 0
-1623 -1626 0
-1624 -1625 0
-1624 -1626 0
-1625 -1626 0
-1543 11 0
-1543 258 0
-1543 -61 0
-1543 -62 0
-1543 -63 0
-1543 -64 0
-1543 -65 0
-1543 -66 265 0
-1543 -66 -1 -8 0
-1543 -66 -73 0
-1543 -66 -131 0
-1543 -66 -188 0
-1543 -67 266 0
-1543 -67 -1 -9 0
-1543 -67 -75 0
-1543 -67 -133 0
-1543 -67 -190 0
-1543 -68 267 0
-1543 -68 -1 -10 0
-1543 -68 -77 0
-1543 -68 -135 0
-1543 -68 -192 0
-1543 -69 0
-1544 11 0
-1544 259 0
-1544 -60 0
-1544 -62 0
-1544 -63 0
-1544 -64 0
-1544 -65 0
-1544 -66 265 0
-1544 -66 -2 -8 0
-1544 -66 -81 0
-1544 -66 -139 0
-1544 -66 -196 0
-1544 -67 266 0
-1544 -67 -2 -9 0
-1544 -67 -83 0
-1544 -67 -141 0
-1544 -67 -198 0
-1544 -68 267 0
-1544 -68 -2 -10 0
-1544 -68 -85 0
-1544 -68 -143 0
-1544 -68 -200 0
-1544 -69 0
-1545 11 0
-1545 260 0
-1545 -60 0
-1545 -61 0
-1545 -63 0
-1545 -64 0
-1545 -65 0
-1545 -66 265 0
-1545 -66 -3 -8 0
-1545 -66 -89 0
-1545 -66 -147 0
-1545 -66 -204 0
-1545 -67 266 0
-1545 -67 -3 -9 0
-1545 -67 -91 0
-1545 -67 -149 0
-1545 -67 -206 0
-1545 -68 267 0
-1545 -68 -3 -10 0
-1545 -68 -93 0
-1545 -68 -151 0
-1545 -68 -208 0
-1545 -69 0
-1546 11 0
-1546 261 0
-1546 -60 0
-1546 -61 0
-1546 -62 0
-1546 -64 0
-1546 -65 0
-1546 -66 265 0
-1546 -66 -4 -8 0
-1546 -66 -97 0
-1546 -66 -155 0
-1546 -66 -212 0
-1546 -67 266 0
-1546 -67 -4 -9 0
-1546 -67 -99 0
-1546 -67 -157 0
-1546 -67 -214 0
-1546 -68 267 0
-1546 -68 -4 -10 0
-1546 -68 -101 0
-1546 -68 -159 0
-1546 -68 -216 0
-1546 -69 0
-1547 11 0
-1547 262 0
-1547 -60 0
-1547 -61 0
-1547 -62 0
-1547 -63 0
-1547 -65 0
-1547 -66 265 0
-1547 -66 -5 -8 0
-1547 -66 -105 0
-1547 -66 -163 0
-1547 -66 -220 0
-1547 -67 266 0
-1547 -67 -5 -9 0
-1547 -67 -107 0
-1547 -67 -165 0
-1547 -67 -222 0
-1547 -68 267 0
-1547 -68 -5 -10 0
-1547 -68 -109 0
-1547 -68 -167 0
-1547 -68 -224 0
-1547 -69 0
-1548 11 0
-1548 263 0
-1548 -60 0
-1548 -61 0
-1548 -62 0
-1548 -63 0
-1548 -64 0
-1548 -66 265 0
-1548 -66 -6 -8 0
-1548 -66 -113 0
-1548 -66 -171 0
-1548 -66 -228 0
-1548 -67 266 0
-1548 -67 -6 -9 0
-1548 -67 -115 0
-1548 -67 -173 0
-1548 -67 -230 0
-1548 -68 267 0
-1548 -68 -6 -10 0
-1548 -68 -117 0
-1548 -68 -175 0
-1548 -68 -232 0
-1548 -69 0
-1549 11 0
-1549 258 0
-1549 -120 0
-1549 -121 0
-1549 -122 0
-1549 -123 0
-1549 -124 265 0
-1549 -124 -1 -8 0
-1549 -124 -73 0
-1549 -124 -131 0
-1549 -124 -188 0
-1549 -125 266 0
-1549 -125 -1 -9 0
-1549 -125 -75 0
-1549 -125 -133 0
-1549 -125 -190 0
-1549 -126 267 0
-1549 -126 -1 -10 0
-1549 -126 -77 0
-1549 -126 -135 0
-1549 -126 -192 0
-1549 -127 0
-1550 11 0
-1550 259 0
-1550 -121 0
-1550 -122 0
-1550 -123 0
-1550 -124 265 0
-1550 -124 -2 -8 0
-1550 -124 -81 0
-1550 -124 -139 0
-1550 -124 -196 0
-1550 -125 266 0
-1550 -125 -2 -9 0
-1550 -125 -83 0
-1550 -125 -141 0
-1550 -125 -198 0
-1550 -126 267 0
-1550 -126 -2 -10 0
-1550 -126 -85 0
-1550 -126 -143 0
-1550 -126 -200 0
-1550 -127 0
-1551 11 0
-1551 260 0
-1551 -119 0
-1551 -122 0
-1551 -123 0
-1551 -124 265 0
-1551 -124 -3 -8 0
-1551 -124 -89 0
-1551 -124 -147 0
-1551 -124 -204 0
-1551 -125 266 0
-1551 -125 -3 -9 0
-1551 -125 -91 0
-1551 -125 -149 0
-1551 -125 -206 0
-1551 -126 267 0
-1551 -126 -3 -10 0
-1551 -126 -93 0
-1551 -126 -151 0
-1551 -126 -208 0
-1551 -127 0
-1552 11 0
-1552 261 0
-1552 -119 0
-1552 -120 0
-1552 -123 0
-1552 -124 265 0
-1552 -124 -4 -8 0
-1552 -124 -97 0
-1552 -124 -155 0
-1552 -124 -212 0
-1552 -125 266 0
-1552 -125 -4 -9 0
-1552 -125 -99 0
-1552 -125 -157 0
-1552 -125 -214 0
-1552 -126 267 0
-1552 -126 -4 -10 0
-1552 -126 -101 0
-1552 -126 -159 0
-1552 -126 -216 0
-1552 -127 0
-1553 11 0
-1553 262 0
-1553 -119 0
-1553 -120 0
-1553 -121 0
-1553 -124 265 0
-1553 -124 -5 -8 0
-1553 -124 -105 0
-1553 -124 -163 0
-1553 -124 -220 0
-1553 -125 266 0
-1553 -125 -5 -9 0
-1553 -125 -107 0
-1553 -125 -165 0
-1553 -125 -222 0
-1553 -126 267 0
-1553 -126 -5 -10 0
-1553 -126 -109 0
-1553 -126 -167 0
-1553 -126 -224 0
-1553 -127 0
-1554 11 0
-1554 263 0
-1554 -119 0
-1554 -120 0
-1554 -121 0
-1554 -122 0
-1554 -124 265 0
-1554 -124 -6 -8 0
-1554 -124 -113 0
-1554 -124 -171 0
-1554 -124 -228 0
-1554 -125 266 0
-1554 -125 -6 -9 0
-1554 -125 -115 0
-1554 -125 -173 0
-1554 -125 -230 0
-1554 -126 267 0
-1554 -126 -6 -10 0
-1554 -126 -117 0
-1554 -126 -175 0
-1554 -126 -232 0
-1554 -127 0
-1555 11 0
-1555 258 0
-1555 -178 0
-1555 -179 0
-1555 -180 0
-1555 -181 265 0
-1555 -181 -1 -8 0
-1555 -181 -73 0
-1555 -181 -131 0
-1555 -181 -188 0
-1555 -182 266 0
-1555 -182 -1 -9 0
-1555 -182 -75 0
-1555 -182 -133 0
-1555 -182 -190 0
-1555 -183 267 0
-1555 -183 -1 -10 0
-1555 -183 -77 0
-1555 -183 -135 0
-1555 -183 -192 0
-1555 -184 0
-1556 11 0
-1556 259 0
-1556 -179 0
-1556 -180 0
-1556 -181 265 0
-1556 -181 -2 -8 0
-1556 -181 -81 0
-1556 -181 -139 0
-1556 -181 -196 0
-1556 -182 266 0
-1556 -182 -2 -9 0
-1556 -182 -83 0
-1556 -182 -141 0
-1556 -182 -198 0
-1556 -183 267 0
-1556 -183 -2 -10 0
-1556 -183 -85 0
-1556 -183 -143 0
-1556 -183 -200 0
-1556 -184 0
-1557 11 0
-1557 260 0
-1557 -180 0
-1557 -181 265 0
-1557 -181 -3 -8 0
-1557 -181 -89 0
-1557 -181 -147 0
-1557 -181 -204 0
-1557 -182 266 0
-1557 -182 -3 -9 0
-1557 -182 -91 0
-1557 -182 -149 0
-1557 -182 -206 0
-1557 -183 267 0
-1557 -183 -3 -10 0
-1557 -183 -93 0
-1557 -183 -151 0
-1557 -183 -208 0
-1557 -184 0
-1558 11 0
-1558 261 0
-1558 -177 0
-1558 -181 265 0
-1558 -181 -4 -8 0
-1558 -181 -97 0
-1558 -181 -155 0
-1558 -181 -212 0
-1558 -182 266 0
-1558 -182 -4 -9 0
-1558 -182 -99 0
-1558 -182 -157 0
-1558 -182 -214 0
-1558 -183 267 0
-1558 -183 -4 -10 0
-1558 -183 -101 0
-1558 -183 -159 0
-1558 -183 -216 0
-1558 -184 0
-1559 11 0
-1559 262 0
-1559 -177 0
-1559 -178 0
-1559 -181 265 0
-1559 -181 -5 -8 0
-1559 -181 -105 0
-1559 -181 -163 0
-1559 -181 -220 0
-1559 -182 266 0
-1559 -182 -5 -9 0
-1559 -182 -107 0
-1559 -182 -165 0
-1559 -182 -222 0
-1559 -183 267 0
-1559 -183 -5 -10 0
-1559 -183 -109 0
-1559 -183 -167 0
-1559 -183 -224 0
-1559 -184 0
-1560 11 0
-1560 263 0
-1560 -177 0
-1560 -178 0
-1560 -179 0
-1560 -181 265 0
-1560 -181 -6 -8 0
-1560 -181 -113 0
-1560 -181 -171 0
-1560 -181 -228 0
-1560 -182 266 0
-1560 -182 -6 -9 0
-1560 -182 -115 0
-1560 -182 -173 0
-1560 -182 -230 0
-1560 -183 267 0
-1560 -183 -6 -10 0
-1560 -183 -117 0
-1560 -183 -175 0
-1560 -183 -232 0
-1560 -184 0
-1561 11 0
-1561 258 0
-1561 264 0
-1561 -1 -7 0
-1561 -71 0
-1561 -129 0
-1561 -186 0
-1562 11 0
-1562 259 0
-1562 264 0
-1562 -2 -7 0
-1562 -79 0
-1562 -137 0
-1562 -194 0
-1563 11 0
-1563 260 0
-1563 264 0
-1563 -3 -7 0
-1563 -87 0
-1563 -145 0
-1563 -202 0
-1564 11 0
-1564 261 0
-1564 264 0
-1564 -4 -7 0
-1564 -95 0
-1564 -153 0
-1564 -210 0
-1565 11 0
-1565 262 0
-1565 264 0
-1565 -5 -7 0
-1565 -103 0
-1565 -161 0
-1565 -218 0
-1566 11 0
-1566 263 0
-1566 264 0
-1566 -6 -7 0
-1566 -111 0
-1566 -169 0
-1566 -226 0
-1567 70 0
-1567 317 0
-1567 -2 0
-1567 -3 0
-1567 -4 0
-1567 -5 0
-1567 -6 0
-1567 -7 324 0
-1567 -7 -60 -67 0
-1567 -7 -14 0
-1567 -7 -131 0
-1567 -7 -188 0
-1567 -8 325 0
-1567 -8 -60 -68 0
-1567 -8 -16 0
-1567 -8 -133 0
-1567 -8 -190 0
-1567 -9 326 0
-1567 -9 -60 -69 0
-1567 -9 -18 0
-1567 -9 -135 0
-1567 -9 -192 0
-1567 -10 0
-1568 70 0
-1568 318 0
-1568 -1 0
-1568 -3 0
-1568 -4 0
-1568 -5 0
-1568 -6 0
-1568 -7 324 0
-1568 -7 -61 -67 0
-1568 -7 -22 0
-1568 -7 -139 0
-1568 -7 -196 0
-1568 -8 325 0
-1568 -8 -61 -68 0
-1568 -8 -24 0
-1568 -8 -141 0
-1568 -8 -198 0
-1568 -9 326 0
-1568 -9 -61 -69 0
-1568 -9 -26 0
-1568 -9 -143 0
-1568 -9 -200 0
-1568 -10 0
-1569 70 0
-1569 319 0
-1569 -1 0
-1569 -2 0
-1569 -4 0
-1569 -5 0
-1569 -6 0
-1569 -7 324 0
-1569 -7 -62 -67 0
-1569 -7 -30 0
-1569 -7 -147 0
-1569 -7 -204 0
-1569 -8 325 0
-1569 -8 -62 -68 0
-1569 -8 -32 0
-1569 -8 -149 0
-1569 -8 -206 0
-1569 -9 326 0
-1569 -9 -62 -69 0
-1569 -9 -34 0
-1569 -9 -151 0
-1569 -9 -208 0
-1569 -10 0
-1570 70 0
-1570 320 0
-1570 -1 0
-1570 -2 0
-1570 -3 0
-1570 -5 0
-1570 -6 0
-1570 -7 324 0
-1570 -7 -63 -67 0
-1570 -7 -38 0
-1570 -7 -155 0
-1570 -7 -212 0
-1570 -8 325 0
-1570 -8 -63 -68 0
-1570 -8 -40 0
-1570 -8 -157 0
-1570 -8 -214 0
-1570 -9 326 0
-1570 -9 -63 -69 0
-1570 -9 -42 0
-1570 -9 -159 0
-1570 -9 -216 0
-1570 -10 0
-1571 70 0
-1571 321 0
-1571 -1 0
-1571 -2 0
-1571 -3 0
-1571 -4 0
-1571 -6 0
-1571 -7 324 0
-1571 -7 -64 -67 0
-1571 -7 -46 0
-1571 -7 -163 0
-1571 -7 -220 0
-1571 -8 325 0
-1571 -8 -64 -68 0
-1571 -8 -48 0
-1571 -8 -165 0
-1571 -8 -222 0
-1571 -9 326 0
-1571 -9 -64 -69 0
-1571 -9 -50 0
-1571 -9 -167 0
-1571 -9 -224 0
-1571 -10 0
-1572 70 0
-1572 322 0
-1572 -1 0
-1572 -2 0
-1572 -3 0
-1572 -4 0
-1572 -5 0
-1572 -7 324 0
-1572 -7 -65 -67 0
-1572 -7 -54 0
-1572 -7 -171 0
-1572 -7 -228 0
-1572 -8 325 0
-1572 -8 -65 -68 0
-1572 -8 -56 0
-1572 -8 -173 0
-1572 -8 -230 0
-1572 -9 326 0
-1572 -9 -65 -69 0
-1572 -9 -58 0
-1572 -9 -175 0
-1572 -9 -232 0
-1572 -10 0
-1573 70 0
-1573 317 0
-1573 -120 0
-1573 -121 0
-1573 -122 0
-1573 -123 0
-1573 -124 324 0
-1573 -124 -60 -67 0
-1573 -124 -14 0
-1573 -124 -131 0
-1573 -124 -188 0
-1573 -125 325 0
-1573 -125 -60 -68 0
-1573 -125 -16 0
-1573 -125 -133 0
-1573 -125 -190 0
-1573 -126 326 0
-1573 -126 -60 -69 0
-1573 -126 -18 0
-1573 -126 -135 0
-1573 -126 -192 0
-1573 -127 0
-1574 70 0
-1574 318 0
-1574 -121 0
-1574 -122 0
-1574 -123 0
-1574 -124 324 0
-1574 -124 -61 -67 0
-1574 -124 -22 0
-1574 -124 -139 0
-1574 -124 -196 0
-1574 -125 325 0
-1574 -125 -61 -68 0
-1574 -125 -24 0
-1574 -125 -141 0
-1574 -125 -198 0
-1574 -126 326 0
-1574 -126 -61 -69 0
-1574 -126 -26 0
-1574 -126 -143 0
-1574 -126 -200 0
-1574 -127 0
-1575 70 0
-1575 319 0
-1575 -119 0
-1575 -122 0
-1575 -123 0
-1575 -124 324 0
-1575 -124 -62 -67 0
-1575 -124 -30 0
-1575 -124 -147 0
-1575 -124 -204 0
-1575 -125 325 0
-1575 -125 -62 -68 0
-1575 -125 -32 0
-1575 -125 -149 0
-1575 -125 -206 0
-1575 -126 326 0
-1575 -126 -62 -69 0
-1575 -126 -34 0
-1575 -126 -151 0
-1575 -126 -208 0
-1575 -127 0
-1576 70 0
-1576 320 0
-1576 -119 0
-1576 -120 0
-1576 -123 0
-1576 -124 324 0
-1576 -124 -63 -67 0
-1576 -124 -38 0
-1576 -124 -155 0
-1576 -124 -212 0
-1576 -125 325 0
-1576 -125 -63 -68 0
-1576 -125 -40 0
-1576 -125 -157 0
-1576 -125 -214 0
-1576 -126 326 0
-1576 -126 -63 -69 0
-1576 -126 -42 0
-1576 -126 -159 0
-1576 -126 -216 0
-1576 -127 0
-1577 70 0
-1577 321 0
-1577 -119 0
-1577 -120 0
-1577 -121 0
-1577 -124 324 0
-1577 -124 -64 -67 0
-1577 -124 -46 0
-1577 -124 -163 0
-1577 -124 -220 0
-1577 -125 325 0
-1577 -125 -64 -68 0
-1577 -125 -48 0
-1577 -125 -165 0
-1577 -125 -222 0
-1577 -126 326 0
-1577 -126 -64 -69 0
-1577 -126 -50 0
-1577 -126 -167 0
-1577 -126 -224 0
-1577 -127 0
-1578 70 0
-1578 322 0
-1578 -119 0
-1578 -120 0
-1578 -121 0
-1578 -122 0
-1578 -124 324 0
-1578 -124 -65 -67 0
-1578 -124 -54 0
-1578 -124 -171 0
-1578 -124 -228 0
-1578 -125 325 0
-1578 -125 -65 -68 0
-1578 -125 -56 0
-1578 -125 -173 0
-1578 -125 -230 0
-1578 -126 326 0
-1578 -126 -65 -69 0
-1578 -126 -58 0
-1578 -126 -175 0
-1578 -126 -232 0
-1578 -127 0
-1579 70 0
-1579 317 0
-1579 -178 0
-1579 -179 0
-1579 -180 0
-1579 -181 324 0
-1579 -181 -60 -67 0
-1579 -181 -14 0
-1579 -181 -131 0
-1579 -181 -188 0
-1579 -182 325 0
-1579 -182 -60 -68 0
-1579 -182 -16 0
-1579 -182 -133 0
-1579 -182 -190 0
-1579 -183 326 0
-1579 -183 -60 -69 0
-1579 -183 -18 0
-1579 -183 -135 0
-1579 -183 -192 0
-1579 -184 0
-1580 70 0
-1580 318 0
-1580 -179 0
-1580 -180 0
-1580 -181 324 0
-1580 -181 -61 -67 0
-1580 -181 -22 0
-1580 -181 -139 0
-1580 -181 -196 0
-1580 -182 325 0
-1580 -182 -61 -68 0
-1580 -182 -24 0
-1580 -182 -141 0
-1580 -182 -198 0
-1580 -183 326 0
-1580 -183 -61 -69 0
-1580 -183 -26 0
-1580 -183 -143 0
-1580 -183 -200 0
-1580 -184 0
-1581 70 0
-1581 319 0
-1581 -180 0
-1581 -181 324 0
-1581 -181 -62 -67 0
-1581 -181 -30 0
-1581 -181 -147 0
-1581 -181 -204 0
-1581 -182 325 0
-1581 -182 -62 -68 0
-1581 -182 -32 0
-1581 -182 -149 0
-1581 -182 -206 0
-1581 -183 326 0
-1581 -183 -62 -69 0
-1581 -183 -34 0
-1581 -183 -151 0
-1581 -183 -208 0
-1581 -184 0
-1582 70 0
-1582 320 0
-1582 -177 0
-1582 -181 324 0
-1582 -181 -63 -67 0
-1582 -181 -38 0
-1582 -181 -155 0
-1582 -181 -212 0
-1582 -182 325 0
-1582 -182 -63 -68 0
-1582 -182 -40 0
-1582 -182 -157 0
-1582 -182 -214 0
-1582 -183 326 0
-1582 -183 -63 -69 0
-1582 -183 -42 0
-1582 -183 -159 0
-1582 -183 -216 0
-1582 -184 0
-1583 70 0
-1583 321 0
-1583 -177 0
-1583 -178 0
-1583 -181 324 0
-1583 -181 -64 -67 0
-1583 -181 -46 0
-1583 -181 -163 0
-1583 -181 -220 0
-1583 -182 325 0
-1583 -182 -64 -68 0
-1583 -182 -48 0
-1583 -182 -165 0
-1583 -182 -222 0
-1583 -183 326 0
-1583 -183 -64 -69 0
-1583 -183 -50 0
-1583 -183 -167 0
-1583 -183 -224 0
-1583 -184 0
-1584 70 0
-1584 322 0
-1584 -177 0
-1584 -178 0
-1584 -179 0
-1584 -181 324 0
-1584 -181 -65 -67 0
-1584 -181 -54 0
-1584 -181 -171 0
-1584 -181 -228 0
-1584 -182 325 0
-1584 -182 -65 -68 0
-1584 -182 -56 0
-1584 -182 -173 0
-1584 -182 -230 0
-1584 -183 326 0
-1584 -183 -65 -69 0
-1584 -183 -58 0
-1584 -183 -175 0
-1584 -183 -232 0
-1584 -184 0
-1585 70 0
-1585 317 0
-1585 323 0
-1585 -60 -66 0
-1585 -12 0
-1585 -129 0
-1585 -186 0
-1586 70 0
-1586 318 0
-1586 323 0
-1586 -61 -66 0
-1586 -20 0
-1586 -137 0
-1586 -194 0
-1587 70 0
-1587 319 0
-1587 323 0
-1587 -62 -66 0
-1587 -28 0
-1587 -145 0
-1587 -202 0
-1588 70 0
-1588 320 0
-1588 323 0
-1588 -63 -66 0
-1588 -36 0
-1588 -153 0
-1588 -210 0
-1589 70 0
-1589 321 0
-1589 323 0
-1589 -64 -66 0
-1589 -44 0
-1589 -161 0
-1589 -218 0
-1590 70 0
-1590 322 0
-1590 323 0
-1590 -65 -66 0
-1590 -52 0
-1590 -169 0
-1590 -226 0
-1591 128 0
-1591 376 0
-1591 -3 0
-1591 -4 0
-1591 -5 0
-1591 -6 0
-1591 -7 382 0
-1591 -7 -119 -125 0
-1591 -7 -14 0
-1591 -7 -22 0
-1591 -7 -73 0
-1591 -7 -81 0
-1591 -7 -188 0
-1591 -7 -196 0
-1591 -8 383 0
-1591 -8 -119 -126 0
-1591 -8 -16 0
-1591 -8 -24 0
-1591 -8 -75 0
-1591 -8 -83 0
-1591 -8 -190 0
-1591 -8 -198 0
-1591 -9 384 0
-1591 -9 -119 -127 0
-1591 -9 -18 0
-1591 -9 -26 0
-1591 -9 -77 0
-1591 -9 -85 0
-1591 -9 -192 0
-1591 -9 -200 0
-1591 -10 0
-1592 128 0
-1592 377 0
-1592 -1 0
-1592 -4 0
-1592 -5 0
-1592 -6 0
-1592 -7 382 0
-1592 -7 -120 -125 0
-1592 -7 -22 0
-1592 -7 -30 0
-1592 -7 -81 0
-1592 -7 -89 0
-1592 -7 -196 0
-1592 -7 -204 0
-1592 -8 383 0
-1592 -8 -120 -126 0
-1592 -8 -24 0
-1592 -8 -32 0
-1592 -8 -83 0
-1592 -8 -91 0
-1592 -8 -198 0
-1592 -8 -206 0
-1592 -9 384 0
-1592 -9 -120 -127 0
-1592 -9 -26 0
-1592 -9 -34 0
-1592 -9 -85 0
-1592 -9 -93 0
-1592 -9 -200 0
-1592 -9 -208 0
-1592 -10 0
-1593 128 0
-1593 378 0
-1593 -1 0
-1593 -2 0
-1593 -5 0
-1593 -6 0
-1593 -7 382 0
-1593 -7 -121 -125 0
-1593 -7 -30 0
-1593 -7 -38 0
-1593 -7 -89 0
-1593 -7 -97 0
-1593 -7 -204 0
-1593 -7 -212 0
-1593 -8 383 0
-1593 -8 -121 -126 0
-1593 -8 -32 0
-1593 -8 -40 0
-1593 -8 -91 0
-1593 -8 -99 0
-1593 -8 -206 0
-1593 -8 -214 0
-1593 -9 384 0
-1593 -9 -121 -127 0
-1593 -9 -34 0
-1593 -9 -42 0
-1593 -9 -93 0
-1593 -9 -101 0
-1593 -9 -208 0
-1593 -9 -216 0
-1593 -10 0
-1594 128 0
-1594 379 0
-1594 -1 0
-1594 -2 0
-1594 -3 0
-1594 -6 0
-1594 -7 382 0
-1594 -7 -122 -125 0
-1594 -7 -38 0
-1594 -7 -46 0
-1594 -7 -97 0
-1594 -7 -105 0
-1594 -7 -212 0
-1594 -7 -220 0
-1594 -8 383 0
-1594 -8 -122 -126 0
-1594 -8 -40 0
-1594 -8 -48 0
-1594 -8 -99 0
-1594 -8 -107 0
-1594 -8 -214 0
-1594 -8 -222 0
-1594 -9 384 0
-1594 -9 -122 -127 0
-1594 -9 -42 0
-1594 -9 -50 0
-1594 -9 -101 0
-1594 -9 -109 0
-1594 -9 -216 0
-1594 -9 -224 0
-1594 -10 0
-1595 128 0
-1595 380 0
-1595 -1 0
-1595 -2 0
-1595 -3 0
-1595 -4 0
-1595 -7 382 0
-1595 -7 -123 -125 0
-1595 -7 -46 0
-1595 -7 -54 0
-1595 -7 -105 0
-1595 -7 -113 0
-1595 -7 -220 0
-1595 -7 -228 0
-1595 -8 383 0
-1595 -8 -123 -126 0
-1595 -8 -48 0
-1595 -8 -56 0
-1595 -8 -107 0
-1595 -8 -115 0
-1595 -8 -222 0
-1595 -8 -230 0
-1595 -9 384 0
-1595 -9 -123 -127 0
-1595 -9 -50 0
-1595 -9 -58 0
-1595 -9 -109 0
-1595 -9 -117 0
-1595 -9 -224 0
-1595 -9 -232 0
-1595 -10 0
-1596 128 0
-1596 376 0
-1596 -62 0
-1596 -63 0
-1596 -64 0
-1596 -65 0
-1596 -66 382 0
-1596 -66 -119 -125 0
-1596 -66 -14 0
-1596 -66 -22 0
-1596 -66 -73 0
-1596 -66 -81 0
-1596 -66 -188 0
-1596 -66 -196 0
-1596 -67 383 0
-1596 -67 -119 -126 0
-1596 -67 -16 0
-1596 -67 -24 0
-1596 -67 -75 0
-1596 -67 -83 0
-1596 -67 -190 0
-1596 -67 -198 0
-1596 -68 384 0
-1596 -68 -119 -127 0
-1596 -68 -18 0
-1596 -68 -26 0
-1596 -68 -77 0
-1596 -68 -85 0
-1596 -68 -192 0
-1596 -68 -200 0
-1596 -69 0
-1597 128 0
-1597 377 0
-1597 -60 0
-1597 -63 0
-1597 -64 0
-1597 -65 0
-1597 -66 382 0
-1597 -66 -120 -125 0
-1597 -66 -22 0
-1597 -66 -30 0
-1597 -66 -81 0
-1597 -66 -89 0
-1597 -66 -196 0
-1597 -66 -204 0
-1597 -67 383 0
-1597 -67 -120 -126 0
-1597 -67 -24 0
-1597 -67 -32 0
-1597 -67 -83 0
-1597 -67 -91 0
-1597 -67 -198 0
-1597 -67 -206 0
-1597 -68 384 0
-1597 -68 -120 -127 0
-1597 -68 -26 0
-1597 -68 -34 0
-1597 -68 -85 0
-1597 -68 -93 0
-1597 -68 -200 0
-1597 -68 -208 0
-1597 -69 0
-1598 128 0
-1598 378 0
-1598 -60 0
-1598 -61 0
-1598 -64 0
-1598 -65 0
-1598 -66 382 0
-1598 -66 -121 -125 0
-1598 -66 -30 0
-1598 -66 -38 0
-1598 -66 -89 0
-1598 -66 -97 0
-1598 -66 -204 0
-1598 -66 -212 0
-1598 -67 383 0
-1598 -67 -121 -126 0
-1598 -67 -32 0
-1598 -67 -40 0
-1598 -67 -91 0
-1598 -67 -99 0
-1598 -67 -206 0
-1598 -67 -214 0
-1598 -68 384 0
-1598 -68 -121 -127 0
-1598 -68 -34 0
-1598 -68 -42 0
-1598 -68 -93 0
-1598 -68 -101 0
-1598 -68 -208 0
-1598 -68 -216 0
-1598 -69 0
-1599 128 0
-1599 379 0
-1599 -60 0
-1599 -61 0
-1599 -62 0
-1599 -65 0
-1599 -66 382 0
-1599 -66 -122 -125 0
-1599 -66 -38 0
-1599 -66 -46 0
-1599 -66 -97 0
-1599 -66 -105 0
-1599 -66 -212 0
-1599 -66 -220 0
-1599 -67 383 0
-1599 -67 -122 -126 0
-1599 -67 -40 0
-1599 -67 -48 0
-1599 -67 -99 0
-1599 -67 -107 0
-1599 -67 -214 0
-1599 -67 -222 0
-1599 -68 384 0
-1599 -68 -122 -127 0
-1599 -68 -42 0
-1599 -68 -50 0
-1599 -68 -101 0
-1599 -68 -109 0
-1599 -68 -216 0
-1599 -68 -224 0
-1599 -69 0
-1600 128 0
-1600 380 0
-1600 -60 0
-1600 -61 0
-1600 -62 0
-1600 -63 0
-1600 -66 382 0
-1600 -66 -123 -125 0
-1600 -66 -46 0
-1600 -66 -54 0
-1600 -66 -105 0
-1600 -66 -113 0
-1600 -66 -220 0
-1600 -66 -228 0
-1600 -67 383 0
-1600 -67 -123 -126 0
-1600 -67 -48 0
-1600 -67 -56 0
-1600 -67 -107 0
-1600 -67 -115 0
-1600 -67 -222 0
-1600 -67 -230 0
-1600 -68 384 0
-1600 -68 -123 -127 0
-1600 -68 -50 0
-1600 -68 -58 0
-1600 -68 -109 0
-1600 -68 -117 0
-1600 -68 -224 0
-1600 -68 -232 0
-1600 -69 0
-1601 128 0
-1601 376 0
-1601 -179 0
-1601 -180 0
-1601 -181 382 0
-1601 -181 -119 -125 0
-1601 -181 -14 0
-1601 -181 -22 0
-1601 -181 -73 0
-1601 -181 -81 0
-1601 -181 -188 0
-1601 -181 -196 0
-1601 -182 383 0
-1601 -182 -119 -126 0
-1601 -182 -16 0
-1601 -182 -24 0
-1601 -182 -75 0
-1601 -182 -83 0
-1601 -182 -190 0
-1601 -182 -198 0
-1601 -183 384 0
-1601 -183 -119 -127 0
-1601 -183 -18 0
-1601 -183 -26 0
-1601 -183 -77 0
-1601 -183 -85 0
-1601 -183 -192 0
-1601 -183 -200 0
-1601 -184 0
-1602 128 0
-1602 377 0
-1602 -180 0
-1602 -181 382 0
-1602 -181 -120 -125 0
-1602 -181 -22 0
-1602 -181 -30 0
-1602 -181 -81 0
-1602 -181 -89 0
-1602 -181 -196 0
-1602 -181 -204 0
-1602 -182 383 0
-1602 -182 -120 -126 0
-1602 -182 -24 0
-1602 -182 -32 0
-1602 -182 -83 0
-1602 -182 -91 0
-1602 -182 -198 0
-1602 -182 -206 0
-1602 -183 384 0
-1602 -183 -120 -127 0
-1602 -183 -26 0
-1602 -183 -34 0
-1602 -183 -85 0
-1602 -183 -93 0
-1602 -183 -200 0
-1602 -183 -208 0
-1602 -184 0
-1603 128 0
-1603 378 0
-1603 -181 382 0
-1603 -181 -121 -125 0
-1603 -181 -30 0
-1603 -181 -38 0
-1603 -181 -89 0
-1603 -181 -97 0
-1603 -181 -204 0
-1603 -181 -212 0
-1603 -182 383 0
-1603 -182 -121 -126 0
-1603 -182 -32 0
-1603 -182 -40 0
-1603 -182 -91 0
-1603 -182 -99 0
-1603 -182 -206 0
-1603 -182 -214 0
-1603 -183 384 0
-1603 -183 -121 -127 0
-1603 -183 -34 0
-1603 -183 -42 0
-1603 -183 -93 0
-1603 -183 -101 0
-1603 -183 -208 0
-1603 -183 -216 0
-1603 -184 0
-1604 128 0
-1604 379 0
-1604 -177 0
-1604 -181 382 0
-1604 -181 -122 -125 0
-1604 -181 -38 0
-1604 -181 -46 0
-1604 -181 -97 0
-1604 -181 -105 0
-1604 -181 -212 0
-1604 -181 -220 0
-1604 -182 383 0
-1604 -182 -122 -126 0
-1604 -182 -40 0
-1604 -182 -48 0
-1604 -182 -99 0
-1604 -182 -107 0
-1604 -182 -214 0
-1604 -182 -222 0
-1604 -183 384 0
-1604 -183 -122 -127 0
-1604 -183 -42 0
-1604 -183 -50 0
-1604 -183 -101 0
-1604 -183 -109 0
-1604 -183 -216 0
-1604 -183 -224 0
-1604 -184 0
-1605 128 0
-1605 380 0
-1605 -177 0
-1605 -178 0
-1605 -181 382 0
-1605 -181 -123 -125 0
-1605 -181 -46 0
-1605 -181 -54 0
-1605 -181 -105 0
-1605 -181 -113 0
-1605 -181 -220 0
-1605 -181 -228 0
-1605 -182 383 0
-1605 -182 -123 -126 0
-1605 -182 -48 0
-1605 -182 -56 0
-1605 -182 -107 0
-1605 -182 -115 0
-1605 -182 -222 0
-1605 -182 -230 0
-1605 -183 384 0
-1605 -183 -123 -127 0
-1605 -183 -50 0
-1605 -183 -58 0
-1605 -183 -109 0
-1605 -183 -117 0
-1605 -183 -224 0
-1605 -183 -232 0
-1605 -184 0
-1606 128 0
-1606 376 0
-1606 381 0
-1606 -119 -124 0
-1606 -12 0
-1606 -20 0
-1606 -71 0
-1606 -79 0
-1606 -186 0
-1606 -194 0
-1607 128 0
-1607 377 0
-1607 381 0
-1607 -120 -124 0
-1607 -20 0
-1607 -28 0
-1607 -79 0
-1607 -87 0
-1607 -194 0
-1607 -202 0
-1608 128 0
-1608 378 0
-1608 381 0
-1608 -121 -124 0
-1608 -28 0
-1608 -36 0
-1608 -87 0
-1608 -95 0
-1608 -202 0
-1608 -210 0
-1609 128 0
-1609 379 0
-1609 381 0
-1609 -122 -124 0
-1609 -36 0
-1609 -44 0
-1609 -95 0
-1609 -103 0
-1609 -210 0
-1609 -218 0
-1610 128 0
-1610 380 0
-1610 381 0
-1610 -123 -124 0
-1610 -44 0
-1610 -52 0
-1610 -103 0
-1610 -111 0
-1610 -218 0
-1610 -226 0
-1611 185 0
-1611 434 0
-1611 -4 0
-1611 -5 0
-1611 -6 0
-1611 -7 439 0
-1611 -7 -177 -182 0
-1611 -7 -14 0
-1611 -7 -22 0
-1611 -7 -30 0
-1611 -7 -73 0
-1611 -7 -81 0
-1611 -7 -89 0
-1611 -7 -131 0
-1611 -7 -139 0
-1611 -7 -147 0
-1611 -8 440 0
-1611 -8 -177 -183 0
-1611 -8 -16 0
-1611 -8 -24 0
-1611 -8 -32 0
-1611 -8 -75 0
-1611 -8 -83 0
-1611 -8 -91 0
-1611 -8 -133 0
-1611 -8 -141 0
-1611 -8 -149 0
-1611 -9 441 0
-1611 -9 -177 -184 0
-1611 -9 -18 0
-1611 -9 -26 0
-1611 -9 -34 0
-1611 -9 -77 0
-1611 -9 -85 0
-1611 -9 -93 0
-1611 -9 -135 0
-1611 -9 -143 0
-1611 -9 -151 0
-1611 -10 0
-1612 185 0
-1612 435 0
-1612 -1 0
-1612 -5 0
-1612 -6 0
-1612 -7 439 0
-1612 -7 -178 -182 0
-1612 -7 -22 0
-1612 -7 -30 0
-1612 -7 -38 0
-1612 -7 -81 0
-1612 -7 -89 0
-1612 -7 -97 0
-1612 -7 -139 0
-1612 -7 -147 0
-1612 -7 -155 0
-1612 -8 440 0
-1612 -8 -178 -183 0
-1612 -8 -24 0
-1612 -8 -32 0
-1612 -8 -40 0
-1612 -8 -83 0
-1612 -8 -91 0
-1612 -8 -99 0
-1612 -8 -141 0
-1612 -8 -149 0
-1612 -8 -157 0
-1612 -9 441 0
-1612 -9 -178 -184 0
-1612 -9 -26 0
-1612 -9 -34 0
-1612 -9 -42 0
-1612 -9 -85 0
-1612 -9 -93 0
-1612 -9 -101 0
-1612 -9 -143 0
-1612 -9 -151 0
-1612 -9 -159 0
-1612 -10 0
-1613 185 0
-1613 436 0
-1613 -1 0
-1613 -2 0
-1613 -6 0
-1613 -7 439 0
-1613 -7 -179 -182 0
-1613 -7 -30 0
-1613 -7 -38 0
-1613 -7 -46 0
-1613 -7 -89 0
-1613 -7 -97 0
-1613 -7 -105 0
-1613 -7 -147 0
-1613 -7 -155 0
-1613 -7 -163 0
-1613 -8 440 0
-1613 -8 -179 -183 0
-1613 -8 -32 0
-1613 -8 -40 0
-1613 -8 -48 0
-1613 -8 -91 0
-1613 -8 -99 0
-1613 -8 -107 0
-1613 -8 -149 0
-1613 -8 -157 0
-1613 -8 -165 0
-1613 -9 441 0
-1613 -9 -179 -184 0
-1613 -9 -34 0
-1613 -9 -42 0
-1613 -9 -50 0
-1613 -9 -93 0
-1613 -9 -101 0
-1613 -9 -109 0
-1613 -9 -151 0
-1613 -9 -159 0
-1613 -9 -167 0
-1613 -10 0
-1614 185 0
-1614 437 0
-1614 -1 0
-1614 -2 0
-1614 -3 0
-1614 -7 439 0
-1614 -7 -180 -182 0
-1614 -7 -38 0
-1614 -7 -46 0
-1614 -7 -54 0
-1614 -7 -97 0
-1614 -7 -105 0
-1614 -7 -113 0
-1614 -7 -155 0
-1614 -7 -163 0
-1614 -7 -171 0
-1614 -8 440 0
-1614 -8 -180 -183 0
-1614 -8 -40 0
-1614 -8 -48 0
-1614 -8 -56 0
-1614 -8 -99 0
-1614 -8 -107 0
-1614 -8 -115 0
-1614 -8 -157 0
-1614 -8 -165 0
-1614 -8 -173 0
-1614 -9 441 0
-1614 -9 -180 -184 0
-1614 -9 -42 0
-1614 -9 -50 0
-1614 -9 -58 0
-1614 -9 -101 0
-1614 -9 -109 0
-1614 -9 -117 0
-1614 -9 -159 0
-1614 -9 -167 0
-1614 -9 -175 0
-1614 -10 0
-1615 185 0
-1615 434 0
-1615 -63 0
-1615 -64 0
-1615 -65 0
-1615 -66 439 0
-1615 -66 -177 -182 0
-1615 -66 -14 0
-1615 -66 -22 0
-1615 -66 -30 0
-1615 -66 -73 0
-1615 -66 -81 0
-1615 -66 -89 0
-1615 -66 -131 0
-1615 -66 -139 0
-1615 -66 -147 0
-1615 -67 440 0
-1615 -67 -177 -183 0
-1615 -67 -16 0
-1615 -67 -24 0
-1615 -67 -32 0
-1615 -67 -75 0
-1615 -67 -83 0
-1615 -67 -91 0
-1615 -67 -133 0
-1615 -67 -141 0
-1615 -67 -149 0
-1615 -68 441 0
-1615 -68 -177 -184 0
-1615 -68 -18 0
-1615 -68 -26 0
-1615 -68 -34 0
-1615 -68 -77 0
-1615 -68 -85 0
-1615 -68 -93 0
-1615 -68 -135 0
-1615 -68 -143 0
-1615 -68 -151 0
-1615 -69 0
-1616 185 0
-1616 435 0
-1616 -60 0
-1616 -64 0
-1616 -65 0
-1616 -66 439 0
-1616 -66 -178 -182 0
-1616 -66 -22 0
-1616 -66 -30 0
-1616 -66 -38 0
-1616 -66 -81 0
-1616 -66 -89 0
-1616 -66 -97 0
-1616 -66 -139 0
-1616 -66 -147 0
-1616 -66 -155 0
-1616 -67 440 0
-1616 -67 -178 -183 0
-1616 -67 -24 0
-1616 -67 -32 0
-1616 -67 -40 0
-1616 -67 -83 0
-1616 -67 -91 0
-1616 -67 -99 0
-1616 -67 -141 0
-1616 -67 -149 0
-1616 -67 -157 0
-1616 -68 441 0
-1616 -68 -178 -184 0
-1616 -68 -26 0
-1616 -68 -34 0
-1616 -68 -42 0
-1616 -68 -85 0
-1616 -68 -93 0
-1616 -68 -101 0
-1616 -68 -143 0
-1616 -68 -151 0
-1616 -68 -159 0
-1616 -69 0
-1617 185 0
-1617 436 0
-1617 -60 0
-1617 -61 0
-1617 -65 0
-1617 -66 439 0
-1617 -66 -179 -182 0
-1617 -66 -30 0
-1617 -66 -38 0
-1617 -66 -46 0
-1617 -66 -89 0
-1617 -66 -97 0
-1617 -66 -105 0
-1617 -66 -147 0
-1617 -66 -155 0
-1617 -66 -163 0
-1617 -67 440 0
-1617 -67 -179 -183 0
-1617 -67 -32 0
-1617 -67 -40 0
-1617 -67 -48 0
-1617 -67 -91 0
-1617 -67 -99 0
-1617 -67 -107 0
-1617 -67 -149 0
-1617 -67 -157 0
-1617 -67 -165 0
-1617 -68 441 0
-1617 -68 -179 -184 0
-1617 -68 -34 0
-1617 -68 -42 0
-1617 -68 -50 0
-1617 -68 -93 0
-1617 -68 -101 0
-1617 -68 -109 0
-1617 -68 -151 0
-1617 -68 -159 0
-1617 -68 -167 0
-1617 -69 0
-1618 185 0
-1618 437 0
-1618 -60 0
-1618 -61 0
-1618 -62 0
-1618 -66 439 0
-1618 -66 -180 -182 0
-1618 -66 -38 0
-1618 -66 -46 0
-1618 -66 -54 0
-1618 -66 -97 0
-1618 -66 -105 0
-1618 -66 -113 0
-1618 -66 -155 0
-1618 -66 -163 0
-1618 -66 -171 0
-1618 -67 440 0
-1618 -67 -180 -183 0
-1618 -67 -40 0
-1618 -67 -48 0
-1618 -67 -56 0
-1618 -67 -99 0
-1618 -67 -107 0
-1618 -67 -115 0
-1618 -67 -157 0
-1618 -67 -165 0
-1618 -67 -173 0
-1618 -68 441 0
-1618 -68 -180 -184 0
-1618 -68 -42 0
-1618 -68 -50 0
-1618 -68 -58 0
-1618 -68 -101 0
-1618 -68 -109 0
-1618 -68 -117 0
-1618 -68 -159 0
-1618 -68 -167 0
-1618 -68 -175 0
-1618 -69 0
-1619 185 0
-1619 434 0
-1619 -122 0
-1619 -123 0
-1619 -124 439 0
-1619 -124 -177 -182 0
-1619 -124 -14 0
-1619 -124 -22 0
-1619 -124 -30 0
-1619 -124 -73 0
-1619 -124 -81 0
-1619 -124 -89 0
-1619 -124 -131 0
-1619 -124 -139 0
-1619 -124 -147 0
-1619 -125 440 0
-1619 -125 -177 -183 0
-1619 -125 -16 0
-1619 -125 -24 0
-1619 -125 -32 0
-1619 -125 -75 0
-1619 -125 -83 0
-1619 -125 -91 0
-1619 -125 -133 0
-1619 -125 -141 0
-1619 -125 -149 0
-1619 -126 441 0
-1619 -126 -177 -184 0
-1619 -126 -18 0
-1619 -126 -26 0
-1619 -126 -34 0
-1619 -126 -77 0
-1619 -126 -85 0
-1619 -126 -93 0
-1619 -126 -135 0
-1619 -126 -143 0
-1619 -126 -151 0
-1619 -127 0
-1620 185 0
-1620 435 0
-1620 -123 0
-1620 -124 439 0
-1620 -124 -178 -182 0
-1620 -124 -22 0
-1620 -124 -30 0
-1620 -124 -38 0
-1620 -124 -81 0
-1620 -124 -89 0
-1620 -124 -97 0
-1620 -124 -139 0
-1620 -124 -147 0
-1620 -124 -155 0
-1620 -125 440 0
-1620 -125 -178 -183 0
-1620 -125 -24 0
-1620 -125 -32 0
-1620 -125 -40 0
-1620 -125 -83 0
-1620 -125 -91 0
-1620 -125 -99 0
-1620 -125 -141 0
-1620 -125 -149 0
-1620 -125 -157 0
-1620 -126 441 0
-1620 -126 -178 -184 0
-1620 -126 -26 0
-1620 -126 -34 0
-1620 -126 -42 0
-1620 -126 -85 0
-1620 -126 -93 0
-1620 -126 -101 0
-1620 -126 -143 0
-1620 -126 -151 0
-1620 -126 -159 0
-1620 -127 0
-1621 185 0
-1621 436 0
-1621 -119 0
-1621 -124 439 0
-1621 -124 -179 -182 0
-1621 -124 -30 0
-1621 -124 -38 0
-1621 -124 -46 0
-1621 -124 -89 0
-1621 -124 -97 0
-1621 -124 -105 0
-1621 -124 -147 0
-1621 -124 -155 0
-1621 -124 -163 0
-1621 -125 440 0
-1621 -125 -179 -183 0
-1621 -125 -32 0
-1621 -125 -40 0
-1621 -125 -48 0
-1621 -125 -91 0
-1621 -125 -99 0
-1621 -125 -107 0
-1621 -125 -149 0
-1621 -125 -157 0
-1621 -125 -165 0
-1621 -126 441 0
-1621 -126 -179 -184 0
-1621 -126 -34 0
-1621 -126 -42 0
-1621 -126 -50 0
-1621 -126 -93 0
-1621 -126 -101 0
-1621 -126 -109 0
-1621 -126 -151 0
-1621 -126 -159 0
-1621 -126 -167 0
-1621 -127 0
-1622 185 0
-1622 437 0
-1622 -119 0
-1622 -120 0
-1622 -124 439 0
-1622 -124 -180 -182 0
-1622 -124 -38 0
-1622 -124 -46 0
-1622 -124 -54 0
-1622 -124 -97 0
-1622 -124 -105 0
-1622 -124 -113 0
-1622 -124 -155 0
-1622 -124 -163 0
-1622 -124 -171 0
-1622 -125 440 0
-1622 -125 -180 -183 0
-1622 -125 -40 0
-1622 -125 -48 0
-1622 -125 -56 0
-1622 -125 -99 0
-1622 -125 -107 0
-1622 -125 -115 0
-1622 -125 -157 0
-1622 -125 -165 0
-1622 -125 -173 0
-1622 -126 441 0
-1622 -126 -180 -184 0
-1622 -126 -42 0
-1622 -126 -50 0
-1622 -126 -58 0
-1622 -126 -101 0
-1622 -126 -109 0
-1622 -126 -117 0
-1622 -126 -159 0
-1622 -126 -167 0
-1622 -126 -175 0
-1622 -127 0
-1623 185 0
-1623 434 0
-1623 438 0
-1623 -177 -181 0
-1623 -12 0
-1623 -20 0
-1623 -28 0
-1623 -71 0
-1623 -79 0
-1623 -87 0
-1623 -129 0
-1623 -137 0
-1623 -145 0
-1624 185 0
-1624 435 0
-1624 438 0
-1624 -178 -181 0
-1624 -20 0
-1624 -28 0
-1624 -36 0
-1624 -79 0
-1624 -87 0
-1624 -95 0
-1624 -137 0
-1624 -145 0
-1624 -153 0
-1625 185 0
-1625 436 0
-1625 438 0
-1625 -179 -181 0
-1625 -28 0
-1625 -36 0
-1625 -44 0
-1625 -87 0
-1625 -95 0
-1625 -103 0
-1625 -145 0
-1625 -153 0
-1625 -161 0
-1626 185 0
-1626 437 0
-1626 438 0
-1626 -180 -181 0
-1626 -36 0
-1626 -44 0
-1626 -52 0
-1626 -95 0
-1626 -103 0
-1626 -111 0
-1626 -153 0
-1626 -161 0
-1626 -169 0
-1 258 1543 1544 1545 1546 1547 1548 1549 1550 1551 1552 1553 1554 1555 1556 1557 1558 1559 1560 1561 1562 1563 1564 1565 1566 0
-2 259 1543 1544 1545 1546 1547 1548 1549 1550 1551 1552 1553 1554 1555 1556 1557 1558 1559 1560 1561 1562 1563 1564 1565 1566 0
-3 260 1543 1544 1545 1546 1547 1548 1549 1550 1551 1552 1553 1554 1555 1556 1557 1558 1559 1560 1561 1562 1563 1564 1565 1566 0
-4 261 1543 1544 1545 1546 1547 1548 1549 1550 1551 1552 1553 1554 1555 1556 1557 1558 1559 1560 1561 1562 1563 1564 1565 1566 0
-5 262 1543 1544 1545 1546 1547 1548 1549 1550 1551 1552 1553 1554 1555 1556 1557 1558 1559 1560 1561 1562 1563 1564 1565 1566 0
-6 263 1543 1544 1545 1546 1547 1548 1549 1550 1551 1552 1553 1554 1555 1556 1557 1558 1559 1560 1561 1562 1563 1564 1565 1566 0
-7 264 1543 1544 1545 1546 1547 1548 1549 1550 1551 1552 1553 1554 1555 1556 1557 1558 1559 1560 1561 1562 1563 1564 1565 1566 0
-8 265 1543 1544 1545 1546 1547 1548 1549 1550 1551 1552 1553 1554 1555 1556 1557 1558 1559 1560 1561 1562 1563 1564 1565 1566 0
-9 266 1543 1544 1545 1546 1547 1548 1549 1550 1551 1552 1553 1554 1555 1556 1557 1558 1559 1560 1561 1562 1563 1564 1565 1566 0
-10 267 1543 1544 1545 1546 1547 1548 1549 1550 1551 1552 1553 1554 1555 1556 1557 1558 1559 1560 1561 1562 1563 1564 1565 1566 0
-60 317 1567 1568 1569 1570 1571 1572 1573 1574 1575 1576 1577 1578 1579 1580 1581 1582 1583 1584 1585 1586 1587 1588 1589 1590 0
-61 318 1567 1568 1569 1570 1571 1572 1573 1574 1575 1576 1577 1578 1579 1580 1581 1582 1583 1584 1585 1586 1587 1588 1589 1590 0
-62 319 1567 1568 1569 1570 1571 1572 1573 1574 1575 1576 1577 1578 1579 1580 1581 1582 1583 1584 1585 1586 1587 1588 1589 1590 0
-63 320 1567 1568 1569 1570 1571 1572 1573 1574 1575 1576 1577 1578 1579 1580 1581 1582 1583 1584 1585 1586 1587 1588 1589 1590 0
-64 321 1567 1568 1569 1570 1571 1572 1573 1574 1575 1576 1577 1578 1579 1580 1581 1582 1583 1584 1585 1586 1587 1588 1589 1590 0
-65 322 1567 1568 1569 1570 1571 1572 1573 1574 1575 1576 1577 1578 1579 1580 1581 1582 1583 1584 1585 1586 1587 1588 1589 1590 0
-66 323 1567 1568 1569 1570 1571 1572 1573 1574 1575 1576 1577 1578 1579 1580 1581 1582 1583 1584 1585 1586 1587 1588 1589 1590 0
-67 324 1567 1568 1569 1570 1571 1572 1573 1574 1575 1576 1577 1578 1579 1580 1581 1582 1583 1584 1585 1586 1587 1588 1589 1590 0
-68 325 1567 1568 1569 1570 1571 1572 1573 1574 1575 1576 1577 1578 1579 1580 1581 1582 1583 1584 1585 1586 1587 1588 1589 1590 0
-69 326 1567 1568 1569 1570 1571 1572 1573 1574 1575 1576 1577 1578 1579 1580 1581 1582 1583 1584 1585 1586 1587 1588 1589 1590 0
-119 376 1591 1592 1593 1594 1595 1596 1597 1598 1599 1600 1601 1602 1603 1604 1605 1606 1607 1608 1609 1610 0
-120 377 1591 1592 1593 1594 1595 1596 1597 1598 1599 1600 1601 1602 1603 1604 1605 1606 1607 1608 1609 1610 0
-121 378 1591 1592 1593 1594 1595 1596 1597 1598 1599 1600 1601 1602 1603 1604 1605 1606 1607 1608 1609 1610 0
-122 379 1591 1592 1593 1594 1595 1596 1597 1598 1599 1600 1601 1602 1603 1604 1605 1606 1607 1608 1609 1610 0
-123 380 1591 1592 1593 1594 1595 1596 1597 1598 1599 1600 1601 1602 1603 1604 1605 1606 1607 1608 1609 1610 0
-124 381 1591 1592 1593 1594 1595 1596 1597 1598 1599 1600 1601 1602 1603 1604 1605 1606 1607 1608 1609 1610 0
-125 382 1591 1592 1593 1594 1595 1596 1597 1598 1599 1600 1601 1602 1603 1604 1605 1606 1607 1608 1609 1610 0
-126 383 1591 1592 1593 1594 1595 1596 1597 1598 1599 1600 1601 1602 1603 1604 1605 1606 1607 1608 1609 1610 0
-127 384 1591 1592 1593 1594 1595 1596 1597 1598 1599 1600 1601 1602 1603 1604 1605 1606 1607 1608 1609 1610 0
-177 434 1611 1612 1613 1614 1615 1616 1617 1618 1619 1620 1621 1622 1623 1624 1625 1626 0
-178 435 1611 1612 1613 1614 1615 1616 1617 1618 1619 1620 1621 1622 1623 1624 1625 1626 0
-179 436 1611 1612 1613 1614 1615 1616 1617 1618 1619 1620 1621 1622 1623 1624 1625 1626 0
-180 437 1611 1612 1613 1614 1615 1616 1617 1618 1619 1620 1621 1622 1623 1624 1625 1626 0
-181 438 1611 1612 1613 1614 1615 1616 1617 1618 1619 1620 1621 1622 1623 1624 1625 1626 0
-182 439 1611 1612 1613 1614 1615 1616 1617 1618 1619 1620 1621 1622 1623 1624 1625 1626 0
-183 440 1611 1612 1613 1614 1615 1616 1617 1618 1619 1620 1621 1622 1623 1624 1625 1626 0
-184 441 1611 1612 1613 1614 1615 1616 1617 1618 1619 1620 1621 1622 1623 1624 1625 1626 0
-1627 -1628 0
-1627 -1629 0
-1627 -1630 0
-1627 -1631 0
-1627 -1632 0
-1627 -1633 0
-1627 -1634 0
-1627 -1635 0
-1627 -1636 0
-1627 -1637 0
-1627 -1638 0
-1627 -1639 0
-1627 -1640 0
-1627 -1641 0
-1627 -1642 0
-1627 -1643 0
-1627 -1644 0
-1627 -1645 0
-1627 -1646 0
-1627 -1647 0
-1627 -1648 0
-1627 -1649 0
-1627 -1650 0
-1627 -1651 0
-1627 -1652 0
-1627 -1653 0
-1627 -1654 0
-1627 -1655 0
-1627 -1656 0
-1627 -1657 0
-1627 -1658 0
-1627 -1659 0
-1627 -1660 0
-1627 -1661 0
-1627 -1662 0
-1627 -1663 0
-1627 -1664 0
-1627 -1665 0
-1627 -1666 0
-1627 -1667 0
-1627 -1668 0
-1627 -1669 0
-1627 -1670 0
-1627 -1671 0
-1627 -1672 0
-1627 -1673 0
-1627 -1674 0
-1627 -1675 0
-1627 -1676 0
-1627 -1677 0
-1627 -1678 0
-1627 -1679 0
-1627 -1680 0
-1627 -1681 0
-1627 -1682 0
-1627 -1683 0
-1627 -1684 0
-1627 -1685 0
-1627 -1686 0
-1627 -1687 0
-1627 -1688 0
-1627 -1689 0
-1627 -1690 0
-1627 -1691 0
-1627 -1692 0
-1627 -1693 0
-1627 -1694 0
-1627 -1695 0
-1627 -1696 0
-1627 -1697 0
-1627 -1698 0
-1627 -1699 0
-1627 -1700 0
-1627 -1701 0
-1627 -1702 0
-1627 -1703 0
-1627 -1704 0
-1627 -1705 0
-1627 -1706 0
-1627 -1707 0
-1627 -1708 0
-1627 -1709 0
-1627 -1710 0
-1628 -1629 0
-1628 -1630 0
-1628 -1631 0
-1628 -1632 0
-1628 -1633 0
-1628 -1634 0
-1628 -1635 0
-1628 -1636 0
-1628 -1637 0
-1628 -1638 0
-1628 -1639 0
-1628 -1640 0
-1628 -1641 0
-1628 -1642 0
-1628 -1643 0
-1628 -1644 0
-1628 -1645 0
-1628 -1646 0
-1628 -1647 0
-1628 -1648 0
-1628 -1649 0
-1628 -1650 0
-1628 -1651 0
-1628 -1652 0
-1628 -1653 0
-1628 -1654 0
-1628 -1655 0
-1628 -1656 0
-1628 -1657 0
-1628 -1658 0
-1628 -1659 0
-1628 -1660 0
-1628 -1661 0
-1628 -1662 0
-1628 -1663 0
-1628 -1664 0
-1628 -1665 0
-1628 -1666 0
-1628 -1667 0
-1628 -1668 0
-1628 -1669 0
-1628 -1670 0
-1628 -1671 0
-1628 -1672 0
-1628 -1673 0
-1628 -1674 0
-1628 -1675 0
-1628 -1676 0
-1628 -1677 0
-1628 -1678 0
-1628 -1679 0
-1628 -1680 0
-1628 -1681 0
-1628 -1682 0
-1628 -1683 0
-1628 -1684 0
-1628 -1685 0
-1628 -1686 0
-1628 -1687 0
-1628 -1688 0
-1628 -1689 0
-1628 -1690 0
-1628 -1691 0
-1628 -1692 0
-1628 -1693 0
-1628 -1694 0
-1628 -1695 0
-1628 -1696 0
-1628 -1697 0
-1628 -1698 0
-1628 -1699 0
-1628 -1700 0
-1628 -1701 0
-1628 -1702 0
-1628 -1703 0
-1628 -1704 0
-1628 -1705 0
-1628 -1706 0
-1628 -1707 0
-1628 -1708 0
-1628 -1709 0
-1628 -1710 0
-1629 -1630 0
-1629 -1631 0
-1629 -1632 0
-1629 -1633 0
-1629 -1634 0
-1629 -1635 0
-1629 -1636 0
-1629 -1637 0
-1629 -1638 0
-1629 -1639 0
-1629 -1640 0
-1629 -1641 0
-1629 -1642 0
-1629 -1643 0
-1629 -1644 0
-1629 -1645 0
-1629 -1646 0
-1629 -1647 0
-1629 -1648 0
-1629 -1649 0
-1629 -1650 0
-1629 -1651 0
-1629 -1652 0
-1629 -1653 0
-1629 -1654 0
-1629 -1655 0
-1629 -1656 0
-1629 -1657 0
-1629 -1658 0
-1629 -1659 0
-1629 -1660 0
-1629 -1661 0
-1629 -1662 0
-1629 -1663 0
-1629 -1664 0
-1629 -1665 0
-1629 -1666 0
-1629 -1667 0
-1629 -1668 0
-1629 -1669 0
-1629 -1670 0
-1629 -1671 0
-1629 -1672 0
-1629 -1673 0
-1629 -1674 0
-1629 -1675 0
-1629 -1676 0
-1629 -1677 0
-1629 -1678 0
-1629 -1679 0
-1629 -1680 0
-1629 -1681 0
-1629 -1682 0
-1629 -1683 0
-1629 -1684 0
-1629 -1685 0
-1629 -1686 0
-1629 -1687 0
-1629 -1688 0
-1629 -1689 0
-1629 -1690 0
-1629 -1691 0
-1629 -1692 0
-1629 -1693 0
-1629 -1694 0
-1629 -1695 0
-1629 -1696 0
-1629 -1697 0
-1629 -1698 0
-1629 -1699 0
-1629 -1700 0
-1629 -1701 0
-1629 -1702 0
-1629 -1703 0
-1629 -1704 0
-1629 -1705 0
-1629 -1706 0
-1629 -1707 0
-1629 -1708 0
-1629 -1709 0
-1629 -1710 0
-1630 -1631 0
-1630 -1632 0
-1630 -1633 0
-1630 -1634 0
-1630 -1635 0
-1630 -1636 0
-1630 -1637 0
-1630 -1638 0
-1630 -1639 0
-1630 -1640 0
-1630 -1641 0
-1630 -1642 0
-1630 -1643 0
-1630 -1644 0
-1630 -1645 0
-1630 -1646 0
-1630 -1647 0
-1630 -1648 0
-1630 -1649 0
-1630 -1650 0
-1630 -1651 0
-1630 -1652 0
-1630 -1653 0
-1630 -1654 0
-1630 -1655 0
-1630 -1656 0
-1630 -1657 0
-1630 -1658 0
-1630 -1659 0
-1630 -1660 0
-1630 -1661 0
-1630 -1662 0
-1630 -1663 0
-1630 -1664 0
-1630 -1665 0
-1630 -1666 0
-1630 -1667 0
-1630 -1668 0
-1630 -1669 0
-1630 -1670 0
-1630 -1671 0
-1630 -1672 0
-1630 -1673 0
-1630 -1674 0
-1630 -1675 0
-1630 -1676 0
-1630 -1677 0
-1630 -1678 0
-1630 -1679 0
-1630 -1680 0
-1630 -1681 0
-1630 -1682 0
-1630 -1683 0
-1630 -1684 0
-1630 -1685 0
-1630 -1686 0
-1630 -1687 0
-1630 -1688 0
-1630 -1689 0
-1630 -1690 0
-1630 -1691 0
-1630 -1692 0
-1630 -1693 0
-1630 -1694 0
-1630 -1695 0
-1630 -1696 0
-1630 -1697 0
-1630 -1698 0
-1630 -1699 0
-1630 -1700 0
-1630 -1701 0
-1630 -1702 0
-1630 -1703 0
-1630 -1704 0
-1630 -1705 0
-1630 -1706 0
-1630 -1707 0
-1630 -1708 0
-1630 -1709 0
-1630 -1710 0
-1631 -1632 0
-1631 -1633 0
-1631 -1634 0
-1631 -1635 0
-1631 -1636 0
-1631 -1637 0
-1631 -1638 0
-1631 -1639 0
-1631 -1640 0
-1631 -1641 0
-1631 -1642 0
-1631 -1643 0
-1631 -1644 0
-1631 -1645 0
-1631 -1646 0
-1631 -1647 0
-1631 -1648 0
-1631 -1649 0
-1631 -1650 0
-1631 -1651 0
-1631 -1652 0
-1631 -1653 0
-1631 -1654 0
-1631 -1655 0
-1631 -1656 0
-1631 -1657 0
-1631 -1658 0
-1631 -1659 0
-1631 -1660 0
-1631 -1661 0
-1631 -1662 0
-1631 -1663 0
-1631 -1664 0
-1631 -1665 0
-1631 -1666 0
-1631 -1667 0
-1631 -1668 0
-1631 -1669 0
-1631 -1670 0
-1631 -1671 0
-1631 -1672 0
-1631 -1673 0
-1631 -1674 0
-1631 -1675 0
-1631 -1676 0
-1631 -1677 0
-1631 -1678 0
-1631 -1679 0
-1631 -1680 0
-1631 -1681 0
-1631 -1682 0
-1631 -1683 0
-1631 -1684 0
-1631 -1685 0
-1631 -1686 0
-1631 -1687 0
-1631 -1688 0
-1631 -1689 0
-1631 -1690 0
-1631 -1691 0
-1631 -1692 0
-1631 -1693 0
-1631 -1694 0
-1631 -1695 0
-1631 -1696 0
-1631 -1697 0
-1631 -1698 0
-1631 -1699 0
-1631 -1700 0
-1631 -1701 0
-1631 -1702 0
-1631 -1703 0
-1631 -1704 0
-1631 -1705 0
-1631 -1706 0
-1631 -1707 0
-1631 -1708 0
-1631 -1709 0
-1631 -1710 0
-1632 -1633 0
-1632 -1634 0
-1632 -1635 0
-1632 -1636 0
-1632 -1637 0
-1632 -1638 0
-1632 -1639 0
-1632 -1640 0
-1632 -1641 0
-1632 -1642 0
-1632 -1643 0
-1632 -1644 0
-1632 -1645 0
-1632 -1646 0
-1632 -1647 0
-1632 -1648 0
-1632 -1649 0
-1632 -1650 0
-1632 -1651 0
-1632 -1652 0
-1632 -1653 0
-1632 -1654 0
-1632 -1655 0
-1632 -1656 0
-1632 -1657 0
-1632 -1658 0
-1632 -1659 0
-1632 -1660 0
-1632 -1661 0
-1632 -1662 0
-1632 -1663 0
-1632 -1664 0
-1632 -1665 0
-1632 -1666 0
-1632 -1667 0
-1632 -1668 0
-1632 -1669 0
-1632 -1670 0
-1632 -1671 0
-1632 -1672 0
-1632 -1673 0
-1632 -1674 0
-1632 -1675 0
-1632 -1676 0
-1632 -1677 0
-1632 -1678 0
-1632 -1679 0
-1632 -1680 0
-1632 -1681 0
-1632 -1682 0
-1632 -1683 0
-1632 -1684 0
-1632 -1685 0
-1632 -1686 0
-1632 -1687 0
-1632 -1688 0
-1632 -1689 0
-1632 -1690 0
-1632 -1691 0
-1632 -1692 0
-1632 -1693 0
-1632 -1694 0
-1632 -1695 0
-1632 -1696 0
-1632 -1697 0
-1632 -1698 0
-1632 -1699 0
-1632 -1700 0
-1632 -1701 0
-1632 -1702 0
-1632 -1703 0
-1632 -1704 0
-1632 -1705 0
-1632 -1706 0
-1632 -1707 0
-1632 -1708 0
-1632 -1709 0
-1632 -1710 0
-1633 -1634 0
-1633 -1635 0
-1633 -1636 0
-1633 -1637 0
-1633 -1638 0
-1633 -1639 0
-1633 -1640 0
-1633 -1641 0
-1633 -1642 0
-1633 -1643 0
-1633 -1644 0
-1633 -1645 0
-1633 -1646 0
-1633 -1647 0
-1633 -1648 0
-1633 -1649 0
-1633 -1650 0
-1633 -1651 0
-1633 -1652 0
-1633 -1653 0
-1633 -1654 0
-1633 -1655 0
-1633 -1656 0
-1633 -1657 0
-1633 -1658 0
-1633 -1659 0
-1633 -1660 0
-1633 -1661 0
-1633 -1662 0
-1633 -1663 0
-1633 -1664 0
-1633 -1665 0
-1633 -1666 0
-1633 -1667 0
-1633 -1668 0
-1633 -1669 0
-1633 -1670 0
-1633 -1671 0
-1633 -1672 0
-1633 -1673 0
-1633 -1674 0
-1633 -1675 0
-1633 -1676 0
-1633 -1677 0
-1633 -1678 0
-1633 -1679 0
-1633 -1680 0
-1633 -1681 0
-1633 -1682 0
-1633 -1683 0
-1633 -1684 0
-1633 -1685 0
-1633 -1686 0
-1633 -1687 0
-1633 -1688 0
-1633 -1689 0
-1633 -1690 0
-1633 -1691 0
-1633 -1692 0
-1633 -1693 0
-1633 -1694 0
-1633 -1695 0
-1633 -1696 0
-1633 -1697 0
-1633 -1698 0
-1633 -1699 0
-1633 -1700 0
-1633 -1701 0
-1633 -1702 0
-1633 -1703 0
-1633 -1704 0
-1633 -1705 0
-1633 -1706 0
-1633 -1707 0
-1633 -1708 0
-1633 -1709 0
-1633 -1710 0
-1634 -1635 0
-1634 -1636 0
-1634 -1637 0
-1634 -1638 0
-1634 -1639 0
-1634 -1640 0
-1634 -1641 0
-1634 -1642 0
-1634 -1643 0
-1634 -1644 0
-1634 -1645 0
-1634 -1646 0
-1634 -1647 0
-1634 -1648 0
-1634 -1649 0
-1634 -1650 0
-1634 -1651 0
-1634 -1652 0
-1634 -1653 0
-1634 -1654 0
-1634 -1655 0
-1634 -1656 0
-1634 -1657 0
-1634 -1658 0
-1634 -1659 0
-1634 -1660 0
-1634 -1661 0
-1634 -1662 0
-1634 -1663 0
-1634 -1664 0
-1634 -1665 0
-1634 -1666 0
-1634 -1667 0
-1634 -1668 0
-1634 -1669 0
-1634 -1670 0
-1634 -1671 0
-1634 -1672 0
-1634 -1673 0
-1634 -1674 0
-1634 -1675 0
-1634 -1676 0
-1634 -1677 0
-1634 -1678 0
-1634 -1679 0
-1634 -1680 0
-1634 -1681 0
-1634 -1682 0
-1634 -1683 0
-1634 -1684 0
-1634 -1685 0
-1634 -1686 0
-1634 -1687 0
-1634 -1688 0
-1634 -1689 0
-1634 -1690 0
-1634 -1691 0
-1634 -1692 0
-1634 -1693 0
-1634 -1694 0
-1634 -1695 0
-1634 -1696 0
-1634 -1697 0
-1634 -1698 0
-1634 -1699 0
-1634 -1700 0
-1634 -1701 0
-1634 -1702 0
-1634 -1703 0
-1634 -1704 0
-1634 -1705 0
-1634 -1706 0
-1634 -1707 0
-1634 -1708 0
-1634 -1709 0
-1634 -1710 0
-1635 -1636 0
-1635 -1637 0
-1635 -1638 0
-1635 -1639 0
-1635 -1640 0
-1635 -1641 0
-1635 -1642 0
-1635 -1643 0
-1635 -1644 0
-1635 -1645 0
-1635 -1646 0
-1635 -1647 0
-1635 -1648 0
-1635 -1649 0
-1635 -1650 0
-1635 -1651 0
-1635 -1652 0
-1635 -1653 0
-1635 -1654 0
-1635 -1655 0
-1635 -1656 0
-1635 -1657 0
-1635 -1658 0
-1635 -1659 0
-1635 -1660 0
-1635 -1661 0
-1635 -1662 0
-1635 -1663 0
-1635 -1664 0
-1635 -1665 0
-1635 -1666 0
-1635 -1667 0
-1635 -1668 0
-1635 -1669 0
-1635 -1670 0
-1635 -1671 0
-1635 -1672 0
-1635 -1673 0
-1635 -1674 0
-1635 -1675 0
-1635 -1676 0
-1635 -1677 0
-1635 -1678 0
-1635 -1679 0
-1635 -1680 0
-1635 -1681 0
-1635 -1682 0
-1635 -1683 0
-1635 -1684 0
-1635 -1685 0
-1635 -1686 0
-1635 -1687 0
-1635 -1688 0
-1635 -1689 0
-1635 -1690 0
-1635 -1691 0
-1635 -1692 0
-1635 -1693 0
-1635 -1694 0
-1635 -1695 0
-1635 -1696 0
-1635 -1697 0
-1635 -1698 0
-1635 -1699 0
-1635 -1700 0
-1635 -1701 0
-1635 -1702 0
-1635 -1703 0
-1635 -1704 0
-1635 -1705 0
-1635 -1706 0
-1635 -1707 0
-1635 -1708 0
-1635 -1709 0
-1635 -1710 0
-1636 -1637 0
-1636 -1638 0
-1636 -1639 0
-1636 -1640 0
-1636 -1641 0
-1636 -1642 0
-1636 -1643 0
-1636 -1644 0
-1636 -1645 0
-1636 -1646 0
-1636 -1647 0
-1636 -1648 0
-1636 -1649 0
-1636 -1650 0
-1636 -1651 0
-1636 -1652 0
-1636 -1653 0
-1636 -1654 0
-1636 -1655 0
-1636 -1656 0
-1636 -1657 0
-1636 -1658 0
-1636 -1659 0
-1636 -1660 0
-1636 -1661 0
-1636 -1662 0
-1636 -1663 0
-1636 -1664 0
-1636 -1665 0
-1636 -1666 0
-1636 -1667 0
-1636 -1668 0
-1636 -1669 0
-1636 -1670 0
-1636 -1671 0
-1636 -1672 0
-1636 -1673 0
-1636 -1674 0
-1636 -1675 0
-1636 -1676 0
-1636 -1677 0
-1636 -1678 0
-1636 -1679 0
-1636 -1680 0
-1636 -1681 0
-1636 -1682 0
-1636 -1683 0
-1636 -1684 0
-1636 -1685 0
-1636 -1686 0
-1636 -1687 0
-1636 -1688 0
-1636 -1689 0
-1636 -1690 0
-1636 -1691 0
-1636 -1692 0
-1636 -1693 0
-1636 -1694 0
-1636 -1695 0
-1636 -1696 0
-1636 -1697 0
-1636 -1698 0
-1636 -1699 0
-1636 -1700 0
-1636 -1701 0
-1636 -1702 0
-1636 -1703 0
-1636 -1704 0
-1636 -1705 0
-1636 -1706 0
-1636 -1707 0
-1636 -1708 0
-1636 -1709 0
-1636 -1710 0
-1637 -1638 0
-1637 -1639 0
-1637 -1640 0
-1637 -1641 0
-1637 -1642 0
-1637 -1643 0
-1637 -1644 0
-1637 -1645 0
-1637 -1646 0
-1637 -1647 0
-1637 -1648 0
-1637 -1649 0
-1637 -1650 0
-1637 -1651 0
-1637 -1652 0
-1637 -1653 0
-1637 -1654 0
-1637 -1655 0
-1637 -1656 0
-1637 -1657 0
-1637 -1658 0
-1637 -1659 0
-1637 -1660 0
-1637 -1661 0
-1637 -1662 0
-1637 -1663 0
-1637 -1664 0
-1637 -1665 0
-1637 -1666 0
-1637 -1667 0
-1637 -1668 0
-1637 -1669 0
-1637 -1670 0
-1637 -1671 0
-1637 -1672 0
-1637 -1673 0
-1637 -1674 0
-1637 -1675 0
-1637 -1676 0
-1637 -1677 0
-1637 -1678 0
-1637 -1679 0
-1637 -1680 0
-1637 -1681 0
-1637 -1682 0
-1637 -1683 0
-1637 -1684 0
-1637 -1685 0
-1637 -1686 0
-1637 -1687 0
-1637 -1688 0
-1637 -1689 0
-1637 -1690 0
-1637 -1691 0
-1637 -1692 0
-1637 -1693 0
-1637 -1694 0
-1637 -1695 0
-1637 -1696 0
-1637 -1697 0
-1637 -1698 0
-1637 -1699 0
-1637 -1700 0
-1637 -1701 0
-1637 -1702 0
-1637 -1703 0
-1637 -1704 0
-1637 -1705 0
-1637 -1706 0
-1637 -1707 0
-1637 -1708 0
-1637 -1709 0
-1637 -1710 0
-1638 -1639 0
-1638 -1640 0
-1638 -1641 0
-1638 -1642 0
-1638 -1643 0
-1638 -1644 0
-1638 -1645 0
-1638 -1646 0
-1638 -1647 0
-1638 -1648 0
-1638 -1649 0
-1638 -1650 0
-1638 -1651 0
-1638 -1652 0
-1638 -1653 0
-1638 -1654 0
-1638 -1655 0
-1638 -1656 0
-1638 -1657 0
-1638 -1658 0
-1638 -1659 0
-1638 -1660 0
-1638 -1661 0
-1638 -1662 0
-1638 -1663 0
-1638 -1664 0
-1638 -1665 0
-1638 -1666 0
-1638 -1667 0
-1638 -1668 0
-1638 -1669 0
-1638 -1670 0
-1638 -1671 0
-1638 -1672 0
-1638 -1673 0
-1638 -1674 0
-1638 -1675 0
-1638 -1676 0
-1638 -1677 0
-1638 -1678 0
-1638 -1679 0
-1638 -1680 0
-1638 -1681 0
-1638 -1682 0
-1638 -1683 0
-1638 -1684 0
-1638 -1685 0
-1638 -1686 0
-1638 -1687 0
-1638 -1688 0
-1638 -1689 0
-1638 -1690 0
-1638 -1691 0
-1638 -1692 0
-1638 -1693 0
-1638 -1694 0
-1638 -1695 0
-1638 -1696 0
-1638 -1697 0
-1638 -1698 0
-1638 -1699 0
-1638 -1700 0
-1638 -1701 0
-1638 -1702 0
-1638 -1703 0
-1638 -1704 0
-1638 -1705 0
-1638 -1706 0
-1638 -1707 0
-1638 -1708 0
-1638 -1709 0
-1638 -1710 0
-1639 -1640 0
-1639 -1641 0
-1639 -1642 0
-1639 -1643 0
-1639 -1644 0
-1639 -1645 0
-1639 -1646 0
-1639 -1647 0
-1639 -1648 0
-1639 -1649 0
-1639 -1650 0
-1639 -1651 0
-1639 -1652 0
-1639 -1653 0
-1639 -1654 0
-1639 -1655 0
-1639 -1656 0
-1639 -1657 0
-1639 -1658 0
-1639 -1659 0
-1639 -1660 0
-1639 -1661 0
-1639 -1662 0
-1639 -1663 0
-1639 -1664 0
-1639 -1665 0
-1639 -1666 0
-1639 -1667 0
-1639 -1668 0
-1639 -1669 0
-1639 -1670 0
-1639 -1671 0
-1639 -1672 0
-1639 -1673 0
-1639 -1674 0
-1639 -1675 0
-1639 -1676 0
-1639 -1677 0
-1639 -1678 0
-1639 -1679 0
-1639 -1680 0
-1639 -1681 0
-1639 -1682 0
-1639 -1683 0
-1639 -1684 0
-1639 -1685 0
-1639 -1686 0
-1639 -1687 0
-1639 -1688 0
-1639 -1689 0
-1639 -1690 0
-1639 -1691 0
-1639 -1692 0
-1639 -1693 0
-1639 -1694 0
-1639 -1695 0
-1639 -1696 0
-1639 -1697 0
-1639 -1698 0
-1639 -1699 0
-1639 -1700 0
-1639 -1701 0
-1639 -1702 0
-1639 -1703 0
-1639 -1704 0
-1639 -1705 0
-1639 -1706 0
-1639 -1707 0
-1639 -1708 0
-1639 -1709 0
-1639 -1710 0
-1640 -1641 0
-1640 -1642 0
-1640 -1643 0
-1640 -1644 0
-1640 -1645 0
-1640 -1646 0
-1640 -1647 0
-1640 -1648 0
-1640 -1649 0
-1640 -1650 0
-1640 -1651 0
-1640 -1652 0
-1640 -1653 0
-1640 -1654 0
-1640 -1655 0
-1640 -1656 0
-1640 -1657 0
-1640 -1658 0
-1640 -1659 0
-1640 -1660 0
-1640 -1661 0
-1640 -1662 0
-1640 -1663 0
-1640 -1664 0
-1640 -1665 0
-1640 -1666 0
-1640 -1667 0
-1640 -1668 0
-1640 -1669 0
-1640 -1670 0
-1640 -1671 0
-1640 -1672 0
-1640 -1673 0
-1640 -1674 0
-1640 -1675 0
-1640 -1676 0
-1640 -1677 0
-1640 -1678 0
-1640 -1679 0
-1640 -1680 0
-1640 -1681 0
-1640 -1682 0
-1640 -1683 0
-1640 -1684 0
-1640 -1685 0
-1640 -1686 0
-1640 -1687 0
-1640 -1688 0
-1640 -1689 0
-1640 -1690 0
-1640 -1691 0
-1640 -1692 0
-1640 -1693 0
-1640 -1694 0
-1640 -1695 0
-1640 -1696 0
-1640 -1697 0
-1640 -1698 0
-1640 -1699 0
-1640 -1700 0
-1640 -1701 0
-1640 -1702 0
-1640 -1703 0
-1640 -1704 0
-1640 -1705 0
-1640 -1706 0
-1640 -1707 0
-1640 -1708 0
-1640 -1709 0
-1640 -1710 0
-1641 -1642 0
-1641 -1643 0
-1641 -1644 0
-1641 -1645 0
-1641 -1646 0
-1641 -1647 0
-1641 -1648 0
-1641 -1649 0
-1641 -1650 0
-1641 -1651 0
-1641 -1652 0
-1641 -1653 0
-1641 -1654 0
-1641 -1655 0
-1641 -1656 0
-1641 -1657 0
-1641 -1658 0
-1641 -1659 0
-1641 -1660 0
-1641 -1661 0
-1641 -1662 0
-1641 -1663 0
-1641 -1664 0
-1641 -1665 0
-1641 -1666 0
-1641 -1667 0
-1641 -1668 0
-1641 -1669 0
-1641 -1670 0
-1641 -1671 0
-1641 -1672 0
-1641 -1673 0
-1641 -1674 0
-1641 -1675 0
-1641 -1676 0
-1641 -1677 0
-1641 -1678 0
-1641 -1679 0
-1641 -1680 0
-1641 -1681 0
-1641 -1682 0
-1641 -1683 0
-1641 -1684 0
-1641 -1685 0
-1641 -1686 0
-1641 -1687 0
-1641 -1688 0
-1641 -1689 0
-1641 -1690 0
-1641 -1691 0
-1641 -1692 0
-1641 -1693 0
-1641 -1694 0
-1641 -1695 0
-1641 -1696 0
-1641 -1697 0
-1641 -1698 0
-1641 -1699 0
-1641 -1700 0
-1641 -1701 0
-1641 -1702 0
-1641 -1703 0
-1641 -1704 0
-1641 -1705 0
-1641 -1706 0
-1641 -1707 0
-1641 -1708 0
-1641 -1709 0
-1641 -1710 0
-1642 -1643 0
-1642 -1644 0
-1642 -1645 0
-1642 -1646 0
-1642 -1647 0
-1642 -1648 0
-1642 -1649 0
-1642 -1650 0
-1642 -1651 0
-1642 -1652 0
-1642 -1653 0
-1642 -1654 0
-1642 -1655 0
-1642 -1656 0
-1642 -1657 0
-1642 -1658 0
-1642 -1659 0
-1642 -1660 0
-1642 -1661 0
-1642 -1662 0
-1642 -1663 0
-1642 -1664 0
-1642 -1665 0
-1642 -1666 0
-1642 -1667 0
-1642 -1668 0
-1642 -1669 0
-1642 -1670 0
-1642 -1671 0
-1642 -1672 0
-1642 -1673 0
-1642 -1674 0
-1642 -1675 0
-1642 -1676 0
-1642 -1677 0
-1642 -1678 0
-1642 -1679 0
-1642 -1680 0
-1642 -1681 0
-1642 -1682 0
-1642 -1683 0
-1642 -1684 0
-1642 -1685 0
-1642 -1686 0
-1642 -1687 0
-1642 -1688 0
-1642 -1689 0
-1642 -1690 0
-1642 -1691 0
-1642 -1692 0
-1642 -1693 0
-1642 -1694 0
-1642 -1695 0
-1642 -1696 0
-1642 -1697 0
-1642 -1698 0
-1642 -1699 0
-1642 -1700 0
-1642 -1701 0
-1642 -1702 0
-1642 -1703 0
-1642 -1704 0
-1642 -1705 0
-1642 -1706 0
-1642 -1707 0
-1642 -1708 0
-1642 -1709 0
-1642 -1710 0
-1643 -1644 0
-1643 -1645 0
-1643 -1646 0
-1643 -1647 0
-1643 -1648 0
-1643 -1649 0
-1643 -1650 0
-1643 -1651 0
-1643 -1652 0
-1643 -1653 0
-1643 -1654 0
-1643 -1655 0
-1643 -1656 0
-1643 -1657 0
-1643 -1658 0
-1643 -1659 0
-1643 -1660 0
-1643 -1661 0
-1643 -1662 0
-1643 -1663 0
-1643 -1664 0
-1643 -1665 0
-1643 -1666 0
-1643 -1667 0
-1643 -1668 0
-1643 -1669 0
-1643 -1670 0
-1643 -1671 0
-1643 -1672 0
-1643 -1673 0
-1643 -1674 0
-1643 -1675 0
-1643 -1676 0
-1643 -1677 0
-1643 -1678 0
-1643 -1679 0
-1643 -1680 0
-1643 -1681 0
-1643 -1682 0
-1643 -1683 0
-1643 -1684 0
-1643 -1685 0
-1643 -1686 0
-1643 -1687 0
-1643 -1688 0
-1643 -1689 0
-1643 -1690 0
-1643 -1691 0
-1643 -1692 0
-1643 -1693 0
-1643 -1694 0
-1643 -1695 0
-1643 -1696 0
-1643 -1697 0
-1643 -1698 0
-1643 -1699 0
-1643 -1700 0
-1643 -1701 0
-1643 -1702 0
-1643 -1703 0
-1643 -1704 0
-1643 -1705 0
-1643 -1706 0
-1643 -1707 0
-1643 -1708 0
-1643 -1709 0
-1643 -1710 0
-1644 -1645 0
-1644 -1646 0
-1644 -1647 0
-1644 -1648 0
-1644 -1649 0
-1644 -1650 0
-1644 -1651 0
-1644 -1652 0
-1644 -1653 0
-1644 -1654 0
-1644 -1655 0
-1644 -1656 0
-1644 -1657 0
-1644 -1658 0
-1644 -1659 0
-1644 -1660 0
-1644 -1661 0
-1644 -1662 0
-1644 -1663 0
-1644 -1664 0
-1644 -1665 0
-1644 -1666 0
-1644 -1667 0
-1644 -1668 0
-1644 -1669 0
-1644 -1670 0
-1644 -1671 0
-1644 -1672 0
-1644 -1673 0
-1644 -1674 0
-1644 -1675 0
-1644 -1676 0
-1644 -1677 0
-1644 -1678 0
-1644 -1679 0
-1644 -1680 0
-1644 -1681 0
-1644 -1682 0
-1644 -1683 0
-1644 -1684 0
-1644 -1685 0
-1644 -1686 0
-1644 -1687 0
-1644 -1688 0
-1644 -1689 0
-1644 -1690 0
-1644 -1691 0
-1644 -1692 0
-1644 -1693 0
-1644 -1694 0
-1644 -1695 0
-1644 -1696 0
-1644 -1697 0
-1644 -1698 0
-1644 -1699 0
-1644 -1700 0
-1644 -1701 0
-1644 -1702 0
-1644 -1703 0
-1644 -1704 0
-1644 -1705 0
-1644 -1706 0
-1644 -1707 0
-1644 -1708 0
-1644 -1709 0
-1644 -1710 0
-1645 -1646 0
-1645 -1647 0
-1645 -1648 0
-1645 -1649 0
-1645 -1650 0
-1645 -1651 0
-1645 -1652 0
-1645 -1653 0
-1645 -1654 0
-1645 -1655 0
-1645 -1656 0
-1645 -1657 0
-1645 -1658 0
-1645 -1659 0
-1645 -1660 0
-1645 -1661 0
-1645 -1662 0
-1645 -1663 0
-1645 -1664 0
-1645 -1665 0
-1645 -1666 0
-1645 -1667 0
-1645 -1668 0
-1645 -1669 0
-1645 -1670 0
-1645 -1671 0
-1645 -1672 0
-1645 -1673 0
-1645 -1674 0
-1645 -1675 0
-1645 -1676 0
-1645 -1677 0
-1645 -1678 0
-1645 -1679 0
-1645 -1680 0
-1645 -1681 0
-1645 -1682 0
-1645 -1683 0
-1645 -1684 0
-1645 -1685 0
-1645 -1686 0
-1645 -1687 0
-1645 -1688 0
-1645 -1689 0
-1645 -1690 0
-1645 -1691 0
-1645 -1692 0
-1645 -1693 0
-1645 -1694 0
-1645 -1695 0
-1645 -1696 0
-1645 -1697 0
-1645 -1698 0
-1645 -1699 0
-1645 -1700 0
-1645 -1701 0
-1645 -1702 0
-1645 -1703 0
-1645 -1704 0
-1645 -1705 0
-1645 -1706 0
-1645 -1707 0
-1645 -1708 0
-1645 -1709 0
-1645 -1710 0
-1646 -1647 0
-1646 -1648 0
-1646 -1649 0
-1646 -1650 0
-1646 -1651 0
-1646 -1652 0
-1646 -1653 0
-1646 -1654 0
-1646 -1655 0
-1646 -1656 0
-1646 -1657 0
-1646 -1658 0
-1646 -1659 0
-1646 -1660 0
-1646 -1661 0
-1646 -1662 0
-1646 -1663 0
-1646 -1664 0
-1646 -1665 0
-1646 -1666 0
-1646 -1667 0
-1646 -1668 0
-1646 -1669 0
-1646 -1670 0
-1646 -1671 0
-1646 -1672 0
-1646 -1673 0
-1646 -1674 0
-1646 -1675 0
-1646 -1676 0
-1646 -1677 0
-1646 -1678 0
-1646 -1679 0
-1646 -1680 0
-1646 -1681 0
-1646 -1682 0
-1646 -1683 0
-1646 -1684 0
-1646 -1685 0
-1646 -1686 0
-1646 -1687 0
-1646 -1688 0
-1646 -1689 0
-1646 -1690 0
-1646 -1691 0
-1646 -1692 0
-1646 -1693 0
-1646 -1694 0
-1646 -1695 0
-1646 -1696 0
-1646 -1697 0
-1646 -1698 0
-1646 -1699 0
-1646 -1700 0
-1646 -1701 0
-1646 -1702 0
-1646 -1703 0
-1646 -1704 0
-1646 -1705 0
-1646 -1706 0
-1646 -1707 0
-1646 -1708 0
-1646 -1709 0
-1646 -1710 0
-1647 -1648 0
-1647 -1649 0
-1647 -1650 0
-1647 -1651 0
-1647 -1652 0
-1647 -1653 0
-1647 -1654 0
-1647 -1655 0
-1647 -1656 0
-1647 -1657 0
-1647 -1658 0
-1647 -1659 0
-1647 -1660 0
-1647 -1661 0
-1647 -1662 0
-1647 -1663 0
-1647 -1664 0
-1647 -1665 0
-1647 -1666 0
-1647 -1667 0
-1647 -1668 0
-1647 -1669 0
-1647 -1670 0
-1647 -1671 0
-1647 -1672 0
-1647 -1673 0
-1647 -1674 0
-1647 -1675 0
-1647 -1676 0
-1647 -1677 0
-1647 -1678 0
-1647 -1679 0
-1647 -1680 0
-1647 -1681 0
-1647 -1682 0
-1647 -1683 0
-1647 -1684 0
-1647 -1685 0
-1647 -1686 0
-1647 -1687 0
-1647 -1688 0
-1647 -1689 0
-1647 -1690 0
-1647 -1691 0
-1647 -1692 0
-1647 -1693 0
-1647 -1694 0
-1647 -1695 0
-1647 -1696 0
-1647 -1697 0
-1647 -1698 0
-1647 -1699 0
-1647 -1700 0
-1647 -1701 0
-1647 -1702 0
-1647 -1703 0
-1647 -1704 0
-1647 -1705 0
-1647 -1706 0
-1647 -1707 0
-1647 -1708 0
-1647 -1709 0
-1647 -1710 0
-1648 -1649 0
-1648 -1650 0
-1648 -1651 0
-1648 -1652 0
-1648 -1653 0
-1648 -1654 0
-1648 -1655 0
-1648 -1656 0
-1648 -1657 0
-1648 -1658 0
-1648 -1659 0
-1648 -1660 0
-1648 -1661 0
-1648 -1662 0
-1648 -1663 0
-1648 -1664 0
-1648 -1665 0
-1648 -1666 0
-1648 -1667 0
-1648 -1668 0
-1648 -1669 0
-1648 -1670 0
-1648 -1671 0
-1648 -1672 0
-1648 -1673 0
-1648 -1674 0
-1648 -1675 0
-1648 -1676 0
-1648 -1677 0
-1648 -1678 0
-1648 -1679 0
-1648 -1680 0
-1648 -1681 0
-1648 -1682 0
-1648 -1683 0
-1648 -1684 0
-1648 -1685 0
-1648 -1686 0
-1648 -1687 0
-1648 -1688 0
-1648 -1689 0
-1648 -1690 0
-1648 -1691 0
-1648 -1692 0
-1648 -1693 0
-1648 -1694 0
-1648 -1695 0
-1648 -1696 0
-1648 -1697 0
-1648 -1698 0
-1648 -1699 0
-1648 -1700 0
-1648 -1701 0
-1648 -1702 0
-1648 -1703 0
-1648 -1704 0
-1648 -1705 0
-1648 -1706 0
-1648 -1707 0
-1648 -1708 0
-1648 -1709 0
-1648 -1710 0
-1649 -1650 0
-1649 -1651 0
-1649 -1652 0
-1649 -1653 0
-1649 -1654 0
-1649 -1655 0
-1649 -1656 0
-1649 -1657 0
-1649 -1658 0
-1649 -1659 0
-1649 -1660 0
-1649 -1661 0
-1649 -1662 0
-1649 -1663 0
-1649 -1664 0
-1649 -1665 0
-1649 -1666 0
-1649 -1667 0
-1649 -1668 0
-1649 -1669 0
-1649 -1670 0
-1649 -1671 0
-1649 -1672 0
-1649 -1673 0
-1649 -1674 0
-1649 -1675 0
-1649 -1676 0
-1649 -1677 0
-1649 -1678 0
-1649 -1679 0
-1649 -1680 0
-1649 -1681 0
-1649 -1682 0
-1649 -1683 0
-1649 -1684 0
-1649 -1685 0
-1649 -1686 0
-1649 -1687 0
-1649 -1688 0
-1649 -1689 0
-1649 -1690 0
-1649 -1691 0
-1649 -1692 0
-1649 -1693 0
-1649 -1694 0
-1649 -1695 0
-1649 -1696 0
-1649 -1697 0
-1649 -1698 0
-1649 -1699 0
-1649 -1700 0
-1649 -1701 0
-1649 -1702 0
-1649 -1703 0
-1649 -1704 0
-1649 -1705 0
-1649 -1706 0
-1649 -1707 0
-1649 -1708 0
-1649 -1709 0
-1649 -1710 0
-1650 -1651 0
-1650 -1652 0
-1650 -1653 0
-1650 -1654 0
-1650 -1655 0
-1650 -1656 0
-1650 -1657 0
-1650 -1658 0
-1650 -1659 0
-1650 -1660 0
-1650 -1661 0
-1650 -1662 0
-1650 -1663 0
-1650 -1664 0
-1650 -1665 0
-1650 -1666 0
-1650 -1667 0
-1650 -1668 0
-1650 -1669 0
-1650 -1670 0
-1650 -1671 0
-1650 -1672 0
-1650 -1673 0
-1650 -1674 0
-1650 -1675 0
-1650 -1676 0
-1650 -1677 0
-1650 -1678 0
-1650 -1679 0
-1650 -1680 0
-1650 -1681 0
-1650 -1682 0
-1650 -1683 0
-1650 -1684 0
-1650 -1685 0
-1650 -1686 0
-1650 -1687 0
-1650 -1688 0
-1650 -1689 0
-1650 -1690 0
-1650 -1691 0
-1650 -1692 0
-1650 -1693 0
-1650 -1694 0
-1650 -1695 0
-1650 -1696 0
-1650 -1697 0
-1650 -1698 0
-1650 -1699 0
-1650 -1700 0
-1650 -1701 0
-1650 -1702 0
-1650 -1703 0
-1650 -1704 0
-1650 -1705 0
-1650 -1706 0
-1650 -1707 0
-1650 -1708 0
-1650 -1709 0
-1650 -1710 0
-1651 -1652 0
-1651 -1653 0
-1651 -1654 0
-1651 -1655 0
-1651 -1656 0
-1651 -1657 0
-1651 -1658 0
-1651 -1659 0
-1651 -1660 0
-1651 -1661 0
-1651 -1662 0
-1651 -1663 0
-1651 -1664 0
-1651 -1665 0
-1651 -1666 0
-1651 -1667 0
-1651 -1668 0
-1651 -1669 0
-1651 -1670 0
-1651 -1671 0
-1651 -1672 0
-1651 -1673 0
-1651 -1674 0
-1651 -1675 0
-1651 -1676 0
-1651 -1677 0
-1651 -1678 0
-1651 -1679 0
-1651 -1680 0
-1651 -1681 0
-1651 -1682 0
-1651 -1683 0
-1651 -1684 0
-1651 -1685 0
-1651 -1686 0
-1651 -1687 0
-1651 -1688 0
-1651 -1689 0
-1651 -1690 0
-1651 -1691 0
-1651 -1692 0
-1651 -1693 0
-1651 -1694 0
-1651 -1695 0
-1651 -1696 0
-1651 -1697 0
-1651 -1698 0
-1651 -1699 0
-1651 -1700 0
-1651 -1701 0
-1651 -1702 0
-1651 -1703 0
-1651 -1704 0
-1651 -1705 0
-1651 -1706 0
-1651 -1707 0
-1651 -1708 0
-1651 -1709 0
-1651 -1710 0
-1652 -1653 0
-1652 -1654 0
-1652 -1655 0
-1652 -1656 0
-1652 -1657 0
-1652 -1658 0
-1652 -1659 0
-1652 -1660 0
-1652 -1661 0
-1652 -1662 0
-1652 -1663 0
-1652 -1664 0
-1652 -1665 0
-1652 -1666 0
-1652 -1667 0
-1652 -1668 0
-1652 -1669 0
-1652 -1670 0
-1652 -1671 0
-1652 -1672 0
-1652 -1673 0
-1652 -1674 0
-1652 -1675 0
-1652 -1676 0
-1652 -1677 0
-1652 -1678 0
-1652 -1679 0
-1652 -1680 0
-1652 -1681 0
-1652 -1682 0
-1652 -1683 0
-1652 -1684 0
-1652 -1685 0
-1652 -1686 0
-1652 -1687 0
-1652 -1688 0
-1652 -1689 0
-1652 -1690 0
-1652 -1691 0
-1652 -1692 0
-1652 -1693 0
-1652 -1694 0
-1652 -1695 0
-1652 -1696 0
-1652 -1697 0
-1652 -1698 0
-1652 -1699 0
-1652 -1700 0
-1652 -1701 0
-1652 -1702 0
-1652 -1703 0
-1652 -1704 0
-1652 -1705 0
-1652 -1706 0
-1652 -1707 0
-1652 -1708 0
-1652 -1709 0
-1652 -1710 0
-1653 -1654 0
-1653 -1655 0
-1653 -1656 0
-1653 -1657 0
-1653 -1658 0
-1653 -1659 0
-1653 -1660 0
-1653 -1661 0
-1653 -1662 0
-1653 -1663 0
-1653 -1664 0
-1653 -1665 0
-1653 -1666 0
-1653 -1667 0
-1653 -1668 0
-1653 -1669 0
-1653 -1670 0
-1653 -1671 0
-1653 -1672 0
-1653 -1673 0
-1653 -1674 0
-1653 -1675 0
-1653 -1676 0
-1653 -1677 0
-1653 -1678 0
-1653 -1679 0
-1653 -1680 0
-1653 -1681 0
-1653 -1682 0
-1653 -1683 0
-1653 -1684 0
-1653 -1685 0
-1653 -1686 0
-1653 -1687 0
-1653 -1688 0
-1653 -1689 0
-1653 -1690 0
-1653 -1691 0
-1653 -1692 0
-1653 -1693 0
-1653 -1694 0
-1653 -1695 0
-1653 -1696 0
-1653 -1697 0
-1653 -1698 0
-1653 -1699 0
-1653 -1700 0
-1653 -1701 0
-1653 -1702 0
-1653 -1703 0
-1653 -1704 0
-1653 -1705 0
-1653 -1706 0
-1653 -1707 0
-1653 -1708 0
-1653 -1709 0
-1653 -1710 0
-1654 -1655 0
-1654 -1656 0
-1654 -1657 0
-1654 -1658 0
-1654 -1659 0
-1654 -1660 0
-1654 -1661 0
-1654 -1662 0
-1654 -1663 0
-1654 -1664 0
-1654 -1665 0
-1654 -1666 0
-1654 -1667 0
-1654 -1668 0
-1654 -1669 0
-1654 -1670 0
-1654 -1671 0
-1654 -1672 0
-1654 -1673 0
-1654 -1674 0
-1654 -1675 0
-1654 -1676 0
-1654 -1677 0
-1654 -1678 0
-1654 -1679 0
-1654 -1680 0
-1654 -1681 0
-1654 -1682 0
-1654 -1683 0
-1654 -1684 0
-1654 -1685 0
-1654 -1686 0
-1654 -1687 0
-1654 -1688 0
-1654 -1689 0
-1654 -1690 0
-1654 -1691 0
-1654 -1692 0
-1654 -1693 0
-1654 -1694 0
-1654 -1695 0
-1654 -1696 0
-1654 -1697 0
-1654 -1698 0
-1654 -1699 0
-1654 -1700 0
-1654 -1701 0
-1654 -1702 0
-1654 -1703 0
-1654 -1704 0
-1654 -1705 0
-1654 -1706 0
-1654 -1707 0
-1654 -1708 0
-1654 -1709 0
-1654 -1710 0
-1655 -1656 0
-1655 -1657 0
-1655 -1658 0
-1655 -1659 0
-1655 -1660 0
-1655 -1661 0
-1655 -1662 0
-1655 -1663 0
-1655 -1664 0
-1655 -1665 0
-1655 -1666 0
-1655 -1667 0
-1655 -1668 0
-1655 -1669 0
-1655 -1670 0
-1655 -1671 0
-1655 -1672 0
-1655 -1673 0
-1655 -1674 0
-1655 -1675 0
-1655 -1676 0
-1655 -1677 0
-1655 -1678 0
-1655 -1679 0
-1655 -1680 0
-1655 -1681 0
-1655 -1682 0
-1655 -1683 0
-1655 -1684 0
-1655 -1685 0
-1655 -1686 0
-1655 -1687 0
-1655 -1688 0
-1655 -1689 0
-1655 -1690 0
-1655 -1691 0
-1655 -1692 0
-1655 -1693 0
-1655 -1694 0
-1655 -1695 0
-1655 -1696 0
-1655 -1697 0
-1655 -1698 0
-1655 -1699 0
-1655 -1700 0
-1655 -1701 0
-1655 -1702 0
-1655 -1703 0
-1655 -1704 0
-1655 -1705 0
-1655 -1706 0
-1655 -1707 0
-1655 -1708 0
-1655 -1709 0
-1655 -1710 0
-1656 -1657 0
-1656 -1658 0
-1656 -1659 0
-1656 -1660 0
-1656 -1661 0
-1656 -1662 0
-1656 -1663 0
-1656 -1664 0
-1656 -1665 0
-1656 -1666 0
-1656 -1667 0
-1656 -1668 0
-1656 -1669 0
-1656 -1670 0
-1656 -1671 0
-1656 -1672 0
-1656 -1673 0
-1656 -1674 0
-1656 -1675 0
-1656 -1676 0
-1656 -1677 0
-1656 -1678 0
-1656 -1679 0
-1656 -1680 0
-1656 -1681 0
-1656 -1682 0
-1656 -1683 0
-1656 -1684 0
-1656 -1685 0
-1656 -1686 0
-1656 -1687 0
-1656 -1688 0
-1656 -1689 0
-1656 -1690 0
-1656 -1691 0
-1656 -1692 0
-1656 -1693 0
-1656 -1694 0
-1656 -1695 0
-1656 -1696 0
-1656 -1697 0
-1656 -1698 0
-1656 -1699 0
-1656 -1700 0
-1656 -1701 0
-1656 -1702 0
-1656 -1703 0
-1656 -1704 0
-1656 -1705 0
-1656 -1706 0
-1656 -1707 0
-1656 -1708 0
-1656 -1709 0
-1656 -1710 0
-1657 -1658 0
-1657 -1659 0
-1657 -1660 0
-1657 -1661 0
-1657 -1662 0
-1657 -1663 0
-1657 -1664 0
-1657 -1665 0
-1657 -1666 0
-1657 -1667 0
-1657 -1668 0
-1657 -1669 0
-1657 -1670 0
-1657 -1671 0
-1657 -1672 0
-1657 -1673 0
-1657 -1674 0
-1657 -1675 0
-1657 -1676 0
-1657 -1677 0
-1657 -1678 0
-1657 -1679 0
-1657 -1680 0
-1657 -1681 0
-1657 -1682 0
-1657 -1683 0
-1657 -1684 0
-1657 -1685 0
-1657 -1686 0
-1657 -1687 0
-1657 -1688 0
-1657 -1689 0
-1657 -1690 0
-1657 -1691 0
-1657 -1692 0
-1657 -1693 0
-1657 -1694 0
-1657 -1695 0
-1657 -1696 0
-1657 -1697 0
-1657 -1698 0
-1657 -1699 0
-1657 -1700 0
-1657 -1701 0
-1657 -1702 0
-1657 -1703 0
-1657 -1704 0
-1657 -1705 0
-1657 -1706 0
-1657 -1707 0
-1657 -1708 0
-1657 -1709 0
-1657 -1710 0
-1658 -1659 0
-1658 -1660 0
-1658 -1661 0
-1658 -1662 0
-1658 -1663 0
-1658 -1664 0
-1658 -1665 0
-1658 -1666 0
-1658 -1667 0
-1658 -1668 0
-1658 -1669 0
-1658 -1670 0
-1658 -1671 0
-1658 -1672 0
-1658 -1673 0
-1658 -1674 0
-1658 -1675 0
-1658 -1676 0
-1658 -1677 0
-1658 -1678 0
-1658 -1679 0
-1658 -1680 0
-1658 -1681 0
-1658 -1682 0
-1658 -1683 0
-1658 -1684 0
-1658 -1685 0
-1658 -1686 0
-1658 -1687 0
-1658 -1688 0
-1658 -1689 0
-1658 -1690 0
-1658 -1691 0
-1658 -1692 0
-1658 -1693 0
-1658 -1694 0
-1658 -1695 0
-1658 -1696 0
-1658 -1697 0
-1658 -1698 0
-1658 -1699 0
-1658 -1700 0
-1658 -1701 0
-1658 -1702 0
-1658 -1703 0
-1658 -1704 0
-1658 -1705 0
-1658 -1706 0
-1658 -1707 0
-1658 -1708 0
-1658 -1709 0
-1658 -1710 0
-1659 -1660 0
-1659 -1661 0
-1659 -1662 0
-1659 -1663 0
-1659 -1664 0
-1659 -1665 0
-1659 -1666 0
-1659 -1667 0
-1659 -1668 0
-1659 -1669 0
-1659 -1670 0
-1659 -1671 0
-1659 -1672 0
-1659 -1673 0
-1659 -1674 0
-1659 -1675 0
-1659 -1676 0
-1659 -1677 0
-1659 -1678 0
-1659 -1679 0
-1659 -1680 0
-1659 -1681 0
-1659 -1682 0
-1659 -1683 0
-1659 -1684 0
-1659 -1685 0
-1659 -1686 0
-1659 -1687 0
-1659 -1688 0
-1659 -1689 0
-1659 -1690 0
-1659 -1691 0
-1659 -1692 0
-1659 -1693 0
-1659 -1694 0
-1659 -1695 0
-1659 -1696 0
-1659 -1697 0
-1659 -1698 0
-1659 -1699 0
-1659 -1700 0
-1659 -1701 0
-1659 -1702 0
-1659 -1703 0
-1659 -1704 0
-1659 -1705 0
-1659 -1706 0
-1659 -1707 0
-1659 -1708 0
-1659 -1709 0
-1659 -1710 0
-1660 -1661 0
-1660 -1662 0
-1660 -1663 0
-1660 -1664 0
-1660 -1665 0
-1660 -1666 0
-1660 -1667 0
-1660 -1668 0
-1660 -1669 0
-1660 -1670 0
-1660 -1671 0
-1660 -1672 0
-1660 -1673 0
-1660 -1674 0
-1660 -1675 0
-1660 -1676 0
-1660 -1677 0
-1660 -1678 0
-1660 -1679 0
-1660 -1680 0
-1660 -1681 0
-1660 -1682 0
-1660 -1683 0
-1660 -1684 0
-1660 -1685 0
-1660 -1686 0
-1660 -1687 0
-1660 -1688 0
-1660 -1689 0
-1660 -1690 0
-1660 -1691 0
-1660 -1692 0
-1660 -1693 0
-1660 -1694 0
-1660 -1695 0
-1660 -1696 0
-1660 -1697 0
-1660 -1698 0
-1660 -1699 0
-1660 -1700 0
-1660 -1701 0
-1660 -1702 0
-1660 -1703 0
-1660 -1704 0
-1660 -1705 0
-1660 -1706 0
-1660 -1707 0
-1660 -1708 0
-1660 -1709 0
-1660 -1710 0
-1661 -1662 0
-1661 -1663 0
-1661 -1664 0
-1661 -1665 0
-1661 -1666 0
-1661 -1667 0
-1661 -1668 0
-1661 -1669 0
-1661 -1670 0
-1661 -1671 0
-1661 -1672 0
-1661 -1673 0
-1661 -1674 0
-1661 -1675 0
-1661 -1676 0
-1661 -1677 0
-1661 -1678 0
-1661 -1679 0
-1661 -1680 0
-1661 -1681 0
-1661 -1682 0
-1661 -1683 0
-1661 -1684 0
-1661 -1685 0
-1661 -1686 0
-1661 -1687 0
-1661 -1688 0
-1661 -1689 0
-1661 -1690 0
-1661 -1691 0
-1661 -1692 0
-1661 -1693 0
-1661 -1694 0
-1661 -1695 0
-1661 -1696 0
-1661 -1697 0
-1661 -1698 0
-1661 -1699 0
-1661 -1700 0
-1661 -1701 0
-1661 -1702 0
-1661 -1703 0
-1661 -1704 0
-1661 -1705 0
-1661 -1706 0
-1661 -1707 0
-1661 -1708 0
-1661 -1709 0
-1661 -1710 0
-1662 -1663 0
-1662 -1664 0
-1662 -1665 0
-1662 -1666 0
-1662 -1667 0
-1662 -1668 0
-1662 -1669 0
-1662 -1670 0
-1662 -1671 0
-1662 -1672 0
-1662 -1673 0
-1662 -1674 0
-1662 -1675 0
-1662 -1676 0
-1662 -1677 0
-1662 -1678 0
-1662 -1679 0
-1662 -1680 0
-1662 -1681 0
-1662 -1682 0
-1662 -1683 0
-1662 -1684 0
-1662 -1685 0
-1662 -1686 0
-1662 -1687 0
-1662 -1688 0
-1662 -1689 0
-1662 -1690 0
-1662 -1691 0
-1662 -1692 0
-1662 -1693 0
-1662 -1694 0
-1662 -1695 0
-1662 -1696 0
-1662 -1697 0
-1662 -1698 0
-1662 -1699 0
-1662 -1700 0
-1662 -1701 0
-1662 -1702 0
-1662 -1703 0
-1662 -1704 0
-1662 -1705 0
-1662 -1706 0
-1662 -1707 0
-1662 -1708 0
-1662 -1709 0
-1662 -1710 0
-1663 -1664 0
-1663 -1665 0
-1663 -1666 0
-1663 -1667 0
-1663 -1668 0
-1663 -1669 0
-1663 -1670 0
-1663 -1671 0
-1663 -1672 0
-1663 -1673 0
-1663 -1674 0
-1663 -1675 0
-1663 -1676 0
-1663 -1677 0
-1663 -1678 0
-1663 -1679 0
-1663 -1680 0
-1663 -1681 0
-1663 -1682 0
-1663 -1683 0
-1663 -1684 0
-1663 -1685 0
-1663 -1686 0
-1663 -1687 0
-1663 -1688 0
-1663 -1689 0
-1663 -1690 0
-1663 -1691 0
-1663 -1692 0
-1663 -1693 0
-1663 -1694 0
-1663 -1695 0
-1663 -1696 0
-1663 -1697 0
-1663 -1698 0
-1663 -1699 0
-1663 -1700 0
-1663 -1701 0
-1663 -1702 0
-1663 -1703 0
-1663 -1704 0
-1663 -1705 0
-1663 -1706 0
-1663 -1707 0
-1663 -1708 0
-1663 -1709 0
-1663 -1710 0
-1664 -1665 0
-1664 -1666 0
-1664 -1667 0
-1664 -1668 0
-1664 -1669 0
-1664 -1670 0
-1664 -1671 0
-1664 -1672 0
-1664 -1673 0
-1664 -1674 0
-1664 -1675 0
-1664 -1676 0
-1664 -1677 0
-1664 -1678 0
-1664 -1679 0
-1664 -1680 0
-1664 -1681 0
-1664 -1682 0
-1664 -1683 0
-1664 -1684 0
-1664 -1685 0
-1664 -1686 0
-1664 -1687 0
-1664 -1688 0
-1664 -1689 0
-1664 -1690 0
-1664 -1691 0
-1664 -1692 0
-1664 -1693 0
-1664 -1694 0
-1664 -1695 0
-1664 -1696 0
-1664 -1697 0
-1664 -1698 0
-1664 -1699 0
-1664 -1700 0
-1664 -1701 0
-1664 -1702 0
-1664 -1703 0
-1664 -1704 0
-1664 -1705 0
-1664 -1706 0
-1664 -1707 0
-1664 -1708 0
-1664 -1709 0
-1664 -1710 0
-1665 -1666 0
-1665 -1667 0
-1665 -1668 0
-1665 -1669 0
-1665 -1670 0
-1665 -1671 0
-1665 -1672 0
-1665 -1673 0
-1665 -1674 0
-1665 -1675 0
-1665 -1676 0
-1665 -1677 0
-1665 -1678 0
-1665 -1679 0
-1665 -1680 0
-1665 -1681 0
-1665 -1682 0
-1665 -1683 0
-1665 -1684 0
-1665 -1685 0
-1665 -1686 0
-1665 -1687 0
-1665 -1688 0
-1665 -1689 0
-1665 -1690 0
-1665 -1691 0
-1665 -1692 0
-1665 -1693 0
-1665 -1694 0
-1665 -1695 0
-1665 -1696 0
-1665 -1697 0
-1665 -1698 0
-1665 -1699 0
-1665 -1700 0
-1665 -1701 0
-1665 -1702 0
-1665 -1703 0
-1665 -1704 0
-1665 -1705 0
-1665 -1706 0
-1665 -1707 0
-1665 -1708 0
-1665 -1709 0
-1665 -1710 0
-1666 -1667 0
-1666 -1668 0
-1666 -1669 0
-1666 -1670 0
-1666 -1671 0
-1666 -1672 0
-1666 -1673 0
-1666 -1674 0
-1666 -1675 0
-1666 -1676 0
-1666 -1677 0
-1666 -1678 0
-1666 -1679 0
-1666 -1680 0
-1666 -1681 0
-1666 -1682 0
-1666 -1683 0
-1666 -1684 0
-1666 -1685 0
-1666 -1686 0
-1666 -1687 0
-1666 -1688 0
-1666 -1689 0
-1666 -1690 0
-1666 -1691 0
-1666 -1692 0
-1666 -1693 0
-1666 -1694 0
-1666 -1695 0
-1666 -1696 0
-1666 -1697 0
-1666 -1698 0
-1666 -1699 0
-1666 -1700 0
-1666 -1701 0
-1666 -1702 0
-1666 -1703 0
-1666 -1704 0
-1666 -1705 0
-1666 -1706 0
-1666 -1707 0
-1666 -1708 0
-1666 -1709 0
-1666 -1710 0
-1667 -1668 0
-1667 -1669 0
-1667 -1670 0
-1667 -1671 0
-1667 -1672 0
-1667 -1673 0
-1667 -1674 0
-1667 -1675 0
-1667 -1676 0
-1667 -1677 0
-1667 -1678 0
-1667 -1679 0
-1667 -1680 0
-1667 -1681 0
-1667 -1682 0
-1667 -1683 0
-1667 -1684 0
-1667 -1685 0
-1667 -1686 0
-1667 -1687 0
-1667 -1688 0
-1667 -1689 0
-1667 -1690 0
-1667 -1691 0
-1667 -1692 0
-1667 -1693 0
-1667 -1694 0
-1667 -1695 0
-1667 -1696 0
-1667 -1697 0
-1667 -1698 0
-1667 -1699 0
-1667 -1700 0
-1667 -1701 0
-1667 -1702 0
-1667 -1703 0
-1667 -1704 0
-1667 -1705 0
-1667 -1706 0
-1667 -1707 0
-1667 -1708 0
-1667 -1709 0
-1667 -1710 0
-1668 -1669 0
-1668 -1670 0
-1668 -1671 0
-1668 -1672 0
-1668 -1673 0
-1668 -1674 0
-1668 -1675 0
-1668 -1676 0
-1668 -1677 0
-1668 -1678 0
-1668 -1679 0
-1668 -1680 0
-1668 -1681 0
-1668 -1682 0
-1668 -1683 0
-1668 -1684 0
-1668 -1685 0
-1668 -1686 0
-1668 -1687 0
-1668 -1688 0
-1668 -1689 0
-1668 -1690 0
-1668 -1691 0
-1668 -1692 0
-1668 -1693 0
-1668 -1694 0
-1668 -1695 0
-1668 -1696 0
-1668 -1697 0
-1668 -1698 0
-1668 -1699 0
-1668 -1700 0
-1668 -1701 0
-1668 -1702 0
-1668 -1703 0
-1668 -1704 0
-1668 -1705 0
-1668 -1706 0
-1668 -1707 0
-1668 -1708 0
-1668 -1709 0
-1668 -1710 0
-1669 -1670 0
-1669 -1671 0
-1669 -1672 0
-1669 -1673 0
-1669 -1674 0
-1669 -1675 0
-1669 -1676 0
-1669 -1677 0
-1669 -1678 0
-1669 -1679 0
-1669 -1680 0
-1669 -1681 0
-1669 -1682 0
-1669 -1683 0
-1669 -1684 0
-1669 -1685 0
-1669 -1686 0
-1669 -1687 0
-1669 -1688 0
-1669 -1689 0
-1669 -1690 0
-1669 -1691 0
-1669 -1692 0
-1669 -1693 0
-1669 -1694 0
-1669 -1695 0
-1669 -1696 0
-1669 -1697 0
-1669 -1698 0
-1669 -1699 0
-1669 -1700 0
-1669 -1701 0
-1669 -1702 0
-1669 -1703 0
-1669 -1704 0
-1669 -1705 0
-1669 -1706 0
-1669 -1707 0
-1669 -1708 0
-1669 -1709 0
-1669 -1710 0
-1670 -1671 0
-1670 -1672 0
-1670 -1673 0
-1670 -1674 0
-1670 -1675 0
-1670 -1676 0
-1670 -1677 0
-1670 -1678 0
-1670 -1679 0
-1670 -1680 0
-1670 -1681 0
-1670 -1682 0
-1670 -1683 0
-1670 -1684 0
-1670 -1685 0
-1670 -1686 0
-1670 -1687 0
-1670 -1688 0
-1670 -1689 0
-1670 -1690 0
-1670 -1691 0
-1670 -1692 0
-1670 -1693 0
-1670 -1694 0
-1670 -1695 0
-1670 -1696 0
-1670 -1697 0
-1670 -1698 0
-1670 -1699 0
-1670 -1700 0
-1670 -1701 0
-1670 -1702 0
-1670 -1703 0
-1670 -1704 0
-1670 -1705 0
-1670 -1706 0
-1670 -1707 0
-1670 -1708 0
-1670 -1709 0
-1670 -1710 0
-1671 -1672 0
-1671 -1673 0
-1671 -1674 0
-1671 -1675 0
-1671 -1676 0
-1671 -1677 0
-1671 -1678 0
-1671 -1679 0
-1671 -1680 0
-1671 -1681 0
-1671 -1682 0
-1671 -1683 0
-1671 -1684 0
-1671 -1685 0
-1671 -1686 0
-1671 -1687 0
-1671 -1688 0
-1671 -1689 0
-1671 -1690 0
-1671 -1691 0
-1671 -1692 0
-1671 -1693 0
-1671 -1694 0
-1671 -1695 0
-1671 -1696 0
-1671 -1697 0
-1671 -1698 0
-1671 -1699 0
-1671 -1700 0
-1671 -1701 0
-1671 -1702 0
-1671 -1703 0
-1671 -1704 0
-1671 -1705 0
-1671 -1706 0
-1671 -1707 0
-1671 -1708 0
-1671 -1709 0
-1671 -1710 0
-1672 -1673 0
-1672 -1674 0
-1672 -1675 0
-1672 -1676 0
-1672 -1677 0
-1672 -1678 0
-1672 -1679 0
-1672 -1680 0
-1672 -1681 0
-1672 -1682 0
-1672 -1683 0
-1672 -1684 0
-1672 -1685 0
-1672 -1686 0
-1672 -1687 0
-1672 -1688 0
-1672 -1689 0
-1672 -1690 0
-1672 -1691 0
-1672 -1692 0
-1672 -1693 0
-1672 -1694 0
-1672 -1695 0
-1672 -1696 0
-1672 -1697 0
-1672 -1698 0
-1672 -1699 0
-1672 -1700 0
-1672 -1701 0
-1672 -1702 0
-1672 -1703 0
-1672 -1704 0
-1672 -1705 0
-1672 -1706 0
-1672 -1707 0
-1672 -1708 0
-1672 -1709 0
-1672 -1710 0
-1673 -1674 0
-1673 -1675 0
-1673 -1676 0
-1673 -1677 0
-1673 -1678 0
-1673 -1679 0
-1673 -1680 0
-1673 -1681 0
-1673 -1682 0
-1673 -1683 0
-1673 -1684 0
-1673 -1685 0
-1673 -1686 0
-1673 -1687 0
-1673 -1688 0
-1673 -1689 0
-1673 -1690 0
-1673 -1691 0
-1673 -1692 0
-1673 -1693 0
-1673 -1694 0
-1673 -1695 0
-1673 -1696 0
-1673 -1697 0
-1673 -1698 0
-1673 -1699 0
-1673 -1700 0
-1673 -1701 0
-1673 -1702 0
-1673 -1703 0
-1673 -1704 0
-1673 -1705 0
-1673 -1706 0
-1673 -1707 0
-1673 -1708 0
-1673 -1709 0
-1673 -1710 0
-1674 -1675 0
-1674 -1676 0
-1674 -1677 0
-1674 -1678 0
-1674 -1679 0
-1674 -1680 0
-1674 -1681 0
-1674 -1682 0
-1674 -1683 0
-1674 -1684 0
-1674 -1685 0
-1674 -1686 0
-1674 -1687 0
-1674 -1688 0
-1674 -1689 0
-1674 -1690 0
-1674 -1691 0
-1674 -1692 0
-1674 -1693 0
-1674 -1694 0
-1674 -1695 0
-1674 -1696 0
-1674 -1697 0
-1674 -1698 0
-1674 -1699 0
-1674 -1700 0
-1674 -1701 0
-1674 -1702 0
-1674 -1703 0
-1674 -1704 0
-1674 -1705 0
-1674 -1706 0
-1674 -1707 0
-1674 -1708 0
-1674 -1709 0
-1674 -1710 0
-1675 -1676 0
-1675 -1677 0
-1675 -1678 0
-1675 -1679 0
-1675 -1680 0
-1675 -1681 0
-1675 -1682 0
-1675 -1683 0
-1675 -1684 0
-1675 -1685 0
-1675 -1686 0
-1675 -1687 0
-1675 -1688 0
-1675 -1689 0
-1675 -1690 0
-1675 -1691 0
-1675 -1692 0
-1675 -1693 0
-1675 -1694 0
-1675 -1695 0
-1675 -1696 0
-1675 -1697 0
-1675 -1698 0
-1675 -1699 0
-1675 -1700 0
-1675 -1701 0
-1675 -1702 0
-1675 -1703 0
-1675 -1704 0
-1675 -1705 0
-1675 -1706 0
-1675 -1707 0
-1675 -1708 0
-1675 -1709 0
-1675 -1710 0
-1676 -1677 0
-1676 -1678 0
-1676 -1679 0
-1676 -1680 0
-1676 -1681 0
-1676 -1682 0
-1676 -1683 0
-1676 -1684 0
-1676 -1685 0
-1676 -1686 0
-1676 -1687 0
-1676 -1688 0
-1676 -1689 0
-1676 -1690 0
-1676 -1691 0
-1676 -1692 0
-1676 -1693 0
-1676 -1694 0
-1676 -1695 0
-1676 -1696 0
-1676 -1697 0
-1676 -1698 0
-1676 -1699 0
-1676 -1700 0
-1676 -1701 0
-1676 -1702 0
-1676 -1703 0
-1676 -1704 0
-1676 -1705 0
-1676 -1706 0
-1676 -1707 0
-1676 -1708 0
-1676 -1709 0
-1676 -1710 0
-1677 -1678 0
-1677 -1679 0
-1677 -1680 0
-1677 -1681 0
-1677 -1682 0
-1677 -1683 0
-1677 -1684 0
-1677 -1685 0
-1677 -1686 0
-1677 -1687 0
-1677 -1688 0
-1677 -1689 0
-1677 -1690 0
-1677 -1691 0
-1677 -1692 0
-1677 -1693 0
-1677 -1694 0
-1677 -1695 0
-1677 -1696 0
-1677 -1697 0
-1677 -1698 0
-1677 -1699 0
-1677 -1700 0
-1677 -1701 0
-1677 -1702 0
-1677 -1703 0
-1677 -1704 0
-1677 -1705 0
-1677 -1706 0
-1677 -1707 0
-1677 -1708 0
-1677 -1709 0
-1677 -1710 0
-1678 -1679 0
-1678 -1680 0
-1678 -1681 0
-1678 -1682 0
-1678 -1683 0
-1678 -1684 0
-1678 -1685 0
-1678 -1686 0
-1678 -1687 0
-1678 -1688 0
-1678 -1689 0
-1678 -1690 0
-1678 -1691 0
-1678 -1692 0
-1678 -1693 0
-1678 -1694 0
-1678 -1695 0
-1678 -1696 0
-1678 -1697 0
-1678 -1698 0
-1678 -1699 0
-1678 -1700 0
-1678 -1701 0
-1678 -1702 0
-1678 -1703 0
-1678 -1704 0
-1678 -1705 0
-1678 -1706 0
-1678 -1707 0
-1678 -1708 0
-1678 -1709 0
-1678 -1710 0
-1679 -1680 0
-1679 -1681 0
-1679 -1682 0
-1679 -1683 0
-1679 -1684 0
-1679 -1685 0
-1679 -1686 0
-1679 -1687 0
-1679 -1688 0
-1679 -1689 0
-1679 -1690 0
-1679 -1691 0
-1679 -1692 0
-1679 -1693 0
-1679 -1694 0
-1679 -1695 0
-1679 -1696 0
-1679 -1697 0
-1679 -1698 0
-1679 -1699 0
-1679 -1700 0
-1679 -1701 0
-1679 -1702 0
-1679 -1703 0
-1679 -1704 0
-1679 -1705 0
-1679 -1706 0
-1679 -1707 0
-1679 -1708 0
-1679 -1709 0
-1679 -1710 0
-1680 -1681 0
-1680 -1682 0
-1680 -1683 0
-1680 -1684 0
-1680 -1685 0
-1680 -1686 0
-1680 -1687 0
-1680 -1688 0
-1680 -1689 0
-1680 -1690 0
-1680 -1691 0
-1680 -1692 0
-1680 -1693 0
-1680 -1694 0
-1680 -1695 0
-1680 -1696 0
-1680 -1697 0
-1680 -1698 0
-1680 -1699 0
-1680 -1700 0
-1680 -1701 0
-1680 -1702 0
-1680 -1703 0
-1680 -1704 0
-1680 -1705 0
-1680 -1706 0
-1680 -1707 0
-1680 -1708 0
-1680 -1709 0
-1680 -1710 0
-1681 -1682 0
-1681 -1683 0
-1681 -1684 0
-1681 -1685 0
-1681 -1686 0
-1681 -1687 0
-1681 -1688 0
-1681 -1689 0
-1681 -1690 0
-1681 -1691 0
-1681 -1692 0
-1681 -1693 0
-1681 -1694 0
-1681 -1695 0
-1681 -1696 0
-1681 -1697 0
-1681 -1698 0
-1681 -1699 0
-1681 -1700 0
-1681 -1701 0
-1681 -1702 0
-1681 -1703 0
-1681 -1704 0
-1681 -1705 0
-1681 -1706 0
-1681 -1707 0
-1681 -1708 0
-1681 -1709 0
-1681 -1710 0
-1682 -1683 0
-1682 -1684 0
-1682 -1685 0
-1682 -1686 0
-1682 -1687 0
-1682 -1688 0
-1682 -1689 0
-1682 -1690 0
-1682 -1691 0
-1682 -1692 0
-1682 -1693 0
-1682 -1694 0
-1682 -1695 0
-1682 -1696 0
-1682 -1697 0
-1682 -1698 0
-1682 -1699 0
-1682 -1700 0
-1682 -1701 0
-1682 -1702 0
-1682 -1703 0
-1682 -1704 0
-1682 -1705 0
-1682 -1706 0
-1682 -1707 0
-1682 -1708 0
-1682 -1709 0
-1682 -1710 0
-1683 -1684 0
-1683 -1685 0
-1683 -1686 0
-1683 -1687 0
-1683 -1688 0
-1683 -1689 0
-1683 -1690 0
-1683 -1691 0
-1683 -1692 0
-1683 -1693 0
-1683 -1694 0
-1683 -1695 0
-1683 -1696 0
-1683 -1697 0
-1683 -1698 0
-1683 -1699 0
-1683 -1700 0
-1683 -1701 0
-1683 -1702 0
-1683 -1703 0
-1683 -1704 0
-1683 -1705 0
-1683 -1706 0
-1683 -1707 0
-1683 -1708 0
-1683 -1709 0
-1683 -1710 0
-1684 -1685 0
-1684 -1686 0
-1684 -1687 0
-1684 -1688 0
-1684 -1689 0
-1684 -1690 0
-1684 -1691 0
-1684 -1692 0
-1684 -1693 0
-1684 -1694 0
-1684 -1695 0
-1684 -1696 0
-1684 -1697 0
-1684 -1698 0
-1684 -1699 0
-1684 -1700 0
-1684 -1701 0
-1684 -1702 0
-1684 -1703 0
-1684 -1704 0
-1684 -1705 0
-1684 -1706 0
-1684 -1707 0
-1684 -1708 0
-1684 -1709 0
-1684 -1710 0
-1685 -1686 0
-1685 -1687 0
-1685 -1688 0
-1685 -1689 0
-1685 -1690 0
-1685 -1691 0
-1685 -1692 0
-1685 -1693 0
-1685 -1694 0
-1685 -1695 0
-1685 -1696 0
-1685 -1697 0
-1685 -1698 0
-1685 -1699 0
-1685 -1700 0
-1685 -1701 0
-1685 -1702 0
-1685 -1703 0
-1685 -1704 0
-1685 -1705 0
-1685 -1706 0
-1685 -1707 0
-1685 -1708 0
-1685 -1709 0
-1685 -1710 0
-1686 -1687 0
-1686 -1688 0
-1686 -1689 0
-1686 -1690 0
-1686 -1691 0
-1686 -1692 0
-1686 -1693 0
-1686 -1694 0
-1686 -1695 0
-1686 -1696 0
-1686 -1697 0
-1686 -1698 0
-1686 -1699 0
-1686 -1700 0
-1686 -1701 0
-1686 -1702 0
-1686 -1703 0
-1686 -1704 0
-1686 -1705 0
-1686 -1706 0
-1686 -1707 0
-1686 -1708 0
-1686 -1709 0
-1686 -1710 0
-1687 -1688 0
-1687 -1689 0
-1687 -1690 0
-1687 -1691 0
-1687 -1692 0
-1687 -1693 0
-1687 -1694 0
-1687 -1695 0
-1687 -1696 0
-1687 -1697 0
-1687 -1698 0
-1687 -1699 0
-1687 -1700 0
-1687 -1701 0
-1687 -1702 0
-1687 -1703 0
-1687 -1704 0
-1687 -1705 0
-1687 -1706 0
-1687 -1707 0
-1687 -1708 0
-1687 -1709 0
-1687 -1710 0
-1688 -1689 0
-1688 -1690 0
-1688 -1691 0
-1688 -1692 0
-1688 -1693 0
-1688 -1694 0
-1688 -1695 0
-1688 -1696 0
-1688 -1697 0
-1688 -1698 0
-1688 -1699 0
-1688 -1700 0
-1688 -1701 0
-1688 -1702 0
-1688 -1703 0
-1688 -1704 0
-1688 -1705 0
-1688 -1706 0
-1688 -1707 0
-1688 -1708 0
-1688 -1709 0
-1688 -1710 0
-1689 -1690 0
-1689 -1691 0
-1689 -1692 0
-1689 -1693 0
-1689 -1694 0
-1689 -1695 0
-1689 -1696 0
-1689 -1697 0
-1689 -1698 0
-1689 -1699 0
-1689 -1700 0
-1689 -1701 0
-1689 -1702 0
-1689 -1703 0
-1689 -1704 0
-1689 -1705 0
-1689 -1706 0
-1689 -1707 0
-1689 -1708 0
-1689 -1709 0
-1689 -1710 0
-1690 -1691 0
-1690 -1692 0
-1690 -1693 0
-1690 -1694 0
-1690 -1695 0
-1690 -1696 0
-1690 -1697 0
-1690 -1698 0
-1690 -1699 0
-1690 -1700 0
-1690 -1701 0
-1690 -1702 0
-1690 -1703 0
-1690 -1704 0
-1690 -1705 0
-1690 -1706 0
-1690 -1707 0
-1690 -1708 0
-1690 -1709 0
-1690 -1710 0
-1691 -1692 0
-1691 -1693 0
-1691 -1694 0
-1691 -1695 0
-1691 -1696 0
-1691 -1697 0
-1691 -1698 0
-1691 -1699 0
-1691 -1700 0
-1691 -1701 0
-1691 -1702 0
-1691 -1703 0
-1691 -1704 0
-1691 -1705 0
-1691 -1706 0
-1691 -1707 0
-1691 -1708 0
-1691 -1709 0
-1691 -1710 0
-1692 -1693 0
-1692 -1694 0
-1692 -1695 0
-1692 -1696 0
-1692 -1697 0
-1692 -1698 0
-1692 -1699 0
-1692 -1700 0
-1692 -1701 0
-1692 -1702 0
-1692 -1703 0
-1692 -1704 0
-1692 -1705 0
-1692 -1706 0
-1692 -1707 0
-1692 -1708 0
-1692 -1709 0
-1692 -1710 0
-1693 -1694 0
-1693 -1695 0
-1693 -1696 0
-1693 -1697 0
-1693 -1698 0
-1693 -1699 0
-1693 -1700 0
-1693 -1701 0
-1693 -1702 0
-1693 -1703 0
-1693 -1704 0
-1693 -1705 0
-1693 -1706 0
-1693 -1707 0
-1693 -1708 0
-1693 -1709 0
-1693 -1710 0
-1694 -1695 0
-1694 -1696 0
-1694 -1697 0
-1694 -1698 0
-1694 -1699 0
-1694 -1700 0
-1694 -1701 0
-1694 -1702 0
-1694 -1703 0
-1694 -1704 0
-1694 -1705 0
-1694 -1706 0
-1694 -1707 0
-1694 -1708 0
-1694 -1709 0
-1694 -1710 0
-1695 -1696 0
-1695 -1697 0
-1695 -1698 0
-1695 -1699 0
-1695 -1700 0
-1695 -1701 0
-1695 -1702 0
-1695 -1703 0
-1695 -1704 0
-1695 -1705 0
-1695 -1706 0
-1695 -1707 0
-1695 -1708 0
-1695 -1709 0
-1695 -1710 0
-1696 -1697 0
-1696 -1698 0
-1696 -1699 0
-1696 -1700 0
-1696 -1701 0
-1696 -1702 0
-1696 -1703 0
-1696 -1704 0
-1696 -1705 0
-1696 -1706 0
-1696 -1707 0
-1696 -1708 0
-1696 -1709 0
-1696 -1710 0
-1697 -1698 0
-1697 -1699 0
-1697 -1700 0
-1697 -1701 0
-1697 -1702 0
-1697 -1703 0
-1697 -1704 0
-1697 -1705 0
-1697 -1706 0
-1697 -1707 0
-1697 -1708 0
-1697 -1709 0
-1697 -1710 0
-1698 -1699 0
-1698 -1700 0
-1698 -1701 0
-1698 -1702 0
-1698 -1703 0
-1698 -1704 0
-1698 -1705 0
-1698 -1706 0
-1698 -1707 0
-1698 -1708 0
-1698 -1709 0
-1698 -1710 0
-1699 -1700 0
-1699 -1701 0
-1699 -1702 0
-1699 -1703 0
-1699 -1704 0
-1699 -1705 0
-1699 -1706 0
-1699 -1707 0
-1699 -1708 0
-1699 -1709 0
-1699 -1710 0
-1700 -1701 0
-1700 -1702 0
-1700 -1703 0
-1700 -1704 0
-1700 -1705 0
-1700 -1706 0
-1700 -1707 0
-1700 -1708 0
-1700 -1709 0
-1700 -1710 0
-1701 -1702 0
-1701 -1703 0
-1701 -1704 0
-1701 -1705 0
-1701 -1706 0
-1701 -1707 0
-1701 -1708 0
-1701 -1709 0
-1701 -1710 0
-1702 -1703 0
-1702 -1704 0
-1702 -1705 0
-1702 -1706 0
-1702 -1707 0
-1702 -1708 0
-1702 -1709 0
-1702 -1710 0
-1703 -1704 0
-1703 -1705 0
-1703 -1706 0
-1703 -1707 0
-1703 -1708 0
-1703 -1709 0
-1703 -1710 0
-1704 -1705 0
-1704 -1706 0
-1704 -1707 0
-1704 -1708 0
-1704 -1709 0
-1704 -1710 0
-1705 -1706 0
-1705 -1707 0
-1705 -1708 0
-1705 -1709 0
-1705 -1710 0
-1706 -1707 0
-1706 -1708 0
-1706 -1709 0
-1706 -1710 0
-1707 -1708 0
-1707 -1709 0
-1707 -1710 0
-1708 -1709 0
-1708 -1710 0
-1709 -1710 0
-1627 268 0
-1627 515 0
-1627 -318 0
-1627 -319 0
-1627 -320 0
-1627 -321 0
-1627 -322 0
-1627 -323 522 0
-1627 -323 -258 -265 0
-1627 -323 -330 0
-1627 -323 -388 0
-1627 -323 -445 0
-1627 -324 523 0
-1627 -324 -258 -266 0
-1627 -324 -332 0
-1627 -324 -390 0
-1627 -324 -447 0
-1627 -325 524 0
-1627 -325 -258 -267 0
-1627 -325 -334 0
-1627 -325 -392 0
-1627 -325 -449 0
-1627 -326 0
-1628 268 0
-1628 516 0
-1628 -317 0
-1628 -319 0
-1628 -320 0
-1628 -321 0
-1628 -322 0
-1628 -323 522 0
-1628 -323 -259 -265 0
-1628 -323 -338 0
-1628 -323 -396 0
-1628 -323 -453 0
-1628 -324 523 0
-1628 -324 -259 -266 0
-1628 -324 -340 0
-1628 -324 -398 0
-1628 -324 -455 0
-1628 -325 524 0
-1628 -325 -259 -267 0
-1628 -325 -342 0
-1628 -325 -400 0
-1628 -325 -457 0
-1628 -326 0
-1629 268 0
-1629 517 0
-1629 -317 0
-1629 -318 0
-1629 -320 0
-1629 -321 0
-1629 -322 0
-1629 -323 522 0
-1629 -323 -260 -265 0
-1629 -323 -346 0
-1629 -323 -404 0
-1629 -323 -461 0
-1629 -324 523 0
-1629 -324 -260 -266 0
-1629 -324 -348 0
-1629 -324 -406 0
-1629 -324 -463 0
-1629 -325 524 0
-1629 -325 -260 -267 0
-1629 -325 -350 0
-1629 -325 -408 0
-1629 -325 -465 0
-1629 -326 0
-1630 268 0
-1630 518 0
-1630 -317 0
-1630 -318 0
-1630 -319 0
-1630 -321 0
-1630 -322 0
-1630 -323 522 0
-1630 -323 -261 -265 0
-1630 -323 -354 0
-1630 -323 -412 0
-1630 -323 -469 0
-1630 -324 523 0
-1630 -324 -261 -266 0
-1630 -324 -356 0
-1630 -324 -414 0
-1630 -324 -471 0
-1630 -325 524 0
-1630 -325 -261 -267 0
-1630 -325 -358 0
-1630 -325 -416 0
-1630 -325 -473 0
-1630 -326 0
-1631 268 0
-1631 519 0
-1631 -317 0
-1631 -318 0
-1631 -319 0
-1631 -320 0
-1631 -322 0
-1631 -323 522 0
-1631 -323 -262 -265 0
-1631 -323 -362 0
-1631 -323 -420 0
-1631 -323 -477 0
-1631 -324 523 0
-1631 -324 -262 -266 0
-1631 -324 -364 0
-1631 -324 -422 0
-1631 -324 -479 0
-1631 -325 524 0
-1631 -325 -262 -267 0
-1631 -325 -366 0
-1631 -325 -424 0
-1631 -325 -481 0
-1631 -326 0
-1632 268 0
-1632 520 0
-1632 -317 0
-1632 -318 0
-1632 -319 0
-1632 -320 0
-1632 -321 0
-1632 -323 522 0
-1632 -323 -263 -265 0
-1632 -323 -370 0
-1632 -323 -428 0
-1632 -323 -485 0
-1632 -324 523 0
-1632 -324 -263 -266 0
-1632 -324 -372 0
-1632 -324 -430 0
-1632 -324 -487 0
-1632 -325 524 0
-1632 -325 -263 -267 0
-1632 -325 -374 0
-1632 -325 -432 0
-1632 -325 -489 0
-1632 -326 0
-1633 268 0
-1633 515 0
-1633 -377 0
-1633 -378 0
-1633 -379 0
-1633 -380 0
-1633 -381 522 0
-1633 -381 -258 -265 0
-1633 -381 -330 0
-1633 -381 -388 0
-1633 -381 -445 0
-1633 -382 523 0
-1633 -382 -258 -266 0
-1633 -382 -332 0
-1633 -382 -390 0
-1633 -382 -447 0
-1633 -383 524 0
-1633 -383 -258 -267 0
-1633 -383 -334 0
-1633 -383 -392 0
-1633 -383 -449 0
-1633 -384 0
-1634 268 0
-1634 516 0
-1634 -378 0
-1634 -379 0
-1634 -380 0
-1634 -381 522 0
-1634 -381 -259 -265 0
-1634 -381 -338 0
-1634 -381 -396 0
-1634 -381 -453 0
-1634 -382 523 0
-1634 -382 -259 -266 0
-1634 -382 -340 0
-1634 -382 -398 0
-1634 -382 -455 0
-1634 -383 524 0
-1634 -383 -259 -267 0
-1634 -383 -342 0
-1634 -383 -400 0
-1634 -383 -457 0
-1634 -384 0
-1635 268 0
-1635 517 0
-1635 -376 0
-1635 -379 0
-1635 -380 0
-1635 -381 522 0
-1635 -381 -260 -265 0
-1635 -381 -346 0
-1635 -381 -404 0
-1635 -381 -461 0
-1635 -382 523 0
-1635 -382 -260 -266 0
-1635 -382 -348 0
-1635 -382 -406 0
-1635 -382 -463 0
-1635 -383 524 0
-1635 -383 -260 -267 0
-1635 -383 -350 0
-1635 -383 -408 0
-1635 -383 -465 0
-1635 -384 0
-1636 268 0
-1636 518 0
-1636 -376 0
-1636 -377 0
-1636 -380 0
-1636 -381 522 0
-1636 -381 -261 -265 0
-1636 -381 -354 0
-1636 -381 -412 0
-1636 -381 -469 0
-1636 -382 523 0
-1636 -382 -261 -266 0
-1636 -382 -356 0
-1636 -382 -414 0
-1636 -382 -471 0
-1636 -383 524 0
-1636 -383 -261 -267 0
-1636 -383 -358 0
-1636 -383 -416 0
-1636 -383 -473 0
-1636 -384 0
-1637 268 0
-1637 519 0
-1637 -376 0
-1637 -377 0
-1637 -378 0
-1637 -381 522 0
-1637 -381 -262 -265 0
-1637 -381 -362 0
-1637 -381 -420 0
-1637 -381 -477 0
-1637 -382 523 0
-1637 -382 -262 -266 0
-1637 -382 -364 0
-1637 -382 -422 0
-1637 -382 -479 0
-1637 -383 524 0
-1637 -383 -262 -267 0
-1637 -383 -366 0
-1637 -383 -424 0
-1637 -383 -481 0
-1637 -384 0
-1638 268 0
-1638 520 0
-1638 -376 0
-1638 -377 0
-1638 -378 0
-1638 -379 0
-1638 -381 522 0
-1638 -381 -263 -265 0
-1638 -381 -370 0
-1638 -381 -428 0
-1638 -381 -485 0
-1638 -382 523 0
-1638 -382 -263 -266 0
-1638 -382 -372 0
-1638 -382 -430 0
-1638 -382 -487 0
-1638 -383 524 0
-1638 -383 -263 -267 0
-1638 -383 -374 0
-1638 -383 -432 0
-1638 -383 -489 0
-1638 -384 0
-1639 268 0
-1639 515 0
-1639 -435 0
-1639 -436 0
-1639 -437 0
-1639 -438 522 0
-1639 -438 -258 -265 0
-1639 -438 -330 0
-1639 -438 -388 0
-1639 -438 -445 0
-1639 -439 523 0
-1639 -439 -258 -266 0
-1639 -439 -332 0
-1639 -439 -390 0
-1639 -439 -447 0
-1639 -440 524 0
-1639 -440 -258 -267 0
-1639 -440 -334 0
-1639 -440 -392 0
-1639 -440 -449 0
-1639 -441 0
-1640 268 0
-1640 516 0
-1640 -436 0
-1640 -437 0
-1640 -438 522 0
-1640 -438 -259 -265 0
-1640 -438 -338 0
-1640 -438 -396 0
-1640 -438 -453 0
-1640 -439 523 0
-1640 -439 -259 -266 0
-1640 -439 -340 0
-1640 -439 -398 0
-1640 -439 -455 0
-1640 -440 524 0
-1640 -440 -259 -267 0
-1640 -440 -342 0
-1640 -440 -400 0
-1640 -440 -457 0
-1640 -441 0
-1641 268 0
-1641 517 0
-1641 -437 0
-1641 -438 522 0
-1641 -438 -260 -265 0
-1641 -438 -346 0
-1641 -438 -404 0
-1641 -438 -461 0
-1641 -439 523 0
-1641 -439 -260 -266 0
-1641 -439 -348 0
-1641 -439 -406 0
-1641 -439 -463 0
-1641 -440 524 0
-1641 -440 -260 -267 0
-1641 -440 -350 0
-1641 -440 -408 0
-1641 -440 -465 0
-1641 -441 0
-1642 268 0
-1642 518 0
-1642 -434 0
-1642 -438 522 0
-1642 -438 -261 -265 0
-1642 -438 -354 0
-1642 -438 -412 0
-1642 -438 -469 0
-1642 -439 523 0
-1642 -439 -261 -266 0
-1642 -439 -356 0
-1642 -439 -414 0
-1642 -439 -471 0
-1642 -440 524 0
-1642 -440 -261 -267 0
-1642 -440 -358 0
-1642 -440 -416 0
-1642 -440 -473 0
-1642 -441 0
-1643 268 0
-1643 519 0
-1643 -434 0
-1643 -435 0
-1643 -438 522 0
-1643 -438 -262 -265 0
-1643 -438 -362 0
-1643 -438 -420 0
-1643 -438 -477 0
-1643 -439 523 0
-1643 -439 -262 -266 0
-1643 -439 -364 0
-1643 -439 -422 0
-1643 -439 -479 0
-1643 -440 524 0
-1643 -440 -262 -267 0
-1643 -440 -366 0
-1643 -440 -424 0
-1643 -440 -481 0
-1643 -441 0
-1644 268 0
-1644 520 0
-1644 -434 0
-1644 -435 0
-1644 -436 0
-1644 -438 522 0
-1644 -438 -263 -265 0
-1644 -438 -370 0
-1644 -438 -428 0
-1644 -438 -485 0
-1644 -439 523 0
-1644 -439 -263 -266 0
-1644 -439 -372 0
-1644 -439 -430 0
-1644 -439 -487 0
-1644 -440 524 0
-1644 -440 -263 -267 0
-1644 -440 -374 0
-1644 -440 -432 0
-1644 -440 -489 0
-1644 -441 0
-1645 268 0
-1645 515 0
-1645 521 0
-1645 -258 -264 0
-1645 -328 0
-1645 -386 0
-1645 -443 0
-1646 268 0
-1646 516 0
-1646 521 0
-1646 -259 -264 0
-1646 -336 0
-1646 -394 0
-1646 -451 0
-1647 268 0
-1647 517 0
-1647 521 0
-1647 -260 -264 0
-1647 -344 0
-1647 -402 0
-1647 -459 0
-1648 268 0
-1648 518 0
-1648 521 0
-1648 -261 -264 0
-1648 -352 0
-1648 -410 0
-1648 -467 0
-1649 268 0
-1649 519 0
-1649 521 0
-1649 -262 -264 0
-1649 -360 0
-1649 -418 0
-1649 -475 0
-1650 268 0
-1650 520 0
-1650 521 0
-1650 -263 -264 0
-1650 -368 0
-1650 -426 0
-1650 -483 0
-1651 327 0
-1651 574 0
-1651 -259 0
-1651 -260 0
-1651 -261 0
-1651 -262 0
-1651 -263 0
-1651 -264 581 0
-1651 -264 -317 -324 0
-1651 -264 -271 0
-1651 -264 -388 0
-1651 -264 -445 0
-1651 -265 582 0
-1651 -265 -317 -325 0
-1651 -265 -273 0
-1651 -265 -390 0
-1651 -265 -447 0
-1651 -266 583 0
-1651 -266 -317 -326 0
-1651 -266 -275 0
-1651 -266 -392 0
-1651 -266 -449 0
-1651 -267 0
-1652 327 0
-1652 575 0
-1652 -258 0
-1652 -260 0
-1652 -261 0
-1652 -262 0
-1652 -263 0
-1652 -264 581 0
-1652 -264 -318 -324 0
-1652 -264 -279 0
-1652 -264 -396 0
-1652 -264 -453 0
-1652 -265 582 0
-1652 -265 -318 -325 0
-1652 -265 -281 0
-1652 -265 -398 0
-1652 -265 -455 0
-1652 -266 583 0
-1652 -266 -318 -326 0
-1652 -266 -283 0
-1652 -266 -400 0
-1652 -266 -457 0
-1652 -267 0
-1653 327 0
-1653 576 0
-1653 -258 0
-1653 -259 0
-1653 -261 0
-1653 -262 0
-1653 -263 0
-1653 -264 581 0
-1653 -264 -319 -324 0
-1653 -264 -287 0
-1653 -264 -404 0
-1653 -264 -461 0
-1653 -265 582 0
-1653 -265 -319 -325 0
-1653 -265 -289 0
-1653 -265 -406 0
-1653 -265 -463 0
-1653 -266 583 0
-1653 -266 -319 -326 0
-1653 -266 -291 0
-1653 -266 -408 0
-1653 -266 -465 0
-1653 -267 0
-1654 327 0
-1654 577 0
-1654 -258 0
-1654 -259 0
-1654 -260 0
-1654 -262 0
-1654 -263 0
-1654 -264 581 0
-1654 -264 -320 -324 0
-1654 -264 -295 0
-1654 -264 -412 0
-1654 -264 -469 0
-1654 -265 582 0
-1654 -265 -320 -325 0
-1654 -265 -297 0
-1654 -265 -414 0
-1654 -265 -471 0
-1654 -266 583 0
-1654 -266 -320 -326 0
-1654 -266 -299 0
-1654 -266 -416 0
-1654 -266 -473 0
-1654 -267 0
-1655 327 0
-1655 578 0
-1655 -258 0
-1655 -259 0
-1655 -260 0
-1655 -261 0
-1655 -263 0
-1655 -264 581 0
-1655 -264 -321 -324 0
-1655 -264 -303 0
-1655 -264 -420 0
-1655 -264 -477 0
-1655 -265 582 0
-1655 -265 -321 -325 0
-1655 -265 -305 0
-1655 -265 -422 0
-1655 -265 -479 0
-1655 -266 583 0
-1655 -266 -321 -326 0
-1655 -266 -307 0
-1655 -266 -424 0
-1655 -266 -481 0
-1655 -267 0
-1656 327 0
-1656 579 0
-1656 -258 0
-1656 -259 0
-1656 -260 0
-1656 -261 0
-1656 -262 0
-1656 -264 581 0
-1656 -264 -322 -324 0
-1656 -264 -311 0
-1656 -264 -428 0
-1656 -264 -485 0
-1656 -265 582 0
-1656 -265 -322 -325 0
-1656 -265 -313 0
-1656 -265 -430 0
-1656 -265 -487 0
-1656 -266 583 0
-1656 -266 -322 -326 0
-1656 -266 -315 0
-1656 -266 -432 0
-1656 -266 -489 0
-1656 -267 0
-1657 327 0
-1657 574 0
-1657 -377 0
-1657 -378 0
-1657 -379 0
-1657 -380 0
-1657 -381 581 0
-1657 -381 -317 -324 0
-1657 -381 -271 0
-1657 -381 -388 0
-1657 -381 -445 0
-1657 -382 582 0
-1657 -382 -317 -325 0
-1657 -382 -273 0
-1657 -382 -390 0
-1657 -382 -447 0
-1657 -383 583 0
-1657 -383 -317 -326 0
-1657 -383 -275 0
-1657 -383 -392 0
-1657 -383 -449 0
-1657 -384 0
-1658 327 0
-1658 575 0
-1658 -378 0
-1658 -379 0
-1658 -380 0
-1658 -381 581 0
-1658 -381 -318 -324 0
-1658 -381 -279 0
-1658 -381 -396 0
-1658 -381 -453 0
-1658 -382 582 0
-1658 -382 -318 -325 0
-1658 -382 -281 0
-1658 -382 -398 0
-1658 -382 -455 0
-1658 -383 583 0
-1658 -383 -318 -326 0
-1658 -383 -283 0
-1658 -383 -400 0
-1658 -383 -457 0
-1658 -384 0
-1659 327 0
-1659 576 0
-1659 -376 0
-1659 -379 0
-1659 -380 0
-1659 -381 581 0
-1659 -381 -319 -324 0
-1659 -381 -287 0
-1659 -381 -404 0
-1659 -381 -461 0
-1659 -382 582 0
-1659 -382 -319 -325 0
-1659 -382 -289 0
-1659 -382 -406 0
-1659 -382 -463 0
-1659 -383 583 0
-1659 -383 -319 -326 0
-1659 -383 -291 0
-1659 -383 -408 0
-1659 -383 -465 0
-1659 -384 0
-1660 327 0
-1660 577 0
-1660 -376 0
-1660 -377 0
-1660 -380 0
-1660 -381 581 0
-1660 -381 -320 -324 0
-1660 -381 -295 0
-1660 -381 -412 0
-1660 -381 -469 0
-1660 -382 582 0
-1660 -382 -320 -325 0
-1660 -382 -297 0
-1660 -382 -414 0
-1660 -382 -471 0
-1660 -383 583 0
-1660 -383 -320 -326 0
-1660 -383 -299 0
-1660 -383 -416 0
-1660 -383 -473 0
-1660 -384 0
-1661 327 0
-1661 578 0
-1661 -376 0
-1661 -377 0
-1661 -378 0
-1661 -381 581 0
-1661 -381 -321 -324 0
-1661 -381 -303 0
-1661 -381 -420 0
-1661 -381 -477 0
-1661 -382 582 0
-1661 -382 -321 -325 0
-1661 -382 -305 0
-1661 -382 -422 0
-1661 -382 -479 0
-1661 -383 583 0
-1661 -383 -321 -326 0
-1661 -383 -307 0
-1661 -383 -424 0
-1661 -383 -481 0
-1661 -384 0
-1662 327 0
-1662 579 0
-1662 -376 0
-1662 -377 0
-1662 -378 0
-1662 -379 0
-1662 -381 581 0
-1662 -381 -322 -324 0
-1662 -381 -311 0
-1662 -381 -428 0
-1662 -381 -485 0
-1662 -382 582 0
-1662 -382 -322 -325 0
-1662 -382 -313 0
-1662 -382 -430 0
-1662 -382 -487 0
-1662 -383 583 0
-1662 -383 -322 -326 0
-1662 -383 -315 0
-1662 -383 -432 0
-1662 -383 -489 0
-1662 -384 0
-1663 327 0
-1663 574 0
-1663 -435 0
-1663 -436 0
-1663 -437 0
-1663 -438 581 0
-1663 -438 -317 -324 0
-1663 -438 -271 0
-1663 -438 -388 0
-1663 -438 -445 0
-1663 -439 582 0
-1663 -439 -317 -325 0
-1663 -439 -273 0
-1663 -439 -390 0
-1663 -439 -447 0
-1663 -440 583 0
-1663 -440 -317 -326 0
-1663 -440 -275 0
-1663 -440 -392 0
-1663 -440 -449 0
-1663 -441 0
-1664 327 0
-1664 575 0
-1664 -436 0
-1664 -437 0
-1664 -438 581 0
-1664 -438 -318 -324 0
-1664 -438 -279 0
-1664 -438 -396 0
-1664 -438 -453 0
-1664 -439 582 0
-1664 -439 -318 -325 0
-1664 -439 -281 0
-1664 -439 -398 0
-1664 -439 -455 0
-1664 -440 583 0
-1664 -440 -318 -326 0
-1664 -440 -283 0
-1664 -440 -400 0
-1664 -440 -457 0
-1664 -441 0
-1665 327 0
-1665 576 0
-1665 -437 0
-1665 -438 581 0
-1665 -438 -319 -324 0
-1665 -438 -287 0
-1665 -438 -404 0
-1665 -438 -461 0
-1665 -439 582 0
-1665 -439 -319 -325 0
-1665 -439 -289 0
-1665 -439 -406 0
-1665 -439 -463 0
-1665 -440 583 0
-1665 -440 -319 -326 0
-1665 -440 -291 0
-1665 -440 -408 0
-1665 -440 -465 0
-1665 -441 0
-1666 327 0
-1666 577 0
-1666 -434 0
-1666 -438 581 0
-1666 -438 -320 -324 0
-1666 -438 -295 0
-1666 -438 -412 0
-1666 -438 -469 0
-1666 -439 582 0
-1666 -439 -320 -325 0
-1666 -439 -297 0
-1666 -439 -414 0
-1666 -439 -471 0
-1666 -440 583 0
-1666 -440 -320 -326 0
-1666 -440 -299 0
-1666 -440 -416 0
-1666 -440 -473 0
-1666 -441 0
-1667 327 0
-1667 578 0
-1667 -434 0
-1667 -435 0
-1667 -438 581 0
-1667 -438 -321 -324 0
-1667 -438 -303 0
-1667 -438 -420 0
-1667 -438 -477 0
-1667 -439 582 0
-1667 -439 -321 -325 0
-1667 -439 -305 0
-1667 -439 -422 0
-1667 -439 -479 0
-1667 -440 583 0
-1667 -440 -321 -326 0
-1667 -440 -307 0
-1667 -440 -424 0
-1667 -440 -481 0
-1667 -441 0
-1668 327 0
-1668 579 0
-1668 -434 0
-1668 -435 0
-1668 -436 0
-1668 -438 581 0
-1668 -438 -322 -324 0
-1668 -438 -311 0
-1668 -438 -428 0
-1668 -438 -485 0
-1668 -439 582 0
-1668 -439 -322 -325 0
-1668 -439 -313 0
-1668 -439 -430 0
-1668 -439 -487 0
-1668 -440 583 0
-1668 -440 -322 -326 0
-1668 -440 -315 0
-1668 -440 -432 0
-1668 -440 -489 0
-1668 -441 0
-1669 327 0
-1669 574 0
-1669 580 0
-1669 -317 -323 0
-1669 -269 0
-1669 -386 0
-1669 -443 0
-1670 327 0
-1670 575 0
-1670 580 0
-1670 -318 -323 0
-1670 -277 0
-1670 -394 0
-1670 -451 0
-1671 327 0
-1671 576 0
-1671 580 0
-1671 -319 -323 0
-1671 -285 0
-1671 -402 0
-1671 -459 0
-1672 327 0
-1672 577 0
-1672 580 0
-1672 -320 -323 0
-1672 -293 0
-1672 -410 0
-1672 -467 0
-1673 327 0
-1673 578 0
-1673 580 0
-1673 -321 -323 0
-1673 -301 0
-1673 -418 0
-1673 -475 0
-1674 327 0
-1674 579 0
-1674 580 0
-1674 -322 -323 0
-1674 -309 0
-1674 -426 0
-1674 -483 0
-1675 385 0
-1675 633 0
-1675 -260 0
-1675 -261 0
-1675 -262 0
-1675 -263 0
-1675 -264 639 0
-1675 -264 -376 -382 0
-1675 -264 -271 0
-1675 -264 -279 0
-1675 -264 -330 0
-1675 -264 -338 0
-1675 -264 -445 0
-1675 -264 -453 0
-1675 -265 640 0
-1675 -265 -376 -383 0
-1675 -265 -273 0
-1675 -265 -281 0
-1675 -265 -332 0
-1675 -265 -340 0
-1675 -265 -447 0
-1675 -265 -455 0
-1675 -266 641 0
-1675 -266 -376 -384 0
-1675 -266 -275 0
-1675 -266 -283 0
-1675 -266 -334 0
-1675 -266 -342 0
-1675 -266 -449 0
-1675 -266 -457 0
-1675 -267 0
-1676 385 0
-1676 634 0
-1676 -258 0
-1676 -261 0
-1676 -262 0
-1676 -263 0
-1676 -264 639 0
-1676 -264 -377 -382 0
-1676 -264 -279 0
-1676 -264 -287 0
-1676 -264 -338 0
-1676 -264 -346 0
-1676 -264 -453 0
-1676 -264 -461 0
-1676 -265 640 0
-1676 -265 -377 -383 0
-1676 -265 -281 0
-1676 -265 -289 0
-1676 -265 -340 0
-1676 -265 -348 0
-1676 -265 -455 0
-1676 -265 -463 0
-1676 -266 641 0
-1676 -266 -377 -384 0
-1676 -266 -283 0
-1676 -266 -291 0
-1676 -266 -342 0
-1676 -266 -350 0
-1676 -266 -457 0
-1676 -266 -465 0
-1676 -267 0
-1677 385 0
-1677 635 0
-1677 -258 0
-1677 -259 0
-1677 -262 0
-1677 -263 0
-1677 -264 639 0
-1677 -264 -378 -382 0
-1677 -264 -287 0
-1677 -264 -295 0
-1677 -264 -346 0
-1677 -264 -354 0
-1677 -264 -461 0
-1677 -264 -469 0
-1677 -265 640 0
-1677 -265 -378 -383 0
-1677 -265 -289 0
-1677 -265 -297 0
-1677 -265 -348 0
-1677 -265 -356 0
-1677 -265 -463 0
-1677 -265 -471 0
-1677 -266 641 0
-1677 -266 -378 -384 0
-1677 -266 -291 0
-1677 -266 -299 0
-1677 -266 -350 0
-1677 -266 -358 0
-1677 -266 -465 0
-1677 -266 -473 0
-1677 -267 0
-1678 385 0
-1678 636 0
-1678 -258 0
-1678 -259 0
-1678 -260 0
-1678 -263 0
-1678 -264 639 0
-1678 -264 -379 -382 0
-1678 -264 -295 0
-1678 -264 -303 0
-1678 -264 -354 0
-1678 -264 -362 0
-1678 -264 -469 0
-1678 -264 -477 0
-1678 -265 640 0
-1678 -265 -379 -383 0
-1678 -265 -297 0
-1678 -265 -305 0
-1678 -265 -356 0
-1678 -265 -364 0
-1678 -265 -471 0
-1678 -265 -479 0
-1678 -266 641 0
-1678 -266 -379 -384 0
-1678 -266 -299 0
-1678 -266 -307 0
-1678 -266 -358 0
-1678 -266 -366 0
-1678 -266 -473 0
-1678 -266 -481 0
-1678 -267 0
-1679 385 0
-1679 637 0
-1679 -258 0
-1679 -259 0
-1679 -260 0
-1679 -261 0
-1679 -264 639 0
-1679 -264 -380 -382 0
-1679 -264 -303 0
-1679 -264 -311 0
-1679 -264 -362 0
-1679 -264 -370 0
-1679 -264 -477 0
-1679 -264 -485 0
-1679 -265 640 0
-1679 -265 -380 -383 0
-1679 -265 -305 0
-1679 -265 -313 0
-1679 -265 -364 0
-1679 -265 -372 0
-1679 -265 -479 0
-1679 -265 -487 0
-1679 -266 641 0
-1679 -266 -380 -384 0
-1679 -266 -307 0
-1679 -266 -315 0
-1679 -266 -366 0
-1679 -266 -374 0
-1679 -266 -481 0
-1679 -266 -489 0
-1679 -267 0
-1680 385 0
-1680 633 0
-1680 -319 0
-1680 -320 0
-1680 -321 0
-1680 -322 0
-1680 -323 639 0
-1680 -323 -376 -382 0
-1680 -323 -271 0
-1680 -323 -279 0
-1680 -323 -330 0
-1680 -323 -338 0
-1680 -323 -445 0
-1680 -323 -453 0
-1680 -324 640 0
-1680 -324 -376 -383 0
-1680 -324 -273 0
-1680 -324 -281 0
-1680 -324 -332 0
-1680 -324 -340 0
-1680 -324 -447 0
-1680 -324 -455 0
-1680 -325 641 0
-1680 -325 -376 -384 0
-1680 -325 -275 0
-1680 -325 -283 0
-1680 -325 -334 0
-1680 -325 -342 0
-1680 -325 -449 0
-1680 -325 -457 0
-1680 -326 0
-1681 385 0
-1681 634 0
-1681 -317 0
-1681 -320 0
-1681 -321 0
-1681 -322 0
-1681 -323 639 0
-1681 -323 -377 -382 0
-1681 -323 -279 0
-1681 -323 -287 0
-1681 -323 -338 0
-1681 -323 -346 0
-1681 -323 -453 0
-1681 -323 -461 0
-1681 -324 640 0
-1681 -324 -377 -383 0
-1681 -324 -281 0
-1681 -324 -289 0
-1681 -324 -340 0
-1681 -324 -348 0
-1681 -324 -455 0
-1681 -324 -463 0
-1681 -325 641 0
-1681 -325 -377 -384 0
-1681 -325 -283 0
-1681 -325 -291 0
-1681 -325 -342 0
-1681 -325 -350 0
-1681 -325 -457 0
-1681 -325 -465 0
-1681 -326 0
-1682 385 0
-1682 635 0
-1682 -317 0
-1682 -318 0
-1682 -321 0
-1682 -322 0
-1682 -323 639 0
-1682 -323 -378 -382 0
-1682 -323 -287 0
-1682 -323 -295 0
-1682 -323 -346 0
-1682 -323 -354 0
-1682 -323 -461 0
-1682 -323 -469 0
-1682 -324 640 0
-1682 -324 -378 -383 0
-1682 -324 -289 0
-1682 -324 -297 0
-1682 -324 -348 0
-1682 -324 -356 0
-1682 -324 -463 0
-1682 -324 -471 0
-1682 -325 641 0
-1682 -325 -378 -384 0
-1682 -325 -291 0
-1682 -325 -299 0
-1682 -325 -350 0
-1682 -325 -358 0
-1682 -325 -465 0
-1682 -325 -473 0
-1682 -326 0
-1683 385 0
-1683 636 0
-1683 -317 0
-1683 -318 0
-1683 -319 0
-1683 -322 0
-1683 -323 639 0
-1683 -323 -379 -382 0
-1683 -323 -295 0
-1683 -323 -303 0
-1683 -323 -354 0
-1683 -323 -362 0
-1683 -323 -469 0
-1683 -323 -477 0
-1683 -324 640 0
-1683 -324 -379 -383 0
-1683 -324 -297 0
-1683 -324 -305 0
-1683 -324 -356 0
-1683 -324 -364 0
-1683 -324 -471 0
-1683 -324 -479 0
-1683 -325 641 0
-1683 -325 -379 -384 0
-1683 -325 -299 0
-1683 -325 -307 0
-1683 -325 -358 0
-1683 -325 -366 0
-1683 -325 -473 0
-1683 -325 -481 0
-1683 -326 0
-1684 385 0
-1684 637 0
-1684 -317 0
-1684 -318 0
-1684 -319 0
-1684 -320 0
-1684 -323 639 0
-1684 -323 -380 -382 0
-1684 -323 -303 0
-1684 -323 -311 0
-1684 -323 -362 0
-1684 -323 -370 0
-1684 -323 -477 0
-1684 -323 -485 0
-1684 -324 640 0
-1684 -324 -380 -383 0
-1684 -324 -305 0
-1684 -324 -313 0
-1684 -324 -364 0
-1684 -324 -372 0
-1684 -324 -479 0
-1684 -324 -487 0
-1684 -325 641 0
-1684 -325 -380 -384 0
-1684 -325 -307 0
-1684 -325 -315 0
-1684 -325 -366 0
-1684 -325 -374 0
-1684 -325 -481 0
-1684 -325 -489 0
-1684 -326 0
-1685 385 0
-1685 633 0
-1685 -436 0
-1685 -437 0
-1685 -438 639 0
-1685 -438 -376 -382 0
-1685 -438 -271 0
-1685 -438 -279 0
-1685 -438 -330 0
-1685 -438 -338 0
-1685 -438 -445 0
-1685 -438 -453 0
-1685 -439 640 0
-1685 -439 -376 -383 0
-1685 -439 -273 0
-1685 -439 -281 0
-1685 -439 -332 0
-1685 -439 -340 0
-1685 -439 -447 0
-1685 -439 -455 0
-1685 -440 641 0
-1685 -440 -376 -384 0
-1685 -440 -275 0
-1685 -440 -283 0
-1685 -440 -334 0
-1685 -440 -342 0
-1685 -440 -449 0
-1685 -440 -457 0
-1685 -441 0
-1686 385 0
-1686 634 0
-1686 -437 0
-1686 -438 639 0
-1686 -438 -377 -382 0
-1686 -438 -279 0
-1686 -438 -287 0
-1686 -438 -338 0
-1686 -438 -346 0
-1686 -438 -453 0
-1686 -438 -461 0
-1686 -439 640 0
-1686 -439 -377 -383 0
-1686 -439 -281 0
-1686 -439 -289 0
-1686 -439 -340 0
-1686 -439 -348 0
-1686 -439 -455 0
-1686 -439 -463 0
-1686 -440 641 0
-1686 -440 -377 -384 0
-1686 -440 -283 0
-1686 -440 -291 0
-1686 -440 -342 0
-1686 -440 -350 0
-1686 -440 -457 0
-1686 -440 -465 0
-1686 -441 0
-1687 385 0
-1687 635 0
-1687 -438 639 0
-1687 -438 -378 -382 0
-1687 -438 -287 0
-1687 -438 -295 0
-1687 -438 -346 0
-1687 -438 -354 0
-1687 -438 -461 0
-1687 -438 -469 0
-1687 -439 640 0
-1687 -439 -378 -383 0
-1687 -439 -289 0
-1687 -439 -297 0
-1687 -439 -348 0
-1687 -439 -356 0
-1687 -439 -463 0
-1687 -439 -471 0
-1687 -440 641 0
-1687 -440 -378 -384 0
-1687 -440 -291 0
-1687 -440 -299 0
-1687 -440 -350 0
-1687 -440 -358 0
-1687 -440 -465 0
-1687 -440 -473 0
-1687 -441 0
-1688 385 0
-1688 636 0
-1688 -434 0
-1688 -438 639 0
-1688 -438 -379 -382 0
-1688 -438 -295 0
-1688 -438 -303 0
-1688 -438 -354 0
-1688 -438 -362 0
-1688 -438 -469 0
-1688 -438 -477 0
-1688 -439 640 0
-1688 -439 -379 -383 0
-1688 -439 -297 0
-1688 -439 -305 0
-1688 -439 -356 0
-1688 -439 -364 0
-1688 -439 -471 0
-1688 -439 -479 0
-1688 -440 641 0
-1688 -440 -379 -384 0
-1688 -440 -299 0
-1688 -440 -307 0
-1688 -440 -358 0
-1688 -440 -366 0
-1688 -440 -473 0
-1688 -440 -481 0
-1688 -441 0
-1689 385 0
-1689 637 0
-1689 -434 0
-1689 -435 0
-1689 -438 639 0
-1689 -438 -380 -382 0
-1689 -438 -303 0
-1689 -438 -311 0
-1689 -438 -362 0
-1689 -438 -370 0
-1689 -438 -477 0
-1689 -438 -485 0
-1689 -439 640 0
-1689 -439 -380 -383 0
-1689 -439 -305 0
-1689 -439 -313 0
-1689 -439 -364 0
-1689 -439 -372 0
-1689 -439 -479 0
-1689 -439 -487 0
-1689 -440 641 0
-1689 -440 -380 -384 0
-1689 -440 -307 0
-1689 -440 -315 0
-1689 -440 -366 0
-1689 -440 -374 0
-1689 -440 -481 0
-1689 -440 -489 0
-1689 -441 0
-1690 385 0
-1690 633 0
-1690 638 0
-1690 -376 -381 0
-1690 -269 0
-1690 -277 0
-1690 -328 0
-1690 -336 0
-1690 -443 0
-1690 -451 0
-1691 385 0
-1691 634 0
-1691 638 0
-1691 -377 -381 0
-1691 -277 0
-1691 -285 0
-1691 -336 0
-1691 -344 0
-1691 -451 0
-1691 -459 0
-1692 385 0
-1692 635 0
-1692 638 0
-1692 -378 -381 0
-1692 -285 0
-1692 -293 0
-1692 -344 0
-1692 -352 0
-1692 -459 0
-1692 -467 0
-1693 385 0
-1693 636 0
-1693 638 0
-1693 -379 -381 0
-1693 -293 0
-1693 -301 0
-1693 -352 0
-1693 -360 0
-1693 -467 0
-1693 -475 0
-1694 385 0
-1694 637 0
-1694 638 0
-1694 -380 -381 0
-1694 -301 0
-1694 -309 0
-1694 -360 0
-1694 -368 0
-1694 -475 0
-1694 -483 0
-1695 442 0
-1695 691 0
-1695 -261 0
-1695 -262 0
-1695 -263 0
-1695 -264 696 0
-1695 -264 -434 -439 0
-1695 -264 -271 0
-1695 -264 -279 0
-1695 -264 -287 0
-1695 -264 -330 0
-1695 -264 -338 0
-1695 -264 -346 0
-1695 -264 -388 0
-1695 -264 -396 0
-1695 -264 -404 0
-1695 -265 697 0
-1695 -265 -434 -440 0
-1695 -265 -273 0
-1695 -265 -281 0
-1695 -265 -289 0
-1695 -265 -332 0
-1695 -265 -340 0
-1695 -265 -348 0
-1695 -265 -390 0
-1695 -265 -398 0
-1695 -265 -406 0
-1695 -266 698 0
-1695 -266 -434 -441 0
-1695 -266 -275 0
-1695 -266 -283 0
-1695 -266 -291 0
-1695 -266 -334 0
-1695 -266 -342 0
-1695 -266 -350 0
-1695 -266 -392 0
-1695 -266 -400 0
-1695 -266 -408 0
-1695 -267 0
-1696 442 0
-1696 692 0
-1696 -258 0
-1696 -262 0
-1696 -263 0
-1696 -264 696 0
-1696 -264 -435 -439 0
-1696 -264 -279 0
-1696 -264 -287 0
-1696 -264 -295 0
-1696 -264 -338 0
-1696 -264 -346 0
-1696 -264 -354 0
-1696 -264 -396 0
-1696 -264 -404 0
-1696 -264 -412 0
-1696 -265 697 0
-1696 -265 -435 -440 0
-1696 -265 -281 0
-1696 -265 -289 0
-1696 -265 -297 0
-1696 -265 -340 0
-1696 -265 -348 0
-1696 -265 -356 0
-1696 -265 -398 0
-1696 -265 -406 0
-1696 -265 -414 0
-1696 -266 698 0
-1696 -266 -435 -441 0
-1696 -266 -283 0
-1696 -266 -291 0
-1696 -266 -299 0
-1696 -266 -342 0
-1696 -266 -350 0
-1696 -266 -358 0
-1696 -266 -400 0
-1696 -266 -408 0
-1696 -266 -416 0
-1696 -267 0
-1697 442 0
-1697 693 0
-1697 -258 0
-1697 -259 0
-1697 -263 0
-1697 -264 696 0
-1697 -264 -436 -439 0
-1697 -264 -287 0
-1697 -264 -295 0
-1697 -264 -303 0
-1697 -264 -346 0
-1697 -264 -354 0
-1697 -264 -362 0
-1697 -264 -404 0
-1697 -264 -412 0
-1697 -264 -420 0
-1697 -265 697 0
-1697 -265 -436 -440 0
-1697 -265 -289 0
-1697 -265 -297 0
-1697 -265 -305 0
-1697 -265 -348 0
-1697 -265 -356 0
-1697 -265 -364 0
-1697 -265 -406 0
-1697 -265 -414 0
-1697 -265 -422 0
-1697 -266 698 0
-1697 -266 -436 -441 0
-1697 -266 -291 0
-1697 -266 -299 0
-1697 -266 -307 0
-1697 -266 -350 0
-1697 -266 -358 0
-1697 -266 -366 0
-1697 -266 -408 0
-1697 -266 -416 0
-1697 -266 -424 0
-1697 -267 0
-1698 442 0
-1698 694 0
-1698 -258 0
-1698 -259 0
-1698 -260 0
-1698 -264 696 0
-1698 -264 -437 -439 0
-1698 -264 -295 0
-1698 -264 -303 0
-1698 -264 -311 0
-1698 -264 -354 0
-1698 -264 -362 0
-1698 -264 -370 0
-1698 -264 -412 0
-1698 -264 -420 0
-1698 -264 -428 0
-1698 -265 697 0
-1698 -265 -437 -440 0
-1698 -265 -297 0
-1698 -265 -305 0
-1698 -265 -313 0
-1698 -265 -356 0
-1698 -265 -364 0
-1698 -265 -372 0
-1698 -265 -414 0
-1698 -265 -422 0
-1698 -265 -430 0
-1698 -266 698 0
-1698 -266 -437 -441 0
-1698 -266 -299 0
-1698 -266 -307 0
-1698 -266 -315 0
-1698 -266 -358 0
-1698 -266 -366 0
-1698 -266 -374 0
-1698 -266 -416 0
-1698 -266 -424 0
-1698 -266 -432 0
-1698 -267 0
-1699 442 0
-1699 691 0
-1699 -320 0
-1699 -321 0
-1699 -322 0
-1699 -323 696 0
-1699 -323 -434 -439 0
-1699 -323 -271 0
-1699 -323 -279 0
-1699 -323 -287 0
-1699 -323 -330 0
-1699 -323 -338 0
-1699 -323 -346 0
-1699 -323 -388 0
-1699 -323 -396 0
-1699 -323 -404 0
-1699 -324 697 0
-1699 -324 -434 -440 0
-1699 -324 -273 0
-1699 -324 -281 0
-1699 -324 -289 0
-1699 -324 -332 0
-1699 -324 -340 0
-1699 -324 -348 0
-1699 -324 -390 0
-1699 -324 -398 0
-1699 -324 -406 0
-1699 -325 698 0
-1699 -325 -434 -441 0
-1699 -325 -275 0
-1699 -325 -283 0
-1699 -325 -291 0
-1699 -325 -334 0
-1699 -325 -342 0
-1699 -325 -350 0
-1699 -325 -392 0
-1699 -325 -400 0
-1699 -325 -408 0
-1699 -326 0
-1700 442 0
-1700 692 0
-1700 -317 0
-1700 -321 0
-1700 -322 0
-1700 -323 696 0
-1700 -323 -435 -439 0
-1700 -323 -279 0
-1700 -323 -287 0
-1700 -323 -295 0
-1700 -323 -338 0
-1700 -323 -346 0
-1700 -323 -354 0
-1700 -323 -396 0
-1700 -323 -404 0
-1700 -323 -412 0
-1700 -324 697 0
-1700 -324 -435 -440 0
-1700 -324 -281 0
-1700 -324 -289 0
-1700 -324 -297 0
-1700 -324 -340 0
-1700 -324 -348 0
-1700 -324 -356 0
-1700 -324 -398 0
-1700 -324 -406 0
-1700 -324 -414 0
-1700 -325 698 0
-1700 -325 -435 -441 0
-1700 -325 -283 0
-1700 -325 -291 0
-1700 -325 -299 0
-1700 -325 -342 0
-1700 -325 -350 0
-1700 -325 -358 0
-1700 -325 -400 0
-1700 -325 -408 0
-1700 -325 -416 0
-1700 -326 0
-1701 442 0
-1701 693 0
-1701 -317 0
-1701 -318 0
-1701 -322 0
-1701 -323 696 0
-1701 -323 -436 -439 0
-1701 -323 -287 0
-1701 -323 -295 0
-1701 -323 -303 0
-1701 -323 -346 0
-1701 -323 -354 0
-1701 -323 -362 0
-1701 -323 -404 0
-1701 -323 -412 0
-1701 -323 -420 0
-1701 -324 697 0
-1701 -324 -436 -440 0
-1701 -324 -289 0
-1701 -324 -297 0
-1701 -324 -305 0
-1701 -324 -348 0
-1701 -324 -356 0
-1701 -324 -364 0
-1701 -324 -406 0
-1701 -324 -414 0
-1701 -324 -422 0
-1701 -325 698 0
-1701 -325 -436 -441 0
-1701 -325 -291 0
-1701 -325 -299 0
-1701 -325 -307 0
-1701 -325 -350 0
-1701 -325 -358 0
-1701 -325 -366 0
-1701 -325 -408 0
-1701 -325 -416 0
-1701 -325 -424 0
-1701 -326 0
-1702 442 0
-1702 694 0
-1702 -317 0
-1702 -318 0
-1702 -319 0
-1702 -323 696 0
-1702 -323 -437 -439 0
-1702 -323 -295 0
-1702 -323 -303 0
-1702 -323 -311 0
-1702 -323 -354 0
-1702 -323 -362 0
-1702 -323 -370 0
-1702 -323 -412 0
-1702 -323 -420 0
-1702 -323 -428 0
-1702 -324 697 0
-1702 -324 -437 -440 0
-1702 -324 -297 0
-1702 -324 -305 0
-1702 -324 -313 0
-1702 -324 -356 0
-1702 -324 -364 0
-1702 -324 -372 0
-1702 -324 -414 0
-1702 -324 -422 0
-1702 -324 -430 0
-1702 -325 698 0
-1702 -325 -437 -441 0
-1702 -325 -299 0
-1702 -325 -307 0
-1702 -325 -315 0
-1702 -325 -358 0
-1702 -325 -366 0
-1702 -325 -374 0
-1702 -325 -416 0
-1702 -325 -424 0
-1702 -325 -432 0
-1702 -326 0
-1703 442 0
-1703 691 0
-1703 -379 0
-1703 -380 0
-1703 -381 696 0
-1703 -381 -434 -439 0
-1703 -381 -271 0
-1703 -381 -279 0
-1703 -381 -287 0
-1703 -381 -330 0
-1703 -381 -338 0
-1703 -381 -346 0
-1703 -381 -388 0
-1703 -381 -396 0
-1703 -381 -404 0
-1703 -382 697 0
-1703 -382 -434 -440 0
-1703 -382 -273 0
-1703 -382 -281 0
-1703 -382 -289 0
-1703 -382 -332 0
-1703 -382 -340 0
-1703 -382 -348 0
-1703 -382 -390 0
-1703 -382 -398 0
-1703 -382 -406 0
-1703 -383 698 0
-1703 -383 -434 -441 0
-1703 -383 -275 0
-1703 -383 -283 0
-1703 -383 -291 0
-1703 -383 -334 0
-1703 -383 -342 0
-1703 -383 -350 0
-1703 -383 -392 0
-1703 -383 -400 0
-1703 -383 -408 0
-1703 -384 0
-1704 442 0
-1704 692 0
-1704 -380 0
-1704 -381 696 0
-1704 -381 -435 -439 0
-1704 -381 -279 0
-1704 -381 -287 0
-1704 -381 -295 0
-1704 -381 -338 0
-1704 -381 -346 0
-1704 -381 -354 0
-1704 -381 -396 0
-1704 -381 -404 0
-1704 -381 -412 0
-1704 -382 697 0
-1704 -382 -435 -440 0
-1704 -382 -281 0
-1704 -382 -289 0
-1704 -382 -297 0
-1704 -382 -340 0
-1704 -382 -348 0
-1704 -382 -356 0
-1704 -382 -398 0
-1704 -382 -406 0
-1704 -382 -414 0
-1704 -383 698 0
-1704 -383 -435 -441 0
-1704 -383 -283 0
-1704 -383 -291 0
-1704 -383 -299 0
-1704 -383 -342 0
-1704 -383 -350 0
-1704 -383 -358 0
-1704 -383 -400 0
-1704 -383 -408 0
-1704 -383 -416 0
-1704 -384 0
-1705 442 0
-1705 693 0
-1705 -376 0
-1705 -381 696 0
-1705 -381 -436 -439 0
-1705 -381 -287 0
-1705 -381 -295 0
-1705 -381 -303 0
-1705 -381 -346 0
-1705 -381 -354 0
-1705 -381 -362 0
-1705 -381 -404 0
-1705 -381 -412 0
-1705 -381 -420 0
-1705 -382 697 0
-1705 -382 -436 -440 0
-1705 -382 -289 0
-1705 -382 -297 0
-1705 -382 -305 0
-1705 -382 -348 0
-1705 -382 -356 0
-1705 -382 -364 0
-1705 -382 -406 0
-1705 -382 -414 0
-1705 -382 -422 0
-1705 -383 698 0
-1705 -383 -436 -441 0
-1705 -383 -291 0
-1705 -383 -299 0
-1705 -383 -307 0
-1705 -383 -350 0
-1705 -383 -358 0
-1705 -383 -366 0
-1705 -383 -408 0
-1705 -383 -416 0
-1705 -383 -424 0
-1705 -384 0
-1706 442 0
-1706 694 0
-1706 -376 0
-1706 -377 0
-1706 -381 696 0
-1706 -381 -437 -439 0
-1706 -381 -295 0
-1706 -381 -303 0
-1706 -381 -311 0
-1706 -381 -354 0
-1706 -381 -362 0
-1706 -381 -370 0
-1706 -381 -412 0
-1706 -381 -420 0
-1706 -381 -428 0
-1706 -382 697 0
-1706 -382 -437 -440 0
-1706 -382 -297 0
-1706 -382 -305 0
-1706 -382 -313 0
-1706 -382 -356 0
-1706 -382 -364 0
-1706 -382 -372 0
-1706 -382 -414 0
-1706 -382 -422 0
-1706 -382 -430 0
-1706 -383 698 0
-1706 -383 -437 -441 0
-1706 -383 -299 0
-1706 -383 -307 0
-1706 -383 -315 0
-1706 -383 -358 0
-1706 -383 -366 0
-1706 -383 -374 0
-1706 -383 -416 0
-1706 -383 -424 0
-1706 -383 -432 0
-1706 -384 0
-1707 442 0
-1707 691 0
-1707 695 0
-1707 -434 -438 0
-1707 -269 0
-1707 -277 0
-1707 -285 0
-1707 -328 0
-1707 -336 0
-1707 -344 0
-1707 -386 0
-1707 -394 0
-1707 -402 0
-1708 442 0
-1708 692 0
-1708 695 0
-1708 -435 -438 0
-1708 -277 0
-1708 -285 0
-1708 -293 0
-1708 -336 0
-1708 -344 0
-1708 -352 0
-1708 -394 0
-1708 -402 0
-1708 -410 0
-1709 442 0
-1709 693 0
-1709 695 0
-1709 -436 -438 0
-1709 -285 0
-1709 -293 0
-1709 -301 0
-1709 -344 0
-1709 -352 0
-1709 -360 0
-1709 -402 0
-1709 -410 0
-1709 -418 0
-1710 442 0
-1710 694 0
-1710 695 0
-1710 -437 -438 0
-1710 -293 0
-1710 -301 0
-1710 -309 0
-1710 -352 0
-1710 -360 0
-1710 -368 0
-1710 -410 0
-1710 -418 0
-1710 -426 0
-258 515 1627 1628 1629 1630 1631 1632 1633 1634 1635 1636 1637 1638 1639 1640 1641 1642 1643 1644 1645 1646 1647 1648 1649 1650 0
-259 516 1627 1628 1629 1630 1631 1632 1633 1634 1635 1636 1637 1638 1639 1640 1641 1642 1643 1644 1645 1646 1647 1648 1649 1650 0
-260 517 1627 1628 1629 1630 1631 1632 1633 1634 1635 1636 1637 1638 1639 1640 1641 1642 1643 1644 1645 1646 1647 1648 1649 1650 0
-261 518 1627 1628 1629 1630 1631 1632 1633 1634 1635 1636 1637 1638 1639 1640 1641 1642 1643 1644 1645 1646 1647 1648 1649 1650 0
-262 519 1627 1628 1629 1630 1631 1632 1633 1634 1635 1636 1637 1638 1639 1640 1641 1642 1643 1644 1645 1646 1647 1648 1649 1650 0
-263 520 1627 1628 1629 1630 1631 1632 1633 1634 1635 1636 1637 1638 1639 1640 1641 1642 1643 1644 1645 1646 1647 1648 1649 1650 0
-264 521 1627 1628 1629 1630 1631 1632 1633 1634 1635 1636 1637 1638 1639 1640 1641 1642 1643 1644 1645 1646 1647 1648 1649 1650 0
-265 522 1627 1628 1629 1630 1631 1632 1633 1634 1635 1636 1637 1638 1639 1640 1641 1642 1643 1644 1645 1646 1647 1648 1649 1650 0
-266 523 1627 1628 1629 1630 1631 1632 1633 1634 1635 1636 1637 1638 1639 1640 1641 1642 1643 1644 1645 1646 1647 1648 1649 1650 0
-267 524 1627 1628 1629 1630 1631 1632 1633 1634 1635 1636 1637 1638 1639 1640 1641 1642 1643 1644 1645 1646 1647 1648 1649 1650 0
-317 574 1651 1652 1653 1654 1655 1656 1657 1658 1659 1660 1661 1662 1663 1664 1665 1666 1667 1668 1669 1670 1671 1672 1673 1674 0
-318 575 1651 1652 1653 1654 1655 1656 1657 1658 1659 1660 1661 1662 1663 1664 1665 1666 1667 1668 1669 1670 1671 1672 1673 1674 0
-319 576 1651 1652 1653 1654 1655 1656 1657 1658 1659 1660 1661 1662 1663 1664 1665 1666 1667 1668 1669 1670 1671 1672 1673 1674 0
-320 577 1651 1652 1653 1654 1655 1656 1657 1658 1659 1660 1661 1662 1663 1664 1665 1666 1667 1668 1669 1670 1671 1672 1673 1674 0
-321 578 1651 1652 1653 1654 1655 1656 1657 1658 1659 1660 1661 1662 1663 1664 1665 1666 1667 1668 1669 1670 1671 1672 1673 1674 0
-322 579 1651 1652 1653 1654 1655 1656 1657 1658 1659 1660 1661 1662 1663 1664 1665 1666 1667 1668 1669 1670 1671 1672 1673 1674 0
-323 580 1651 1652 1653 1654 1655 1656 1657 1658 1659 1660 1661 1662 1663 1664 1665 1666 1667 1668 1669 1670 1671 1672 1673 1674 0
-324 581 1651 1652 1653 1654 1655 1656 1657 1658 1659 1660 1661 1662 1663 1664 1665 1666 1667 1668 1669 1670 1671 1672 1673 1674 0
-325 582 1651 1652 1653 1654 1655 1656 1657 1658 1659 1660 1661 1662 1663 1664 1665 1666 1667 1668 1669 1670 1671 1672 1673 1674 0
-326 583 1651 1652 1653 1654 1655 1656 1657 1658 1659 1660 1661 1662 1663 1664 1665 1666 1667 1668 1669 1670 1671 1672 1673 1674 0
-376 633 1675 1676 1677 1678 1679 1680 1681 1682 1683 1684 1685 1686 1687 1688 1689 1690 1691 1692 1693 1694 0
-377 634 1675 1676 1677 1678 1679 1680 1681 1682 1683 1684 1685 1686 1687 1688 1689 1690 1691 1692 1693 1694 0
-378 635 1675 1676 1677 1678 1679 1680 1681 1682 1683 1684 1685 1686 1687 1688 1689 1690 1691 1692 1693 1694 0
-379 636 1675 1676 1677 1678 1679 1680 1681 1682 1683 1684 1685 1686 1687 1688 1689 1690 1691 1692 1693 1694 0
-380 637 1675 1676 1677 1678 1679 1680 1681 1682 1683 1684 1685 1686 1687 1688 1689 1690 1691 1692 1693 1694 0
-381 638 1675 1676 1677 1678 1679 1680 1681 1682 1683 1684 1685 1686 1687 1688 1689 1690 1691 1692 1693 1694 0
-382 639 1675 1676 1677 1678 1679 1680 1681 1682 1683 1684 1685 1686 1687 1688 1689 1690 1691 1692 1693 1694 0
-383 640 1675 1676 1677 1678 1679 1680 1681 1682 1683 1684 1685 1686 1687 1688 1689 1690 1691 1692 1693 1694 0
-384 641 1675 1676 1677 1678 1679 1680 1681 1682 1683 1684 1685 1686 1687 1688 1689 1690 1691 1692 1693 1694 0
-434 691 1695 1696 1697 1698 1699 1700 1701 1702 1703 1704 1705 1706 1707 1708 1709 1710 0
-435 692 1695 1696 1697 1698 1699 1700 1701 1702 1703 1704 1705 1706 1707 1708 1709 1710 0
-436 693 1695 1696 1697 1698 1699 1700 1701 1702 1703 1704 1705 1706 1707 1708 1709 1710 0
-437 694 1695 1696 1697 1698 1699 1700 1701 1702 1703 1704 1705 1706 1707 1708 1709 1710 0
-438 695 1695 1696 1697 1698 1699 1700 1701 1702 1703 1704 1705 1706 1707 1708 1709 1710 0
-439 696 1695 1696 1697 1698 1699 1700 1701 1702 1703 1704 1705 1706 1707 1708 1709 1710 0
-440 697 1695 1696 1697 1698 1699 1700 1701 1702 1703 1704 1705 1706 1707 1708 1709 1710 0
-441 698 1695 1696 1697 1698 1699 1700 1701 1702 1703 1704 1705 1706 1707 1708 1709 1710 0
-1711 -1712 0
-1711 -1713 0
-1711 -1714 0
-1711 -1715 0
-1711 -1716 0
-1711 -1717 0
-1711 -1718 0
-1711 -1719 0
-1711 -1720 0
-1711 -1721 0
-1711 -1722 0
-1711 -1723 0
-1711 -1724 0
-1711 -1725 0
-1711 -1726 0
-1711 -1727 0
-1711 -1728 0
-1711 -1729 0
-1711 -1730 0
-1711 -1731 0
-1711 -1732 0
-1711 -1733 0
-1711 -1734 0
-1711 -1735 0
-1711 -1736 0
-1711 -1737 0
-1711 -1738 0
-1711 -1739 0
-1711 -1740 0
-1711 -1741 0
-1711 -1742 0
-1711 -1743 0
-1711 -1744 0
-1711 -1745 0
-1711 -1746 0
-1711 -1747 0
-1711 -1748 0
-1711 -1749 0
-1711 -1750 0
-1711 -1751 0
-1711 -1752 0
-1711 -1753 0
-1711 -1754 0
-1711 -1755 0
-1711 -1756 0
-1711 -1757 0
-1711 -1758 0
-1711 -1759 0
-1711 -1760 0
-1711 -1761 0
-1711 -1762 0
-1711 -1763 0
-1711 -1764 0
-1711 -1765 0
-1711 -1766 0
-1711 -1767 0
-1711 -1768 0
-1711 -1769 0
-1711 -1770 0
-1711 -1771 0
-1711 -1772 0
-1711 -1773 0
-1711 -1774 0
-1711 -1775 0
-1711 -1776 0
-1711 -1777 0
-1711 -1778 0
-1711 -1779 0
-1711 -1780 0
-1711 -1781 0
-1711 -1782 0
-1711 -1783 0
-1711 -1784 0
-1711 -1785 0
-1711 -1786 0
-1711 -1787 0
-1711 -1788 0
-1711 -1789 0
-1711 -1790 0
-1711 -1791 0
-1711 -1792 0
-1711 -1793 0
-1711 -1794 0
-1712 -1713 0
-1712 -1714 0
-1712 -1715 0
-1712 -1716 0
-1712 -1717 0
-1712 -1718 0
-1712 -1719 0
-1712 -1720 0
-1712 -1721 0
-1712 -1722 0
-1712 -1723 0
-1712 -1724 0
-1712 -1725 0
-1712 -1726 0
-1712 -1727 0
-1712 -1728 0
-1712 -1729 0
-1712 -1730 0
-1712 -1731 0
-1712 -1732 0
-1712 -1733 0
-1712 -1734 0
-1712 -1735 0
-1712 -1736 0
-1712 -1737 0
-1712 -1738 0
-1712 -1739 0
-1712 -1740 0
-1712 -1741 0
-1712 -1742 0
-1712 -1743 0
-1712 -1744 0
-1712 -1745 0
-1712 -1746 0
-1712 -1747 0
-1712 -1748 0
-1712 -1749 0
-1712 -1750 0
-1712 -1751 0
-1712 -1752 0
-1712 -1753 0
-1712 -1754 0
-1712 -1755 0
-1712 -1756 0
-1712 -1757 0
-1712 -1758 0
-1712 -1759 0
-1712 -1760 0
-1712 -1761 0
-1712 -1762 0
-1712 -1763 0
-1712 -1764 0
-1712 -1765 0
-1712 -1766 0
-1712 -1767 0
-1712 -1768 0
-1712 -1769 0
-1712 -1770 0
-1712 -1771 0
-1712 -1772 0
-1712 -1773 0
-1712 -1774 0
-1712 -1775 0
-1712 -1776 0
-1712 -1777 0
-1712 -1778 0
-1712 -1779 0
-1712 -1780 0
-1712 -1781 0
-1712 -1782 0
-1712 -1783 0
-1712 -1784 0
-1712 -1785 0
-1712 -1786 0
-1712 -1787 0
-1712 -1788 0
-1712 -1789 0
-1712 -1790 0
-1712 -1791 0
-1712 -1792 0
-1712 -1793 0
-1712 -1794 0
-1713 -1714 0
-1713 -1715 0
-1713 -1716 0
-1713 -1717 0
-1713 -1718 0
-1713 -1719 0
-1713 -1720 0
-1713 -1721 0
-1713 -1722 0
-1713 -1723 0
-1713 -1724 0
-1713 -1725 0
-1713 -1726 0
-1713 -1727 0
-1713 -1728 0
-1713 -1729 0
-1713 -1730 0
-1713 -1731 0
-1713 -1732 0
-1713 -1733 0
-1713 -1734 0
-1713 -1735 0
-1713 -1736 0
-1713 -1737 0
-1713 -1738 0
-1713 -1739 0
-1713 -1740 0
-1713 -1741 0
-1713 -1742 0
-1713 -1743 0
-1713 -1744 0
-1713 -1745 0
-1713 -1746 0
-1713 -1747 0
-1713 -1748 0
-1713 -1749 0
-1713 -1750 0
-1713 -1751 0
-1713 -1752 0
-1713 -1753 0
-1713 -1754 0
-1713 -1755 0
-1713 -1756 0
-1713 -1757 0
-1713 -1758 0
-1713 -1759 0
-1713 -1760 0
-1713 -1761 0
-1713 -1762 0
-1713 -1763 0
-1713 -1764 0
-1713 -1765 0
-1713 -1766 0
-1713 -1767 0
-1713 -1768 0
-1713 -1769 0
-1713 -1770 0
-1713 -1771 0
-1713 -1772 0
-1713 -1773 0
-1713 -1774 0
-1713 -1775 0
-1713 -1776 0
-1713 -1777 0
-1713 -1778 0
-1713 -1779 0
-1713 -1780 0
-1713 -1781 0
-1713 -1782 0
-1713 -1783 0
-1713 -1784 0
-1713 -1785 0
-1713 -1786 0
-1713 -1787 0
-1713 -1788 0
-1713 -1789 0
-1713 -1790 0
-1713 -1791 0
-1713 -1792 0
-1713 -1793 0
-1713 -1794 0
-1714 -1715 0
-1714 -1716 0
-1714 -1717 0
-1714 -1718 0
-1714 -1719 0
-1714 -1720 0
-1714 -1721 0
-1714 -1722 0
-1714 -1723 0
-1714 -1724 0
-1714 -1725 0
-1714 -1726 0
-1714 -1727 0
-1714 -1728 0
-1714 -1729 0
-1714 -1730 0
-1714 -1731 0
-1714 -1732 0
-1714 -1733 0
-1714 -1734 0
-1714 -1735 0
-1714 -1736 0
-1714 -1737 0
-1714 -1738 0
-1714 -1739 0
-1714 -1740 0
-1714 -1741 0
-1714 -1742 0
-1714 -1743 0
-1714 -1744 0
-1714 -1745 0
-1714 -1746 0
-1714 -1747 0
-1714 -1748 0
-1714 -1749 0
-1714 -1750 0
-1714 -1751 0
-1714 -1752 0
-1714 -1753 0
-1714 -1754 0
-1714 -1755 0
-1714 -1756 0
-1714 -1757 0
-1714 -1758 0
-1714 -1759 0
-1714 -1760 0
-1714 -1761 0
-1714 -1762 0
-1714 -1763 0
-1714 -1764 0
-1714 -1765 0
-1714 -1766 0
-1714 -1767 0
-1714 -1768 0
-1714 -1769 0
-1714 -1770 0
-1714 -1771 0
-1714 -1772 0
-1714 -1773 0
-1714 -1774 0
-1714 -1775 0
-1714 -1776 0
-1714 -1777 0
-1714 -1778 0
-1714 -1779 0
-1714 -1780 0
-1714 -1781 0
-1714 -1782 0
-1714 -1783 0
-1714 -1784 0
-1714 -1785 0
-1714 -1786 0
-1714 -1787 0
-1714 -1788 0
-1714 -1789 0
-1714 -1790 0
-1714 -1791 0
-1714 -1792 0
-1714 -1793 0
-1714 -1794 0
-1715 -1716 0
-1715 -1717 0
-1715 -1718 0
-1715 -1719 0
-1715 -1720 0
-1715 -1721 0
-1715 -1722 0
-1715 -1723 0
-1715 -1724 0
-1715 -1725 0
-1715 -1726 0
-1715 -1727 0
-1715 -1728 0
-1715 -1729 0
-1715 -1730 0
-1715 -1731 0
-1715 -1732 0
-1715 -1733 0
-1715 -1734 0
-1715 -1735 0
-1715 -1736 0
-1715 -1737 0
-1715 -1738 0
-1715 -1739 0
-1715 -1740 0
-1715 -1741 0
-1715 -1742 0
-1715 -1743 0
-1715 -1744 0
-1715 -1745 0
-1715 -1746 0
-1715 -1747 0
-1715 -1748 0
-1715 -1749 0
-1715 -1750 0
-1715 -1751 0
-1715 -1752 0
-1715 -1753 0
-1715 -1754 0
-1715 -1755 0
-1715 -1756 0
-1715 -1757 0
-1715 -1758 0
-1715 -1759 0
-1715 -1760 0
-1715 -1761 0
-1715 -1762 0
-1715 -1763 0
-1715 -1764 0
-1715 -1765 0
-1715 -1766 0
-1715 -1767 0
-1715 -1768 0
-1715 -1769 0
-1715 -1770 0
-1715 -1771 0
-1715 -1772 0
-1715 -1773 0
-1715 -1774 0
-1715 -1775 0
-1715 -1776 0
-1715 -1777 0
-1715 -1778 0
-1715 -1779 0
-1715 -1780 0
-1715 -1781 0
-1715 -1782 0
-1715 -1783 0
-1715 -1784 0
-1715 -1785 0
-1715 -1786 0
-1715 -1787 0
-1715 -1788 0
-1715 -1789 0
-1715 -1790 0
-1715 -1791 0
-1715 -1792 0
-1715 -1793 0
-1715 -1794 0
-1716 -1717 0
-1716 -1718 0
-1716 -1719 0
-1716 -1720 0
-1716 -1721 0
-1716 -1722 0
-1716 -1723 0
-1716 -1724 0
-1716 -1725 0
-1716 -1726 0
-1716 -1727 0
-1716 -1728 0
-1716 -1729 0
-1716 -1730 0
-1716 -1731 0
-1716 -1732 0
-1716 -1733 0
-1716 -1734 0
-1716 -1735 0
-1716 -1736 0
-1716 -1737 0
-1716 -1738 0
-1716 -1739 0
-1716 -1740 0
-1716 -1741 0
-1716 -1742 0
-1716 -1743 0
-1716 -1744 0
-1716 -1745 0
-1716 -1746 0
-1716 -1747 0
-1716 -1748 0
-1716 -1749 0
-1716 -1750 0
-1716 -1751 0
-1716 -1752 0
-1716 -1753 0
-1716 -1754 0
-1716 -1755 0
-1716 -1756 0
-1716 -1757 0
-1716 -1758 0
-1716 -1759 0
-1716 -1760 0
-1716 -1761 0
-1716 -1762 0
-1716 -1763 0
-1716 -1764 0
-1716 -1765 0
-1716 -1766 0
-1716 -1767 0
-1716 -1768 0
-1716 -1769 0
-1716 -1770 0
-1716 -1771 0
-1716 -1772 0
-1716 -1773 0
-1716 -1774 0
-1716 -1775 0
-1716 -1776 0
-1716 -1777 0
-1716 -1778 0
-1716 -1779 0
-1716 -1780 0
-1716 -1781 0
-1716 -1782 0
-1716 -1783 0
-1716 -1784 0
-1716 -1785 0
-1716 -1786 0
-1716 -1787 0
-1716 -1788 0
-1716 -1789 0
-1716 -1790 0
-1716 -1791 0
-1716 -1792 0
-1716 -1793 0
-1716 -1794 0
-1717 -1718 0
-1717 -1719 0
-1717 -1720 0
-1717 -1721 0
-1717 -1722 0
-1717 -1723 0
-1717 -1724 0
-1717 -1725 0
-1717 -1726 0
-1717 -1727 0
-1717 -1728 0
-1717 -1729 0
-1717 -1730 0
-1717 -1731 0
-1717 -1732 0
-1717 -1733 0
-1717 -1734 0
-1717 -1735 0
-1717 -1736 0
-1717 -1737 0
-1717 -1738 0
-1717 -1739 0
-1717 -1740 0
-1717 -1741 0
-1717 -1742 0
-1717 -1743 0
-1717 -1744 0
-1717 -1745 0
-1717 -1746 0
-1717 -1747 0
-1717 -1748 0
-1717 -1749 0
-1717 -1750 0
-1717 -1751 0
-1717 -1752 0
-1717 -1753 0
-1717 -1754 0
-1717 -1755 0
-1717 -1756 0
-1717 -1757 0
-1717 -1758 0
-1717 -1759 0
-1717 -1760 0
-1717 -1761 0
-1717 -1762 0
-1717 -1763 0
-1717 -1764 0
-1717 -1765 0
-1717 -1766 0
-1717 -1767 0
-1717 -1768 0
-1717 -1769 0
-1717 -1770 0
-1717 -1771 0
-1717 -1772 0
-1717 -1773 0
-1717 -1774 0
-1717 -1775 0
-1717 -1776 0
-1717 -1777 0
-1717 -1778 0
-1717 -1779 0
-1717 -1780 0
-1717 -1781 0
-1717 -1782 0
-1717 -1783 0
-1717 -1784 0
-1717 -1785 0
-1717 -1786 0
-1717 -1787 0
-1717 -1788 0
-1717 -1789 0
-1717 -1790 0
-1717 -1791 0
-1717 -1792 0
-1717 -1793 0
-1717 -1794 0
-1718 -1719 0
-1718 -1720 0
-1718 -1721 0
-1718 -1722 0
-1718 -1723 0
-1718 -1724 0
-1718 -1725 0
-1718 -1726 0
-1718 -1727 0
-1718 -1728 0
-1718 -1729 0
-1718 -1730 0
-1718 -1731 0
-1718 -1732 0
-1718 -1733 0
-1718 -1734 0
-1718 -1735 0
-1718 -1736 0
-1718 -1737 0
-1718 -1738 0
-1718 -1739 0
-1718 -1740 0
-1718 -1741 0
-1718 -1742 0
-1718 -1743 0
-1718 -1744 0
-1718 -1745 0
-1718 -1746 0
-1718 -1747 0
-1718 -1748 0
-1718 -1749 0
-1718 -1750 0
-1718 -1751 0
-1718 -1752 0
-1718 -1753 0
-1718 -1754 0
-1718 -1755 0
-1718 -1756 0
-1718 -1757 0
-1718 -1758 0
-1718 -1759 0
-1718 -1760 0
-1718 -1761 0
-1718 -1762 0
-1718 -1763 0
-1718 -1764 0
-1718 -1765 0
-1718 -1766 0
-1718 -1767 0
-1718 -1768 0
-1718 -1769 0
-1718 -1770 0
-1718 -1771 0
-1718 -1772 0
-1718 -1773 0
-1718 -1774 0
-1718 -1775 0
-1718 -1776 0
-1718 -1777 0
-1718 -1778 0
-1718 -1779 0
-1718 -1780 0
-1718 -1781 0
-1718 -1782 0
-1718 -1783 0
-1718 -1784 0
-1718 -1785 0
-1718 -1786 0
-1718 -1787 0
-1718 -1788 0
-1718 -1789 0
-1718 -1790 0
-1718 -1791 0
-1718 -1792 0
-1718 -1793 0
-1718 -1794 0
-1719 -1720 0
-1719 -1721 0
-1719 -1722 0
-1719 -1723 0
-1719 -1724 0
-1719 -1725 0
-1719 -1726 0
-1719 -1727 0
-1719 -1728 0
-1719 -1729 0
-1719 -1730 0
-1719 -1731 0
-1719 -1732 0
-1719 -1733 0
-1719 -1734 0
-1719 -1735 0
-1719 -1736 0
-1719 -1737 0
-1719 -1738 0
-1719 -1739 0
-1719 -1740 0
-1719 -1741 0
-1719 -1742 0
-1719 -1743 0
-1719 -1744 0
-1719 -1745 0
-1719 -1746 0
-1719 -1747 0
-1719 -1748 0
-1719 -1749 0
-1719 -1750 0
-1719 -1751 0
-1719 -1752 0
-1719 -1753 0
-1719 -1754 0
-1719 -1755 0
-1719 -1756 0
-1719 -1757 0
-1719 -1758 0
-1719 -1759 0
-1719 -1760 0
-1719 -1761 0
-1719 -1762 0
-1719 -1763 0
-1719 -1764 0
-1719 -1765 0
-1719 -1766 0
-1719 -1767 0
-1719 -1768 0
-1719 -1769 0
-1719 -1770 0
-1719 -1771 0
-1719 -1772 0
-1719 -1773 0
-1719 -1774 0
-1719 -1775 0
-1719 -1776 0
-1719 -1777 0
-1719 -1778 0
-1719 -1779 0
-1719 -1780 0
-1719 -1781 0
-1719 -1782 0
-1719 -1783 0
-1719 -1784 0
-1719 -1785 0
-1719 -1786 0
-1719 -1787 0
-1719 -1788 0
-1719 -1789 0
-1719 -1790 0
-1719 -1791 0
-1719 -1792 0
-1719 -1793 0
-1719 -1794 0
-1720 -1721 0
-1720 -1722 0
-1720 -1723 0
-1720 -1724 0
-1720 -1725 0
-1720 -1726 0
-1720 -1727 0
-1720 -1728 0
-1720 -1729 0
-1720 -1730 0
-1720 -1731 0
-1720 -1732 0
-1720 -1733 0
-1720 -1734 0
-1720 -1735 0
-1720 -1736 0
-1720 -1737 0
-1720 -1738 0
-1720 -1739 0
-1720 -1740 0
-1720 -1741 0
-1720 -1742 0
-1720 -1743 0
-1720 -1744 0
-1720 -1745 0
-1720 -1746 0
-1720 -1747 0
-1720 -1748 0
-1720 -1749 0
-1720 -1750 0
-1720 -1751 0
-1720 -1752 0
-1720 -1753 0
-1720 -1754 0
-1720 -1755 0
-1720 -1756 0
-1720 -1757 0
-1720 -1758 0
-1720 -1759 0
-1720 -1760 0
-1720 -1761 0
-1720 -1762 0
-1720 -1763 0
-1720 -1764 0
-1720 -1765 0
-1720 -1766 0
-1720 -1767 0
-1720 -1768 0
-1720 -1769 0
-1720 -1770 0
-1720 -1771 0
-1720 -1772 0
-1720 -1773 0
-1720 -1774 0
-1720 -1775 0
-1720 -1776 0
-1720 -1777 0
-1720 -1778 0
-1720 -1779 0
-1720 -1780 0
-1720 -1781 0
-1720 -1782 0
-1720 -1783 0
-1720 -1784 0
-1720 -1785 0
-1720 -1786 0
-1720 -1787 0
-1720 -1788 0
-1720 -1789 0
-1720 -1790 0
-1720 -1791 0
-1720 -1792 0
-1720 -1793 0
-1720 -1794 0
-1721 -1722 0
-1721 -1723 0
-1721 -1724 0
-1721 -1725 0
-1721 -1726 0
-1721 -1727 0
-1721 -1728 0
-1721 -1729 0
-1721 -1730 0
-1721 -1731 0
-1721 -1732 0
-1721 -1733 0
-1721 -1734 0
-1721 -1735 0
-1721 -1736 0
-1721 -1737 0
-1721 -1738 0
-1721 -1739 0
-1721 -1740 0
-1721 -1741 0
-1721 -1742 0
-1721 -1743 0
-1721 -1744 0
-1721 -1745 0
-1721 -1746 0
-1721 -1747 0
-1721 -1748 0
-1721 -1749 0
-1721 -1750 0
-1721 -1751 0
-1721 -1752 0
-1721 -1753 0
-1721 -1754 0
-1721 -1755 0
-1721 -1756 0
-1721 -1757 0
-1721 -1758 0
-1721 -1759 0
-1721 -1760 0
-1721 -1761 0
-1721 -1762 0
-1721 -1763 0
-1721 -1764 0
-1721 -1765 0
-1721 -1766 0
-1721 -1767 0
-1721 -1768 0
-1721 -1769 0
-1721 -1770 0
-1721 -1771 0
-1721 -1772 0
-1721 -1773 0
-1721 -1774 0
-1721 -1775 0
-1721 -1776 0
-1721 -1777 0
-1721 -1778 0
-1721 -1779 0
-1721 -1780 0
-1721 -1781 0
-1721 -1782 0
-1721 -1783 0
-1721 -1784 0
-1721 -1785 0
-1721 -1786 0
-1721 -1787 0
-1721 -1788 0
-1721 -1789 0
-1721 -1790 0
-1721 -1791 0
-1721 -1792 0
-1721 -1793 0
-1721 -1794 0
-1722 -1723 0
-1722 -1724 0
-1722 -1725 0
-1722 -1726 0
-1722 -1727 0
-1722 -1728 0
-1722 -1729 0
-1722 -1730 0
-1722 -1731 0
-1722 -1732 0
-1722 -1733 0
-1722 -1734 0
-1722 -1735 0
-1722 -1736 0
-1722 -1737 0
-1722 -1738 0
-1722 -1739 0
-1722 -1740 0
-1722 -1741 0
-1722 -1742 0
-1722 -1743 0
-1722 -1744 0
-1722 -1745 0
-1722 -1746 0
-1722 -1747 0
-1722 -1748 0
-1722 -1749 0
-1722 -1750 0
-1722 -1751 0
-1722 -1752 0
-1722 -1753 0
-1722 -1754 0
-1722 -1755 0
-1722 -1756 0
-1722 -1757 0
-1722 -1758 0
-1722 -1759 0
-1722 -1760 0
-1722 -1761 0
-1722 -1762 0
-1722 -1763 0
-1722 -1764 0
-1722 -1765 0
-1722 -1766 0
-1722 -1767 0
-1722 -1768 0
-1722 -1769 0
-1722 -1770 0
-1722 -1771 0
-1722 -1772 0
-1722 -1773 0
-1722 -1774 0
-1722 -1775 0
-1722 -1776 0
-1722 -1777 0
-1722 -1778 0
-1722 -1779 0
-1722 -1780 0
-1722 -1781 0
-1722 -1782 0
-1722 -1783 0
-1722 -1784 0
-1722 -1785 0
-1722 -1786 0
-1722 -1787 0
-1722 -1788 0
-1722 -1789 0
-1722 -1790 0
-1722 -1791 0
-1722 -1792 0
-1722 -1793 0
-1722 -1794 0
-1723 -1724 0
-1723 -1725 0
-1723 -1726 0
-1723 -1727 0
-1723 -1728 0
-1723 -1729 0
-1723 -1730 0
-1723 -1731 0
-1723 -1732 0
-1723 -1733 0
-1723 -1734 0
-1723 -1735 0
-1723 -1736 0
-1723 -1737 0
-1723 -1738 0
-1723 -1739 0
-1723 -1740 0
-1723 -1741 0
-1723 -1742 0
-1723 -1743 0
-1723 -1744 0
-1723 -1745 0
-1723 -1746 0
-1723 -1747 0
-1723 -1748 0
-1723 -1749 0
-1723 -1750 0
-1723 -1751 0
-1723 -1752 0
-1723 -1753 0
-1723 -1754 0
-1723 -1755 0
-1723 -1756 0
-1723 -1757 0
-1723 -1758 0
-1723 -1759 0
-1723 -1760 0
-1723 -1761 0
-1723 -1762 0
-1723 -1763 0
-1723 -1764 0
-1723 -1765 0
-1723 -1766 0
-1723 -1767 0
-1723 -1768 0
-1723 -1769 0
-1723 -1770 0
-1723 -1771 0
-1723 -1772 0
-1723 -1773 0
-1723 -1774 0
-1723 -1775 0
-1723 -1776 0
-1723 -1777 0
-1723 -1778 0
-1723 -1779 0
-1723 -1780 0
-1723 -1781 0
-1723 -1782 0
-1723 -1783 0
-1723 -1784 0
-1723 -1785 0
-1723 -1786 0
-1723 -1787 0
-1723 -1788 0
-1723 -1789 0
-1723 -1790 0
-1723 -1791 0
-1723 -1792 0
-1723 -1793 0
-1723 -1794 0
-1724 -1725 0
-1724 -1726 0
-1724 -1727 0
-1724 -1728 0
-1724 -1729 0
-1724 -1730 0
-1724 -1731 0
-1724 -1732 0
-1724 -1733 0
-1724 -1734 0
-1724 -1735 0
-1724 -1736 0
-1724 -1737 0
-1724 -1738 0
-1724 -1739 0
-1724 -1740 0
-1724 -1741 0
-1724 -1742 0
-1724 -1743 0
-1724 -1744 0
-1724 -1745 0
-1724 -1746 0
-1724 -1747 0
-1724 -1748 0
-1724 -1749 0
-1724 -1750 0
-1724 -1751 0
-1724 -1752 0
-1724 -1753 0
-1724 -1754 0
-1724 -1755 0
-1724 -1756 0
-1724 -1757 0
-1724 -1758 0
-1724 -1759 0
-1724 -1760 0
-1724 -1761 0
-1724 -1762 0
-1724 -1763 0
-1724 -1764 0
-1724 -1765 0
-1724 -1766 0
-1724 -1767 0
-1724 -1768 0
-1724 -1769 0
-1724 -1770 0
-1724 -1771 0
-1724 -1772 0
-1724 -1773 0
-1724 -1774 0
-1724 -1775 0
-1724 -1776 0
-1724 -1777 0
-1724 -1778 0
-1724 -1779 0
-1724 -1780 0
-1724 -1781 0
-1724 -1782 0
-1724 -1783 0
-1724 -1784 0
-1724 -1785 0
-1724 -1786 0
-1724 -1787 0
-1724 -1788 0
-1724 -1789 0
-1724 -1790 0
-1724 -1791 0
-1724 -1792 0
-1724 -1793 0
-1724 -1794 0
-1725 -1726 0
-1725 -1727 0
-1725 -1728 0
-1725 -1729 0
-1725 -1730 0
-1725 -1731 0
-1725 -1732 0
-1725 -1733 0
-1725 -1734 0
-1725 -1735 0
-1725 -1736 0
-1725 -1737 0
-1725 -1738 0
-1725 -1739 0
-1725 -1740 0
-1725 -1741 0
-1725 -1742 0
-1725 -1743 0
-1725 -1744 0
-1725 -1745 0
-1725 -1746 0
-1725 -1747 0
-1725 -1748 0
-1725 -1749 0
-1725 -1750 0
-1725 -1751 0
-1725 -1752 0
-1725 -1753 0
-1725 -1754 0
-1725 -1755 0
-1725 -1756 0
-1725 -1757 0
-1725 -1758 0
-1725 -1759 0
-1725 -1760 0
-1725 -1761 0
-1725 -1762 0
-1725 -1763 0
-1725 -1764 0
-1725 -1765 0
-1725 -1766 0
-1725 -1767 0
-1725 -1768 0
-1725 -1769 0
-1725 -1770 0
-1725 -1771 0
-1725 -1772 0
-1725 -1773 0
-1725 -1774 0
-1725 -1775 0
-1725 -1776 0
-1725 -1777 0
-1725 -1778 0
-1725 -1779 0
-1725 -1780 0
-1725 -1781 0
-1725 -1782 0
-1725 -1783 0
-1725 -1784 0
-1725 -1785 0
-1725 -1786 0
-1725 -1787 0
-1725 -1788 0
-1725 -1789 0
-1725 -1790 0
-1725 -1791 0
-1725 -1792 0
-1725 -1793 0
-1725 -1794 0
-1726 -1727 0
-1726 -1728 0
-1726 -1729 0
-1726 -1730 0
-1726 -1731 0
-1726 -1732 0
-1726 -1733 0
-1726 -1734 0
-1726 -1735 0
-1726 -1736 0
-1726 -1737 0
-1726 -1738 0
-1726 -1739 0
-1726 -1740 0
-1726 -1741 0
-1726 -1742 0
-1726 -1743 0
-1726 -1744 0
-1726 -1745 0
-1726 -1746 0
-1726 -1747 0
-1726 -1748 0
-1726 -1749 0
-1726 -1750 0
-1726 -1751 0
-1726 -1752 0
-1726 -1753 0
-1726 -1754 0
-1726 -1755 0
-1726 -1756 0
-1726 -1757 0
-1726 -1758 0
-1726 -1759 0
-1726 -1760 0
-1726 -1761 0
-1726 -1762 0
-1726 -1763 0
-1726 -1764 0
-1726 -1765 0
-1726 -1766 0
-1726 -1767 0
-1726 -1768 0
-1726 -1769 0
-1726 -1770 0
-1726 -1771 0
-1726 -1772 0
-1726 -1773 0
-1726 -1774 0
-1726 -1775 0
-1726 -1776 0
-1726 -1777 0
-1726 -1778 0
-1726 -1779 0
-1726 -1780 0
-1726 -1781 0
-1726 -1782 0
-1726 -1783 0
-1726 -1784 0
-1726 -1785 0
-1726 -1786 0
-1726 -1787 0
-1726 -1788 0
-1726 -1789 0
-1726 -1790 0
-1726 -1791 0
-1726 -1792 0
-1726 -1793 0
-1726 -1794 0
-1727 -1728 0
-1727 -1729 0
-1727 -1730 0
-1727 -1731 0
-1727 -1732 0
-1727 -1733 0
-1727 -1734 0
-1727 -1735 0
-1727 -1736 0
-1727 -1737 0
-1727 -1738 0
-1727 -1739 0
-1727 -1740 0
-1727 -1741 0
-1727 -1742 0
-1727 -1743 0
-1727 -1744 0
-1727 -1745 0
-1727 -1746 0
-1727 -1747 0
-1727 -1748 0
-1727 -1749 0
-1727 -1750 0
-1727 -1751 0
-1727 -1752 0
-1727 -1753 0
-1727 -1754 0
-1727 -1755 0
-1727 -1756 0
-1727 -1757 0
-1727 -1758 0
-1727 -1759 0
-1727 -1760 0
-1727 -1761 0
-1727 -1762 0
-1727 -1763 0
-1727 -1764 0
-1727 -1765 0
-1727 -1766 0
-1727 -1767 0
-1727 -1768 0
-1727 -1769 0
-1727 -1770 0
-1727 -1771 0
-1727 -1772 0
-1727 -1773 0
-1727 -1774 0
-1727 -1775 0
-1727 -1776 0
-1727 -1777 0
-1727 -1778 0
-1727 -1779 0
-1727 -1780 0
-1727 -1781 0
-1727 -1782 0
-1727 -1783 0
-1727 -1784 0
-1727 -1785 0
-1727 -1786 0
-1727 -1787 0
-1727 -1788 0
-1727 -1789 0
-1727 -1790 0
-1727 -1791 0
-1727 -1792 0
-1727 -1793 0
-1727 -1794 0
-1728 -1729 0
-1728 -1730 0
-1728 -1731 0
-1728 -1732 0
-1728 -1733 0
-1728 -1734 0
-1728 -1735 0
-1728 -1736 0
-1728 -1737 0
-1728 -1738 0
-1728 -1739 0
-1728 -1740 0
-1728 -1741 0
-1728 -1742 0
-1728 -1743 0
-1728 -1744 0
-1728 -1745 0
-1728 -1746 0
-1728 -1747 0
-1728 -1748 0
-1728 -1749 0
-1728 -1750 0
-1728 -1751 0
-1728 -1752 0
-1728 -1753 0
-1728 -1754 0
-1728 -1755 0
-1728 -1756 0
-1728 -1757 0
-1728 -1758 0
-1728 -1759 0
-1728 -1760 0
-1728 -1761 0
-1728 -1762 0
-1728 -1763 0
-1728 -1764 0
-1728 -1765 0
-1728 -1766 0
-1728 -1767 0
-1728 -1768 0
-1728 -1769 0
-1728 -1770 0
-1728 -1771 0
-1728 -1772 0
-1728 -1773 0
-1728 -1774 0
-1728 -1775 0
-1728 -1776 0
-1728 -1777 0
-1728 -1778 0
-1728 -1779 0
-1728 -1780 0
-1728 -1781 0
-1728 -1782 0
-1728 -1783 0
-1728 -1784 0
-1728 -1785 0
-1728 -1786 0
-1728 -1787 0
-1728 -1788 0
-1728 -1789 0
-1728 -1790 0
-1728 -1791 0
-1728 -1792 0
-1728 -1793 0
-1728 -1794 0
-1729 -1730 0
-1729 -1731 0
-1729 -1732 0
-1729 -1733 0
-1729 -1734 0
-1729 -1735 0
-1729 -1736 0
-1729 -1737 0
-1729 -1738 0
-1729 -1739 0
-1729 -1740 0
-1729 -1741 0
-1729 -1742 0
-1729 -1743 0
-1729 -1744 0
-1729 -1745 0
-1729 -1746 0
-1729 -1747 0
-1729 -1748 0
-1729 -1749 0
-1729 -1750 0
-1729 -1751 0
-1729 -1752 0
-1729 -1753 0
-1729 -1754 0
-1729 -1755 0
-1729 -1756 0
-1729 -1757 0
-1729 -1758 0
-1729 -1759 0
-1729 -1760 0
-1729 -1761 0
-1729 -1762 0
-1729 -1763 0
-1729 -1764 0
-1729 -1765 0
-1729 -1766 0
-1729 -1767 0
-1729 -1768 0
-1729 -1769 0
-1729 -1770 0
-1729 -1771 0
-1729 -1772 0
-1729 -1773 0
-1729 -1774 0
-1729 -1775 0
-1729 -1776 0
-1729 -1777 0
-1729 -1778 0
-1729 -1779 0
-1729 -1780 0
-1729 -1781 0
-1729 -1782 0
-1729 -1783 0
-1729 -1784 0
-1729 -1785 0
-1729 -1786 0
-1729 -1787 0
-1729 -1788 0
-1729 -1789 0
-1729 -1790 0
-1729 -1791 0
-1729 -1792 0
-1729 -1793 0
-1729 -1794 0
-1730 -1731 0
-1730 -1732 0
-1730 -1733 0
-1730 -1734 0
-1730 -1735 0
-1730 -1736 0
-1730 -1737 0
-1730 -1738 0
-1730 -1739 0
-1730 -1740 0
-1730 -1741 0
-1730 -1742 0
-1730 -1743 0
-1730 -1744 0
-1730 -1745 0
-1730 -1746 0
-1730 -1747 0
-1730 -1748 0
-1730 -1749 0
-1730 -1750 0
-1730 -1751 0
-1730 -1752 0
-1730 -1753 0
-1730 -1754 0
-1730 -1755 0
-1730 -1756 0
-1730 -1757 0
-1730 -1758 0
-1730 -1759 0
-1730 -1760 0
-1730 -1761 0
-1730 -1762 0
-1730 -1763 0
-1730 -1764 0
-1730 -1765 0
-1730 -1766 0
-1730 -1767 0
-1730 -1768 0
-1730 -1769 0
-1730 -1770 0
-1730 -1771 0
-1730 -1772 0
-1730 -1773 0
-1730 -1774 0
-1730 -1775 0
-1730 -1776 0
-1730 -1777 0
-1730 -1778 0
-1730 -1779 0
-1730 -1780 0
-1730 -1781 0
-1730 -1782 0
-1730 -1783 0
-1730 -1784 0
-1730 -1785 0
-1730 -1786 0
-1730 -1787 0
-1730 -1788 0
-1730 -1789 0
-1730 -1790 0
-1730 -1791 0
-1730 -1792 0
-1730 -1793 0
-1730 -1794 0
-1731 -1732 0
-1731 -1733 0
-1731 -1734 0
-1731 -1735 0
-1731 -1736 0
-1731 -1737 0
-1731 -1738 0
-1731 -1739 0
-1731 -1740 0
-1731 -1741 0
-1731 -1742 0
-1731 -1743 0
-1731 -1744 0
-1731 -1745 0
-1731 -1746 0
-1731 -1747 0
-1731 -1748 0
-1731 -1749 0
-1731 -1750 0
-1731 -1751 0
-1731 -1752 0
-1731 -1753 0
-1731 -1754 0
-1731 -1755 0
-1731 -1756 0
-1731 -1757 0
-1731 -1758 0
-1731 -1759 0
-1731 -1760 0
-1731 -1761 0
-1731 -1762 0
-1731 -1763 0
-1731 -1764 0
-1731 -1765 0
-1731 -1766 0
-1731 -1767 0
-1731 -1768 0
-1731 -1769 0
-1731 -1770 0
-1731 -1771 0
-1731 -1772 0
-1731 -1773 0
-1731 -1774 0
-1731 -1775 0
-1731 -1776 0
-1731 -1777 0
-1731 -1778 0
-1731 -1779 0
-1731 -1780 0
-1731 -1781 0
-1731 -1782 0
-1731 -1783 0
-1731 -1784 0
-1731 -1785 0
-1731 -1786 0
-1731 -1787 0
-1731 -1788 0
-1731 -1789 0
-1731 -1790 0
-1731 -1791 0
-1731 -1792 0
-1731 -1793 0
-1731 -1794 0
-1732 -1733 0
-1732 -1734 0
-1732 -1735 0
-1732 -1736 0
-1732 -1737 0
-1732 -1738 0
-1732 -1739 0
-1732 -1740 0
-1732 -1741 0
-1732 -1742 0
-1732 -1743 0
-1732 -1744 0
-1732 -1745 0
-1732 -1746 0
-1732 -1747 0
-1732 -1748 0
-1732 -1749 0
-1732 -1750 0
-1732 -1751 0
-1732 -1752 0
-1732 -1753 0
-1732 -1754 0
-1732 -1755 0
-1732 -1756 0
-1732 -1757 0
-1732 -1758 0
-1732 -1759 0
-1732 -1760 0
-1732 -1761 0
-1732 -1762 0
-1732 -1763 0
-1732 -1764 0
-1732 -1765 0
-1732 -1766 0
-1732 -1767 0
-1732 -1768 0
-1732 -1769 0
-1732 -1770 0
-1732 -1771 0
-1732 -1772 0
-1732 -1773 0
-1732 -1774 0
-1732 -1775 0
-1732 -1776 0
-1732 -1777 0
-1732 -1778 0
-1732 -1779 0
-1732 -1780 0
-1732 -1781 0
-1732 -1782 0
-1732 -1783 0
-1732 -1784 0
-1732 -1785 0
-1732 -1786 0
-1732 -1787 0
-1732 -1788 0
-1732 -1789 0
-1732 -1790 0
-1732 -1791 0
-1732 -1792 0
-1732 -1793 0
-1732 -1794 0
-1733 -1734 0
-1733 -1735 0
-1733 -1736 0
-1733 -1737 0
-1733 -1738 0
-1733 -1739 0
-1733 -1740 0
-1733 -1741 0
-1733 -1742 0
-1733 -1743 0
-1733 -1744 0
-1733 -1745 0
-1733 -1746 0
-1733 -1747 0
-1733 -1748 0
-1733 -1749 0
-1733 -1750 0
-1733 -1751 0
-1733 -1752 0
-1733 -1753 0
-1733 -1754 0
-1733 -1755 0
-1733 -1756 0
-1733 -1757 0
-1733 -1758 0
-1733 -1759 0
-1733 -1760 0
-1733 -1761 0
-1733 -1762 0
-1733 -1763 0
-1733 -1764 0
-1733 -1765 0
-1733 -1766 0
-1733 -1767 0
-1733 -1768 0
-1733 -1769 0
-1733 -1770 0
-1733 -1771 0
-1733 -1772 0
-1733 -1773 0
-1733 -1774 0
-1733 -1775 0
-1733 -1776 0
-1733 -1777 0
-1733 -1778 0
-1733 -1779 0
-1733 -1780 0
-1733 -1781 0
-1733 -1782 0
-1733 -1783 0
-1733 -1784 0
-1733 -1785 0
-1733 -1786 0
-1733 -1787 0
-1733 -1788 0
-1733 -1789 0
-1733 -1790 0
-1733 -1791 0
-1733 -1792 0
-1733 -1793 0
-1733 -1794 0
-1734 -1735 0
-1734 -1736 0
-1734 -1737 0
-1734 -1738 0
-1734 -1739 0
-1734 -1740 0
-1734 -1741 0
-1734 -1742 0
-1734 -1743 0
-1734 -1744 0
-1734 -1745 0
-1734 -1746 0
-1734 -1747 0
-1734 -1748 0
-1734 -1749 0
-1734 -1750 0
-1734 -1751 0
-1734 -1752 0
-1734 -1753 0
-1734 -1754 0
-1734 -1755 0
-1734 -1756 0
-1734 -1757 0
-1734 -1758 0
-1734 -1759 0
-1734 -1760 0
-1734 -1761 0
-1734 -1762 0
-1734 -1763 0
-1734 -1764 0
-1734 -1765 0
-1734 -1766 0
-1734 -1767 0
-1734 -1768 0
-1734 -1769 0
-1734 -1770 0
-1734 -1771 0
-1734 -1772 0
-1734 -1773 0
-1734 -1774 0
-1734 -1775 0
-1734 -1776 0
-1734 -1777 0
-1734 -1778 0
-1734 -1779 0
-1734 -1780 0
-1734 -1781 0
-1734 -1782 0
-1734 -1783 0
-1734 -1784 0
-1734 -1785 0
-1734 -1786 0
-1734 -1787 0
-1734 -1788 0
-1734 -1789 0
-1734 -1790 0
-1734 -1791 0
-1734 -1792 0
-1734 -1793 0
-1734 -1794 0
-1735 -1736 0
-1735 -1737 0
-1735 -1738 0
-1735 -1739 0
-1735 -1740 0
-1735 -1741 0
-1735 -1742 0
-1735 -1743 0
-1735 -1744 0
-1735 -1745 0
-1735 -1746 0
-1735 -1747 0
-1735 -1748 0
-1735 -1749 0
-1735 -1750 0
-1735 -1751 0
-1735 -1752 0
-1735 -1753 0
-1735 -1754 0
-1735 -1755 0
-1735 -1756 0
-1735 -1757 0
-1735 -1758 0
-1735 -1759 0
-1735 -1760 0
-1735 -1761 0
-1735 -1762 0
-1735 -1763 0
-1735 -1764 0
-1735 -1765 0
-1735 -1766 0
-1735 -1767 0
-1735 -1768 0
-1735 -1769 0
-1735 -1770 0
-1735 -1771 0
-1735 -1772 0
-1735 -1773 0
-1735 -1774 0
-1735 -1775 0
-1735 -1776 0
-1735 -1777 0
-1735 -1778 0
-1735 -1779 0
-1735 -1780 0
-1735 -1781 0
-1735 -1782 0
-1735 -1783 0
-1735 -1784 0
-1735 -1785 0
-1735 -1786 0
-1735 -1787 0
-1735 -1788 0
-1735 -1789 0
-1735 -1790 0
-1735 -1791 0
-1735 -1792 0
-1735 -1793 0
-1735 -1794 0
-1736 -1737 0
-1736 -1738 0
-1736 -1739 0
-1736 -1740 0
-1736 -1741 0
-1736 -1742 0
-1736 -1743 0
-1736 -1744 0
-1736 -1745 0
-1736 -1746 0
-1736 -1747 0
-1736 -1748 0
-1736 -1749 0
-1736 -1750 0
-1736 -1751 0
-1736 -1752 0
-1736 -1753 0
-1736 -1754 0
-1736 -1755 0
-1736 -1756 0
-1736 -1757 0
-1736 -1758 0
-1736 -1759 0
-1736 -1760 0
-1736 -1761 0
-1736 -1762 0
-1736 -1763 0
-1736 -1764 0
-1736 -1765 0
-1736 -1766 0
-1736 -1767 0
-1736 -1768 0
-1736 -1769 0
-1736 -1770 0
-1736 -1771 0
-1736 -1772 0
-1736 -1773 0
-1736 -1774 0
-1736 -1775 0
-1736 -1776 0
-1736 -1777 0
-1736 -1778 0
-1736 -1779 0
-1736 -1780 0
-1736 -1781 0
-1736 -1782 0
-1736 -1783 0
-1736 -1784 0
-1736 -1785 0
-1736 -1786 0
-1736 -1787 0
-1736 -1788 0
-1736 -1789 0
-1736 -1790 0
-1736 -1791 0
-1736 -1792 0
-1736 -1793 0
-1736 -1794 0
-1737 -1738 0
-1737 -1739 0
-1737 -1740 0
-1737 -1741 0
-1737 -1742 0
-1737 -1743 0
-1737 -1744 0
-1737 -1745 0
-1737 -1746 0
-1737 -1747 0
-1737 -1748 0
-1737 -1749 0
-1737 -1750 0
-1737 -1751 0
-1737 -1752 0
-1737 -1753 0
-1737 -1754 0
-1737 -1755 0
-1737 -1756 0
-1737 -1757 0
-1737 -1758 0
-1737 -1759 0
-1737 -1760 0
-1737 -1761 0
-1737 -1762 0
-1737 -1763 0
-1737 -1764 0
-1737 -1765 0
-1737 -1766 0
-1737 -1767 0
-1737 -1768 0
-1737 -1769 0
-1737 -1770 0
-1737 -1771 0
-1737 -1772 0
-1737 -1773 0
-1737 -1774 0
-1737 -1775 0
-1737 -1776 0
-1737 -1777 0
-1737 -1778 0
-1737 -1779 0
-1737 -1780 0
-1737 -1781 0
-1737 -1782 0
-1737 -1783 0
-1737 -1784 0
-1737 -1785 0
-1737 -1786 0
-1737 -1787 0
-1737 -1788 0
-1737 -1789 0
-1737 -1790 0
-1737 -1791 0
-1737 -1792 0
-1737 -1793 0
-1737 -1794 0
-1738 -1739 0
-1738 -1740 0
-1738 -1741 0
-1738 -1742 0
-1738 -1743 0
-1738 -1744 0
-1738 -1745 0
-1738 -1746 0
-1738 -1747 0
-1738 -1748 0
-1738 -1749 0
-1738 -1750 0
-1738 -1751 0
-1738 -1752 0
-1738 -1753 0
-1738 -1754 0
-1738 -1755 0
-1738 -1756 0
-1738 -1757 0
-1738 -1758 0
-1738 -1759 0
-1738 -1760 0
-1738 -1761 0
-1738 -1762 0
-1738 -1763 0
-1738 -1764 0
-1738 -1765 0
-1738 -1766 0
-1738 -1767 0
-1738 -1768 0
-1738 -1769 0
-1738 -1770 0
-1738 -1771 0
-1738 -1772 0
-1738 -1773 0
-1738 -1774 0
-1738 -1775 0
-1738 -1776 0
-1738 -1777 0
-1738 -1778 0
-1738 -1779 0
-1738 -1780 0
-1738 -1781 0
-1738 -1782 0
-1738 -1783 0
-1738 -1784 0
-1738 -1785 0
-1738 -1786 0
-1738 -1787 0
-1738 -1788 0
-1738 -1789 0
-1738 -1790 0
-1738 -1791 0
-1738 -1792 0
-1738 -1793 0
-1738 -1794 0
-1739 -1740 0
-1739 -1741 0
-1739 -1742 0
-1739 -1743 0
-1739 -1744 0
-1739 -1745 0
-1739 -1746 0
-1739 -1747 0
-1739 -1748 0
-1739 -1749 0
-1739 -1750 0
-1739 -1751 0
-1739 -1752 0
-1739 -1753 0
-1739 -1754 0
-1739 -1755 0
-1739 -1756 0
-1739 -1757 0
-1739 -1758 0
-1739 -1759 0
-1739 -1760 0
-1739 -1761 0
-1739 -1762 0
-1739 -1763 0
-1739 -1764 0
-1739 -1765 0
-1739 -1766 0
-1739 -1767 0
-1739 -1768 0
-1739 -1769 0
-1739 -1770 0
-1739 -1771 0
-1739 -1772 0
-1739 -1773 0
-1739 -1774 0
-1739 -1775 0
-1739 -1776 0
-1739 -1777 0
-1739 -1778 0
-1739 -1779 0
-1739 -1780 0
-1739 -1781 0
-1739 -1782 0
-1739 -1783 0
-1739 -1784 0
-1739 -1785 0
-1739 -1786 0
-1739 -1787 0
-1739 -1788 0
-1739 -1789 0
-1739 -1790 0
-1739 -1791 0
-1739 -1792 0
-1739 -1793 0
-1739 -1794 0
-1740 -1741 0
-1740 -1742 0
-1740 -1743 0
-1740 -1744 0
-1740 -1745 0
-1740 -1746 0
-1740 -1747 0
-1740 -1748 0
-1740 -1749 0
-1740 -1750 0
-1740 -1751 0
-1740 -1752 0
-1740 -1753 0
-1740 -1754 0
-1740 -1755 0
-1740 -1756 0
-1740 -1757 0
-1740 -1758 0
-1740 -1759 0
-1740 -1760 0
-1740 -1761 0
-1740 -1762 0
-1740 -1763 0
-1740 -1764 0
-1740 -1765 0
-1740 -1766 0
-1740 -1767 0
-1740 -1768 0
-1740 -1769 0
-1740 -1770 0
-1740 -1771 0
-1740 -1772 0
-1740 -1773 0
-1740 -1774 0
-1740 -1775 0
-1740 -1776 0
-1740 -1777 0
-1740 -1778 0
-1740 -1779 0
-1740 -1780 0
-1740 -1781 0
-1740 -1782 0
-1740 -1783 0
-1740 -1784 0
-1740 -1785 0
-1740 -1786 0
-1740 -1787 0
-1740 -1788 0
-1740 -1789 0
-1740 -1790 0
-1740 -1791 0
-1740 -1792 0
-1740 -1793 0
-1740 -1794 0
-1741 -1742 0
-1741 -1743 0
-1741 -1744 0
-1741 -1745 0
-1741 -1746 0
-1741 -1747 0
-1741 -1748 0
-1741 -1749 0
-1741 -1750 0
-1741 -1751 0
-1741 -1752 0
-1741 -1753 0
-1741 -1754 0
-1741 -1755 0
-1741 -1756 0
-1741 -1757 0
-1741 -1758 0
-1741 -1759 0
-1741 -1760 0
-1741 -1761 0
-1741 -1762 0
-1741 -1763 0
-1741 -1764 0
-1741 -1765 0
-1741 -1766 0
-1741 -1767 0
-1741 -1768 0
-1741 -1769 0
-1741 -1770 0
-1741 -1771 0
-1741 -1772 0
-1741 -1773 0
-1741 -1774 0
-1741 -1775 0
-1741 -1776 0
-1741 -1777 0
-1741 -1778 0
-1741 -1779 0
-1741 -1780 0
-1741 -1781 0
-1741 -1782 0
-1741 -1783 0
-1741 -1784 0
-1741 -1785 0
-1741 -1786 0
-1741 -1787 0
-1741 -1788 0
-1741 -1789 0
-1741 -1790 0
-1741 -1791 0
-1741 -1792 0
-1741 -1793 0
-1741 -1794 0
-1742 -1743 0
-1742 -1744 0
-1742 -1745 0
-1742 -1746 0
-1742 -1747 0
-1742 -1748 0
-1742 -1749 0
-1742 -1750 0
-1742 -1751 0
-1742 -1752 0
-1742 -1753 0
-1742 -1754 0
-1742 -1755 0
-1742 -1756 0
-1742 -1757 0
-1742 -1758 0
-1742 -1759 0
-1742 -1760 0
-1742 -1761 0
-1742 -1762 0
-1742 -1763 0
-1742 -1764 0
-1742 -1765 0
-1742 -1766 0
-1742 -1767 0
-1742 -1768 0
-1742 -1769 0
-1742 -1770 0
-1742 -1771 0
-1742 -1772 0
-1742 -1773 0
-1742 -1774 0
-1742 -1775 0
-1742 -1776 0
-1742 -1777 0
-1742 -1778 0
-1742 -1779 0
-1742 -1780 0
-1742 -1781 0
-1742 -1782 0
-1742 -1783 0
-1742 -1784 0
-1742 -1785 0
-1742 -1786 0
-1742 -1787 0
-1742 -1788 0
-1742 -1789 0
-1742 -1790 0
-1742 -1791 0
-1742 -1792 0
-1742 -1793 0
-1742 -1794 0
-1743 -1744 0
-1743 -1745 0
-1743 -1746 0
-1743 -1747 0
-1743 -1748 0
-1743 -1749 0
-1743 -1750 0
-1743 -1751 0
-1743 -1752 0
-1743 -1753 0
-1743 -1754 0
-1743 -1755 0
-1743 -1756 0
-1743 -1757 0
-1743 -1758 0
-1743 -1759 0
-1743 -1760 0
-1743 -1761 0
-1743 -1762 0
-1743 -1763 0
-1743 -1764 0
-1743 -1765 0
-1743 -1766 0
-1743 -1767 0
-1743 -1768 0
-1743 -1769 0
-1743 -1770 0
-1743 -1771 0
-1743 -1772 0
-1743 -1773 0
-1743 -1774 0
-1743 -1775 0
-1743 -1776 0
-1743 -1777 0
-1743 -1778 0
-1743 -1779 0
-1743 -1780 0
-1743 -1781 0
-1743 -1782 0
-1743 -1783 0
-1743 -1784 0
-1743 -1785 0
-1743 -1786 0
-1743 -1787 0
-1743 -1788 0
-1743 -1789 0
-1743 -1790 0
-1743 -1791 0
-1743 -1792 0
-1743 -1793 0
-1743 -1794 0
-1744 -1745 0
-1744 -1746 0
-1744 -1747 0
-1744 -1748 0
-1744 -1749 0
-1744 -1750 0
-1744 -1751 0
-1744 -1752 0
-1744 -1753 0
-1744 -1754 0
-1744 -1755 0
-1744 -1756 0
-1744 -1757 0
-1744 -1758 0
-1744 -1759 0
-1744 -1760 0
-1744 -1761 0
-1744 -1762 0
-1744 -1763 0
-1744 -1764 0
-1744 -1765 0
-1744 -1766 0
-1744 -1767 0
-1744 -1768 0
-1744 -1769 0
-1744 -1770 0
-1744 -1771 0
-1744 -1772 0
-1744 -1773 0
-1744 -1774 0
-1744 -1775 0
-1744 -1776 0
-1744 -1777 0
-1744 -1778 0
-1744 -1779 0
-1744 -1780 0
-1744 -1781 0
-1744 -1782 0
-1744 -1783 0
-1744 -1784 0
-1744 -1785 0
-1744 -1786 0
-1744 -1787 0
-1744 -1788 0
-1744 -1789 0
-1744 -1790 0
-1744 -1791 0
-1744 -1792 0
-1744 -1793 0
-1744 -1794 0
-1745 -1746 0
-1745 -1747 0
-1745 -1748 0
-1745 -1749 0
-1745 -1750 0
-1745 -1751 0
-1745 -1752 0
-1745 -1753 0
-1745 -1754 0
-1745 -1755 0
-1745 -1756 0
-1745 -1757 0
-1745 -1758 0
-1745 -1759 0
-1745 -1760 0
-1745 -1761 0
-1745 -1762 0
-1745 -1763 0
-1745 -1764 0
-1745 -1765 0
-1745 -1766 0
-1745 -1767 0
-1745 -1768 0
-1745 -1769 0
-1745 -1770 0
-1745 -1771 0
-1745 -1772 0
-1745 -1773 0
-1745 -1774 0
-1745 -1775 0
-1745 -1776 0
-1745 -1777 0
-1745 -1778 0
-1745 -1779 0
-1745 -1780 0
-1745 -1781 0
-1745 -1782 0
-1745 -1783 0
-1745 -1784 0
-1745 -1785 0
-1745 -1786 0
-1745 -1787 0
-1745 -1788 0
-1745 -1789 0
-1745 -1790 0
-1745 -1791 0
-1745 -1792 0
-1745 -1793 0
-1745 -1794 0
-1746 -1747 0
-1746 -1748 0
-1746 -1749 0
-1746 -1750 0
-1746 -1751 0
-1746 -1752 0
-1746 -1753 0
-1746 -1754 0
-1746 -1755 0
-1746 -1756 0
-1746 -1757 0
-1746 -1758 0
-1746 -1759 0
-1746 -1760 0
-1746 -1761 0
-1746 -1762 0
-1746 -1763 0
-1746 -1764 0
-1746 -1765 0
-1746 -1766 0
-1746 -1767 0
-1746 -1768 0
-1746 -1769 0
-1746 -1770 0
-1746 -1771 0
-1746 -1772 0
-1746 -1773 0
-1746 -1774 0
-1746 -1775 0
-1746 -1776 0
-1746 -1777 0
-1746 -1778 0
-1746 -1779 0
-1746 -1780 0
-1746 -1781 0
-1746 -1782 0
-1746 -1783 0
-1746 -1784 0
-1746 -1785 0
-1746 -1786 0
-1746 -1787 0
-1746 -1788 0
-1746 -1789 0
-1746 -1790 0
-1746 -1791 0
-1746 -1792 0
-1746 -1793 0
-1746 -1794 0
-1747 -1748 0
-1747 -1749 0
-1747 -1750 0
-1747 -1751 0
-1747 -1752 0
-1747 -1753 0
-1747 -1754 0
-1747 -1755 0
-1747 -1756 0
-1747 -1757 0
-1747 -1758 0
-1747 -1759 0
-1747 -1760 0
-1747 -1761 0
-1747 -1762 0
-1747 -1763 0
-1747 -1764 0
-1747 -1765 0
-1747 -1766 0
-1747 -1767 0
-1747 -1768 0
-1747 -1769 0
-1747 -1770 0
-1747 -1771 0
-1747 -1772 0
-1747 -1773 0
-1747 -1774 0
-1747 -1775 0
-1747 -1776 0
-1747 -1777 0
-1747 -1778 0
-1747 -1779 0
-1747 -1780 0
-1747 -1781 0
-1747 -1782 0
-1747 -1783 0
-1747 -1784 0
-1747 -1785 0
-1747 -1786 0
-1747 -1787 0
-1747 -1788 0
-1747 -1789 0
-1747 -1790 0
-1747 -1791 0
-1747 -1792 0
-1747 -1793 0
-1747 -1794 0
-1748 -1749 0
-1748 -1750 0
-1748 -1751 0
-1748 -1752 0
-1748 -1753 0
-1748 -1754 0
-1748 -1755 0
-1748 -1756 0
-1748 -1757 0
-1748 -1758 0
-1748 -1759 0
-1748 -1760 0
-1748 -1761 0
-1748 -1762 0
-1748 -1763 0
-1748 -1764 0
-1748 -1765 0
-1748 -1766 0
-1748 -1767 0
-1748 -1768 0
-1748 -1769 0
-1748 -1770 0
-1748 -1771 0
-1748 -1772 0
-1748 -1773 0
-1748 -1774 0
-1748 -1775 0
-1748 -1776 0
-1748 -1777 0
-1748 -1778 0
-1748 -1779 0
-1748 -1780 0
-1748 -1781 0
-1748 -1782 0
-1748 -1783 0
-1748 -1784 0
-1748 -1785 0
-1748 -1786 0
-1748 -1787 0
-1748 -1788 0
-1748 -1789 0
-1748 -1790 0
-1748 -1791 0
-1748 -1792 0
-1748 -1793 0
-1748 -1794 0
-1749 -1750 0
-1749 -1751 0
-1749 -1752 0
-1749 -1753 0
-1749 -1754 0
-1749 -1755 0
-1749 -1756 0
-1749 -1757 0
-1749 -1758 0
-1749 -1759 0
-1749 -1760 0
-1749 -1761 0
-1749 -1762 0
-1749 -1763 0
-1749 -1764 0
-1749 -1765 0
-1749 -1766 0
-1749 -1767 0
-1749 -1768 0
-1749 -1769 0
-1749 -1770 0
-1749 -1771 0
-1749 -1772 0
-1749 -1773 0
-1749 -1774 0
-1749 -1775 0
-1749 -1776 0
-1749 -1777 0
-1749 -1778 0
-1749 -1779 0
-1749 -1780 0
-1749 -1781 0
-1749 -1782 0
-1749 -1783 0
-1749 -1784 0
-1749 -1785 0
-1749 -1786 0
-1749 -1787 0
-1749 -1788 0
-1749 -1789 0
-1749 -1790 0
-1749 -1791 0
-1749 -1792 0
-1749 -1793 0
-1749 -1794 0
-1750 -1751 0
-1750 -1752 0
-1750 -1753 0
-1750 -1754 0
-1750 -1755 0
-1750 -1756 0
-1750 -1757 0
-1750 -1758 0
-1750 -1759 0
-1750 -1760 0
-1750 -1761 0
-1750 -1762 0
-1750 -1763 0
-1750 -1764 0
-1750 -1765 0
-1750 -1766 0
-1750 -1767 0
-1750 -1768 0
-1750 -1769 0
-1750 -1770 0
-1750 -1771 0
-1750 -1772 0
-1750 -1773 0
-1750 -1774 0
-1750 -1775 0
-1750 -1776 0
-1750 -1777 0
-1750 -1778 0
-1750 -1779 0
-1750 -1780 0
-1750 -1781 0
-1750 -1782 0
-1750 -1783 0
-1750 -1784 0
-1750 -1785 0
-1750 -1786 0
-1750 -1787 0
-1750 -1788 0
-1750 -1789 0
-1750 -1790 0
-1750 -1791 0
-1750 -1792 0
-1750 -1793 0
-1750 -1794 0
-1751 -1752 0
-1751 -1753 0
-1751 -1754 0
-1751 -1755 0
-1751 -1756 0
-1751 -1757 0
-1751 -1758 0
-1751 -1759 0
-1751 -1760 0
-1751 -1761 0
-1751 -1762 0
-1751 -1763 0
-1751 -1764 0
-1751 -1765 0
-1751 -1766 0
-1751 -1767 0
-1751 -1768 0
-1751 -1769 0
-1751 -1770 0
-1751 -1771 0
-1751 -1772 0
-1751 -1773 0
-1751 -1774 0
-1751 -1775 0
-1751 -1776 0
-1751 -1777 0
-1751 -1778 0
-1751 -1779 0
-1751 -1780 0
-1751 -1781 0
-1751 -1782 0
-1751 -1783 0
-1751 -1784 0
-1751 -1785 0
-1751 -1786 0
-1751 -1787 0
-1751 -1788 0
-1751 -1789 0
-1751 -1790 0
-1751 -1791 0
-1751 -1792 0
-1751 -1793 0
-1751 -1794 0
-1752 -1753 0
-1752 -1754 0
-1752 -1755 0
-1752 -1756 0
-1752 -1757 0
-1752 -1758 0
-1752 -1759 0
-1752 -1760 0
-1752 -1761 0
-1752 -1762 0
-1752 -1763 0
-1752 -1764 0
-1752 -1765 0
-1752 -1766 0
-1752 -1767 0
-1752 -1768 0
-1752 -1769 0
-1752 -1770 0
-1752 -1771 0
-1752 -1772 0
-1752 -1773 0
-1752 -1774 0
-1752 -1775 0
-1752 -1776 0
-1752 -1777 0
-1752 -1778 0
-1752 -1779 0
-1752 -1780 0
-1752 -1781 0
-1752 -1782 0
-1752 -1783 0
-1752 -1784 0
-1752 -1785 0
-1752 -1786 0
-1752 -1787 0
-1752 -1788 0
-1752 -1789 0
-1752 -1790 0
-1752 -1791 0
-1752 -1792 0
-1752 -1793 0
-1752 -1794 0
-1753 -1754 0
-1753 -1755 0
-1753 -1756 0
-1753 -1757 0
-1753 -1758 0
-1753 -1759 0
-1753 -1760 0
-1753 -1761 0
-1753 -1762 0
-1753 -1763 0
-1753 -1764 0
-1753 -1765 0
-1753 -1766 0
-1753 -1767 0
-1753 -1768 0
-1753 -1769 0
-1753 -1770 0
-1753 -1771 0
-1753 -1772 0
-1753 -1773 0
-1753 -1774 0
-1753 -1775 0
-1753 -1776 0
-1753 -1777 0
-1753 -1778 0
-1753 -1779 0
-1753 -1780 0
-1753 -1781 0
-1753 -1782 0
-1753 -1783 0
-1753 -1784 0
-1753 -1785 0
-1753 -1786 0
-1753 -1787 0
-1753 -1788 0
-1753 -1789 0
-1753 -1790 0
-1753 -1791 0
-1753 -1792 0
-1753 -1793 0
-1753 -1794 0
-1754 -1755 0
-1754 -1756 0
-1754 -1757 0
-1754 -1758 0
-1754 -1759 0
-1754 -1760 0
-1754 -1761 0
-1754 -1762 0
-1754 -1763 0
-1754 -1764 0
-1754 -1765 0
-1754 -1766 0
-1754 -1767 0
-1754 -1768 0
-1754 -1769 0
-1754 -1770 0
-1754 -1771 0
-1754 -1772 0
-1754 -1773 0
-1754 -1774 0
-1754 -1775 0
-1754 -1776 0
-1754 -1777 0
-1754 -1778 0
-1754 -1779 0
-1754 -1780 0
-1754 -1781 0
-1754 -1782 0
-1754 -1783 0
-1754 -1784 0
-1754 -1785 0
-1754 -1786 0
-1754 -1787 0
-1754 -1788 0
-1754 -1789 0
-1754 -1790 0
-1754 -1791 0
-1754 -1792 0
-1754 -1793 0
-1754 -1794 0
-1755 -1756 0
-1755 -1757 0
-1755 -1758 0
-1755 -1759 0
-1755 -1760 0
-1755 -1761 0
-1755 -1762 0
-1755 -1763 0
-1755 -1764 0
-1755 -1765 0
-1755 -1766 0
-1755 -1767 0
-1755 -1768 0
-1755 -1769 0
-1755 -1770 0
-1755 -1771 0
-1755 -1772 0
-1755 -1773 0
-1755 -1774 0
-1755 -1775 0
-1755 -1776 0
-1755 -1777 0
-1755 -1778 0
-1755 -1779 0
-1755 -1780 0
-1755 -1781 0
-1755 -1782 0
-1755 -1783 0
-1755 -1784 0
-1755 -1785 0
-1755 -1786 0
-1755 -1787 0
-1755 -1788 0
-1755 -1789 0
-1755 -1790 0
-1755 -1791 0
-1755 -1792 0
-1755 -1793 0
-1755 -1794 0
-1756 -1757 0
-1756 -1758 0
-1756 -1759 0
-1756 -1760 0
-1756 -1761 0
-1756 -1762 0
-1756 -1763 0
-1756 -1764 0
-1756 -1765 0
-1756 -1766 0
-1756 -1767 0
-1756 -1768 0
-1756 -1769 0
-1756 -1770 0
-1756 -1771 0
-1756 -1772 0
-1756 -1773 0
-1756 -1774 0
-1756 -1775 0
-1756 -1776 0
-1756 -1777 0
-1756 -1778 0
-1756 -1779 0
-1756 -1780 0
-1756 -1781 0
-1756 -1782 0
-1756 -1783 0
-1756 -1784 0
-1756 -1785 0
-1756 -1786 0
-1756 -1787 0
-1756 -1788 0
-1756 -1789 0
-1756 -1790 0
-1756 -1791 0
-1756 -1792 0
-1756 -1793 0
-1756 -1794 0
-1757 -1758 0
-1757 -1759 0
-1757 -1760 0
-1757 -1761 0
-1757 -1762 0
-1757 -1763 0
-1757 -1764 0
-1757 -1765 0
-1757 -1766 0
-1757 -1767 0
-1757 -1768 0
-1757 -1769 0
-1757 -1770 0
-1757 -1771 0
-1757 -1772 0
-1757 -1773 0
-1757 -1774 0
-1757 -1775 0
-1757 -1776 0
-1757 -1777 0
-1757 -1778 0
-1757 -1779 0
-1757 -1780 0
-1757 -1781 0
-1757 -1782 0
-1757 -1783 0
-1757 -1784 0
-1757 -1785 0
-1757 -1786 0
-1757 -1787 0
-1757 -1788 0
-1757 -1789 0
-1757 -1790 0
-1757 -1791 0
-1757 -1792 0
-1757 -1793 0
-1757 -1794 0
-1758 -1759 0
-1758 -1760 0
-1758 -1761 0
-1758 -1762 0
-1758 -1763 0
-1758 -1764 0
-1758 -1765 0
-1758 -1766 0
-1758 -1767 0
-1758 -1768 0
-1758 -1769 0
-1758 -1770 0
-1758 -1771 0
-1758 -1772 0
-1758 -1773 0
-1758 -1774 0
-1758 -1775 0
-1758 -1776 0
-1758 -1777 0
-1758 -1778 0
-1758 -1779 0
-1758 -1780 0
-1758 -1781 0
-1758 -1782 0
-1758 -1783 0
-1758 -1784 0
-1758 -1785 0
-1758 -1786 0
-1758 -1787 0
-1758 -1788 0
-1758 -1789 0
-1758 -1790 0
-1758 -1791 0
-1758 -1792 0
-1758 -1793 0
-1758 -1794 0
-1759 -1760 0
-1759 -1761 0
-1759 -1762 0
-1759 -1763 0
-1759 -1764 0
-1759 -1765 0
-1759 -1766 0
-1759 -1767 0
-1759 -1768 0
-1759 -1769 0
-1759 -1770 0
-1759 -1771 0
-1759 -1772 0
-1759 -1773 0
-1759 -1774 0
-1759 -1775 0
-1759 -1776 0
-1759 -1777 0
-1759 -1778 0
-1759 -1779 0
-1759 -1780 0
-1759 -1781 0
-1759 -1782 0
-1759 -1783 0
-1759 -1784 0
-1759 -1785 0
-1759 -1786 0
-1759 -1787 0
-1759 -1788 0
-1759 -1789 0
-1759 -1790 0
-1759 -1791 0
-1759 -1792 0
-1759 -1793 0
-1759 -1794 0
-1760 -1761 0
-1760 -1762 0
-1760 -1763 0
-1760 -1764 0
-1760 -1765 0
-1760 -1766 0
-1760 -1767 0
-1760 -1768 0
-1760 -1769 0
-1760 -1770 0
-1760 -1771 0
-1760 -1772 0
-1760 -1773 0
-1760 -1774 0
-1760 -1775 0
-1760 -1776 0
-1760 -1777 0
-1760 -1778 0
-1760 -1779 0
-1760 -1780 0
-1760 -1781 0
-1760 -1782 0
-1760 -1783 0
-1760 -1784 0
-1760 -1785 0
-1760 -1786 0
-1760 -1787 0
-1760 -1788 0
-1760 -1789 0
-1760 -1790 0
-1760 -1791 0
-1760 -1792 0
-1760 -1793 0
-1760 -1794 0
-1761 -1762 0
-1761 -1763 0
-1761 -1764 0
-1761 -1765 0
-1761 -1766 0
-1761 -1767 0
-1761 -1768 0
-1761 -1769 0
-1761 -1770 0
-1761 -1771 0
-1761 -1772 0
-1761 -1773 0
-1761 -1774 0
-1761 -1775 0
-1761 -1776 0
-1761 -1777 0
-1761 -1778 0
-1761 -1779 0
-1761 -1780 0
-1761 -1781 0
-1761 -1782 0
-1761 -1783 0
-1761 -1784 0
-1761 -1785 0
-1761 -1786 0
-1761 -1787 0
-1761 -1788 0
-1761 -1789 0
-1761 -1790 0
-1761 -1791 0
-1761 -1792 0
-1761 -1793 0
-1761 -1794 0
-1762 -1763 0
-1762 -1764 0
-1762 -1765 0
-1762 -1766 0
-1762 -1767 0
-1762 -1768 0
-1762 -1769 0
-1762 -1770 0
-1762 -1771 0
-1762 -1772 0
-1762 -1773 0
-1762 -1774 0
-1762 -1775 0
-1762 -1776 0
-1762 -1777 0
-1762 -1778 0
-1762 -1779 0
-1762 -1780 0
-1762 -1781 0
-1762 -1782 0
-1762 -1783 0
-1762 -1784 0
-1762 -1785 0
-1762 -1786 0
-1762 -1787 0
-1762 -1788 0
-1762 -1789 0
-1762 -1790 0
-1762 -1791 0
-1762 -1792 0
-1762 -1793 0
-1762 -1794 0
-1763 -1764 0
-1763 -1765 0
-1763 -1766 0
-1763 -1767 0
-1763 -1768 0
-1763 -1769 0
-1763 -1770 0
-1763 -1771 0
-1763 -1772 0
-1763 -1773 0
-1763 -1774 0
-1763 -1775 0
-1763 -1776 0
-1763 -1777 0
-1763 -1778 0
-1763 -1779 0
-1763 -1780 0
-1763 -1781 0
-1763 -1782 0
-1763 -1783 0
-1763 -1784 0
-1763 -1785 0
-1763 -1786 0
-1763 -1787 0
-1763 -1788 0
-1763 -1789 0
-1763 -1790 0
-1763 -1791 0
-1763 -1792 0
-1763 -1793 0
-1763 -1794 0
-1764 -1765 0
-1764 -1766 0
-1764 -1767 0
-1764 -1768 0
-1764 -1769 0
-1764 -1770 0
-1764 -1771 0
-1764 -1772 0
-1764 -1773 0
-1764 -1774 0
-1764 -1775 0
-1764 -1776 0
-1764 -1777 0
-1764 -1778 0
-1764 -1779 0
-1764 -1780 0
-1764 -1781 0
-1764 -1782 0
-1764 -1783 0
-1764 -1784 0
-1764 -1785 0
-1764 -1786 0
-1764 -1787 0
-1764 -1788 0
-1764 -1789 0
-1764 -1790 0
-1764 -1791 0
-1764 -1792 0
-1764 -1793 0
-1764 -1794 0
-1765 -1766 0
-1765 -1767 0
-1765 -1768 0
-1765 -1769 0
-1765 -1770 0
-1765 -1771 0
-1765 -1772 0
-1765 -1773 0
-1765 -1774 0
-1765 -1775 0
-1765 -1776 0
-1765 -1777 0
-1765 -1778 0
-1765 -1779 0
-1765 -1780 0
-1765 -1781 0
-1765 -1782 0
-1765 -1783 0
-1765 -1784 0
-1765 -1785 0
-1765 -1786 0
-1765 -1787 0
-1765 -1788 0
-1765 -1789 0
-1765 -1790 0
-1765 -1791 0
-1765 -1792 0
-1765 -1793 0
-1765 -1794 0
-1766 -1767 0
-1766 -1768 0
-1766 -1769 0
-1766 -1770 0
-1766 -1771 0
-1766 -1772 0
-1766 -1773 0
-1766 -1774 0
-1766 -1775 0
-1766 -1776 0
-1766 -1777 0
-1766 -1778 0
-1766 -1779 0
-1766 -1780 0
-1766 -1781 0
-1766 -1782 0
-1766 -1783 0
-1766 -1784 0
-1766 -1785 0
-1766 -1786 0
-1766 -1787 0
-1766 -1788 0
-1766 -1789 0
-1766 -1790 0
-1766 -1791 0
-1766 -1792 0
-1766 -1793 0
-1766 -1794 0
-1767 -1768 0
-1767 -1769 0
-1767 -1770 0
-1767 -1771 0
-1767 -1772 0
-1767 -1773 0
-1767 -1774 0
-1767 -1775 0
-1767 -1776 0
-1767 -1777 0
-1767 -1778 0
-1767 -1779 0
-1767 -1780 0
-1767 -1781 0
-1767 -1782 0
-1767 -1783 0
-1767 -1784 0
-1767 -1785 0
-1767 -1786 0
-1767 -1787 0
-1767 -1788 0
-1767 -1789 0
-1767 -1790 0
-1767 -1791 0
-1767 -1792 0
-1767 -1793 0
-1767 -1794 0
-1768 -1769 0
-1768 -1770 0
-1768 -1771 0
-1768 -1772 0
-1768 -1773 0
-1768 -1774 0
-1768 -1775 0
-1768 -1776 0
-1768 -1777 0
-1768 -1778 0
-1768 -1779 0
-1768 -1780 0
-1768 -1781 0
-1768 -1782 0
-1768 -1783 0
-1768 -1784 0
-1768 -1785 0
-1768 -1786 0
-1768 -1787 0
-1768 -1788 0
-1768 -1789 0
-1768 -1790 0
-1768 -1791 0
-1768 -1792 0
-1768 -1793 0
-1768 -1794 0
-1769 -1770 0
-1769 -1771 0
-1769 -1772 0
-1769 -1773 0
-1769 -1774 0
-1769 -1775 0
-1769 -1776 0
-1769 -1777 0
-1769 -1778 0
-1769 -1779 0
-1769 -1780 0
-1769 -1781 0
-1769 -1782 0
-1769 -1783 0
-1769 -1784 0
-1769 -1785 0
-1769 -1786 0
-1769 -1787 0
-1769 -1788 0
-1769 -1789 0
-1769 -1790 0
-1769 -1791 0
-1769 -1792 0
-1769 -1793 0
-1769 -1794 0
-1770 -1771 0
-1770 -1772 0
-1770 -1773 0
-1770 -1774 0
-1770 -1775 0
-1770 -1776 0
-1770 -1777 0
-1770 -1778 0
-1770 -1779 0
-1770 -1780 0
-1770 -1781 0
-1770 -1782 0
-1770 -1783 0
-1770 -1784 0
-1770 -1785 0
-1770 -1786 0
-1770 -1787 0
-1770 -1788 0
-1770 -1789 0
-1770 -1790 0
-1770 -1791 0
-1770 -1792 0
-1770 -1793 0
-1770 -1794 0
-1771 -1772 0
-1771 -1773 0
-1771 -1774 0
-1771 -1775 0
-1771 -1776 0
-1771 -1777 0
-1771 -1778 0
-1771 -1779 0
-1771 -1780 0
-1771 -1781 0
-1771 -1782 0
-1771 -1783 0
-1771 -1784 0
-1771 -1785 0
-1771 -1786 0
-1771 -1787 0
-1771 -1788 0
-1771 -1789 0
-1771 -1790 0
-1771 -1791 0
-1771 -1792 0
-1771 -1793 0
-1771 -1794 0
-1772 -1773 0
-1772 -1774 0
-1772 -1775 0
-1772 -1776 0
-1772 -1777 0
-1772 -1778 0
-1772 -1779 0
-1772 -1780 0
-1772 -1781 0
-1772 -1782 0
-1772 -1783 0
-1772 -1784 0
-1772 -1785 0
-1772 -1786 0
-1772 -1787 0
-1772 -1788 0
-1772 -1789 0
-1772 -1790 0
-1772 -1791 0
-1772 -1792 0
-1772 -1793 0
-1772 -1794 0
-1773 -1774 0
-1773 -1775 0
-1773 -1776 0
-1773 -1777 0
-1773 -1778 0
-1773 -1779 0
-1773 -1780 0
-1773 -1781 0
-1773 -1782 0
-1773 -1783 0
-1773 -1784 0
-1773 -1785 0
-1773 -1786 0
-1773 -1787 0
-1773 -1788 0
-1773 -1789 0
-1773 -1790 0
-1773 -1791 0
-1773 -1792 0
-1773 -1793 0
-1773 -1794 0
-1774 -1775 0
-1774 -1776 0
-1774 -1777 0
-1774 -1778 0
-1774 -1779 0
-1774 -1780 0
-1774 -1781 0
-1774 -1782 0
-1774 -1783 0
-1774 -1784 0
-1774 -1785 0
-1774 -1786 0
-1774 -1787 0
-1774 -1788 0
-1774 -1789 0
-1774 -1790 0
-1774 -1791 0
-1774 -1792 0
-1774 -1793 0
-1774 -1794 0
-1775 -1776 0
-1775 -1777 0
-1775 -1778 0
-1775 -1779 0
-1775 -1780 0
-1775 -1781 0
-1775 -1782 0
-1775 -1783 0
-1775 -1784 0
-1775 -1785 0
-1775 -1786 0
-1775 -1787 0
-1775 -1788 0
-1775 -1789 0
-1775 -1790 0
-1775 -1791 0
-1775 -1792 0
-1775 -1793 0
-1775 -1794 0
-1776 -1777 0
-1776 -1778 0
-1776 -1779 0
-1776 -1780 0
-1776 -1781 0
-1776 -1782 0
-1776 -1783 0
-1776 -1784 0
-1776 -1785 0
-1776 -1786 0
-1776 -1787 0
-1776 -1788 0
-1776 -1789 0
-1776 -1790 0
-1776 -1791 0
-1776 -1792 0
-1776 -1793 0
-1776 -1794 0
-1777 -1778 0
-1777 -1779 0
-1777 -1780 0
-1777 -1781 0
-1777 -1782 0
-1777 -1783 0
-1777 -1784 0
-1777 -1785 0
-1777 -1786 0
-1777 -1787 0
-1777 -1788 0
-1777 -1789 0
-1777 -1790 0
-1777 -1791 0
-1777 -1792 0
-1777 -1793 0
-1777 -1794 0
-1778 -1779 0
-1778 -1780 0
-1778 -1781 0
-1778 -1782 0
-1778 -1783 0
-1778 -1784 0
-1778 -1785 0
-1778 -1786 0
-1778 -1787 0
-1778 -1788 0
-1778 -1789 0
-1778 -1790 0
-1778 -1791 0
-1778 -1792 0
-1778 -1793 0
-1778 -1794 0
-1779 -1780 0
-1779 -1781 0
-1779 -1782 0
-1779 -1783 0
-1779 -1784 0
-1779 -1785 0
-1779 -1786 0
-1779 -1787 0
-1779 -1788 0
-1779 -1789 0
-1779 -1790 0
-1779 -1791 0
-1779 -1792 0
-1779 -1793 0
-1779 -1794 0
-1780 -1781 0
-1780 -1782 0
-1780 -1783 0
-1780 -1784 0
-1780 -1785 0
-1780 -1786 0
-1780 -1787 0
-1780 -1788 0
-1780 -1789 0
-1780 -1790 0
-1780 -1791 0
-1780 -1792 0
-1780 -1793 0
-1780 -1794 0
-1781 -1782 0
-1781 -1783 0
-1781 -1784 0
-1781 -1785 0
-1781 -1786 0
-1781 -1787 0
-1781 -1788 0
-1781 -1789 0
-1781 -1790 0
-1781 -1791 0
-1781 -1792 0
-1781 -1793 0
-1781 -1794 0
-1782 -1783 0
-1782 -1784 0
-1782 -1785 0
-1782 -1786 0
-1782 -1787 0
-1782 -1788 0
-1782 -1789 0
-1782 -1790 0
-1782 -1791 0
-1782 -1792 0
-1782 -1793 0
-1782 -1794 0
-1783 -1784 0
-1783 -1785 0
-1783 -1786 0
-1783 -1787 0
-1783 -1788 0
-1783 -1789 0
-1783 -1790 0
-1783 -1791 0
-1783 -1792 0
-1783 -1793 0
-1783 -1794 0
-1784 -1785 0
-1784 -1786 0
-1784 -1787 0
-1784 -1788 0
-1784 -1789 0
-1784 -1790 0
-1784 -1791 0
-1784 -1792 0
-1784 -1793 0
-1784 -1794 0
-1785 -1786 0
-1785 -1787 0
-1785 -1788 0
-1785 -1789 0
-1785 -1790 0
-1785 -1791 0
-1785 -1792 0
-1785 -1793 0
-1785 -1794 0
-1786 -1787 0
-1786 -1788 0
-1786 -1789 0
-1786 -1790 0
-1786 -1791 0
-1786 -1792 0
-1786 -1793 0
-1786 -1794 0
-1787 -1788 0
-1787 -1789 0
-1787 -1790 0
-1787 -1791 0
-1787 -1792 0
-1787 -1793 0
-1787 -1794 0
-1788 -1789 0
-1788 -1790 0
-1788 -1791 0
-1788 -1792 0
-1788 -1793 0
-1788 -1794 0
-1789 -1790 0
-1789 -1791 0
-1789 -1792 0
-1789 -1793 0
-1789 -1794 0
-1790 -1791 0
-1790 -1792 0
-1790 -1793 0
-1790 -1794 0
-1791 -1792 0
-1791 -1793 0
-1791 -1794 0
-1792 -1793 0
-1792 -1794 0
-1793 -1794 0
-1711 525 0
-1711 772 0
-1711 -575 0
-1711 -576 0
-1711 -577 0
-1711 -578 0
-1711 -579 0
-1711 -580 779 0
-1711 -580 -515 -522 0
-1711 -580 -587 0
-1711 -580 -645 0
-1711 -580 -702 0
-1711 -581 780 0
-1711 -581 -515 -523 0
-1711 -581 -589 0
-1711 -581 -647 0
-1711 -581 -704 0
-1711 -582 781 0
-1711 -582 -515 -524 0
-1711 -582 -591 0
-1711 -582 -649 0
-1711 -582 -706 0
-1711 -583 0
-1712 525 0
-1712 773 0
-1712 -574 0
-1712 -576 0
-1712 -577 0
-1712 -578 0
-1712 -579 0
-1712 -580 779 0
-1712 -580 -516 -522 0
-1712 -580 -595 0
-1712 -580 -653 0
-1712 -580 -710 0
-1712 -581 780 0
-1712 -581 -516 -523 0
-1712 -581 -597 0
-1712 -581 -655 0
-1712 -581 -712 0
-1712 -582 781 0
-1712 -582 -516 -524 0
-1712 -582 -599 0
-1712 -582 -657 0
-1712 -582 -714 0
-1712 -583 0
-1713 525 0
-1713 774 0
-1713 -574 0
-1713 -575 0
-1713 -577 0
-1713 -578 0
-1713 -579 0
-1713 -580 779 0
-1713 -580 -517 -522 0
-1713 -580 -603 0
-1713 -580 -661 0
-1713 -580 -718 0
-1713 -581 780 0
-1713 -581 -517 -523 0
-1713 -581 -605 0
-1713 -581 -663 0
-1713 -581 -720 0
-1713 -582 781 0
-1713 -582 -517 -524 0
-1713 -582 -607 0
-1713 -582 -665 0
-1713 -582 -722 0
-1713 -583 0
-1714 525 0
-1714 775 0
-1714 -574 0
-1714 -575 0
-1714 -576 0
-1714 -578 0
-1714 -579 0
-1714 -580 779 0
-1714 -580 -518 -522 0
-1714 -580 -611 0
-1714 -580 -669 0
-1714 -580 -726 0
-1714 -581 780 0
-1714 -581 -518 -523 0
-1714 -581 -613 0
-1714 -581 -671 0
-1714 -581 -728 0
-1714 -582 781 0
-1714 -582 -518 -524 0
-1714 -582 -615 0
-1714 -582 -673 0
-1714 -582 -730 0
-1714 -583 0
-1715 525 0
-1715 776 0
-1715 -574 0
-1715 -575 0
-1715 -576 0
-1715 -577 0
-1715 -579 0
-1715 -580 779 0
-1715 -580 -519 -522 0
-1715 -580 -619 0
-1715 -580 -677 0
-1715 -580 -734 0
-1715 -581 780 0
-1715 -581 -519 -523 0
-1715 -581 -621 0
-1715 -581 -679 0
-1715 -581 -736 0
-1715 -582 781 0
-1715 -582 -519 -524 0
-1715 -582 -623 0
-1715 -582 -681 0
-1715 -582 -738 0
-1715 -583 0
-1716 525 0
-1716 777 0
-1716 -574 0
-1716 -575 0
-1716 -576 0
-1716 -577 0
-1716 -578 0
-1716 -580 779 0
-1716 -580 -520 -522 0
-1716 -580 -627 0
-1716 -580 -685 0
-1716 -580 -742 0
-1716 -581 780 0
-1716 -581 -520 -523 0
-1716 -581 -629 0
-1716 -581 -687 0
-1716 -581 -744 0
-1716 -582 781 0
-1716 -582 -520 -524 0
-1716 -582 -631 0
-1716 -582 -689 0
-1716 -582 -746 0
-1716 -583 0
-1717 525 0
-1717 772 0
-1717 -634 0
-1717 -635 0
-1717 -636 0
-1717 -637 0
-1717 -638 779 0
-1717 -638 -515 -522 0
-1717 -638 -587 0
-1717 -638 -645 0
-1717 -638 -702 0
-1717 -639 780 0
-1717 -639 -515 -523 0
-1717 -639 -589 0
-1717 -639 -647 0
-1717 -639 -704 0
-1717 -640 781 0
-1717 -640 -515 -524 0
-1717 -640 -591 0
-1717 -640 -649 0
-1717 -640 -706 0
-1717 -641 0
-1718 525 0
-1718 773 0
-1718 -635 0
-1718 -636 0
-1718 -637 0
-1718 -638 779 0
-1718 -638 -516 -522 0
-1718 -638 -595 0
-1718 -638 -653 0
-1718 -638 -710 0
-1718 -639 780 0
-1718 -639 -516 -523 0
-1718 -639 -597 0
-1718 -639 -655 0
-1718 -639 -712 0
-1718 -640 781 0
-1718 -640 -516 -524 0
-1718 -640 -599 0
-1718 -640 -657 0
-1718 -640 -714 0
-1718 -641 0
-1719 525 0
-1719 774 0
-1719 -633 0
-1719 -636 0
-1719 -637 0
-1719 -638 779 0
-1719 -638 -517 -522 0
-1719 -638 -603 0
-1719 -638 -661 0
-1719 -638 -718 0
-1719 -639 780 0
-1719 -639 -517 -523 0
-1719 -639 -605 0
-1719 -639 -663 0
-1719 -639 -720 0
-1719 -640 781 0
-1719 -640 -517 -524 0
-1719 -640 -607 0
-1719 -640 -665 0
-1719 -640 -722 0
-1719 -641 0
-1720 525 0
-1720 775 0
-1720 -633 0
-1720 -634 0
-1720 -637 0
-1720 -638 779 0
-1720 -638 -518 -522 0
-1720 -638 -611 0
-1720 -638 -669 0
-1720 -638 -726 0
-1720 -639 780 0
-1720 -639 -518 -523 0
-1720 -639 -613 0
-1720 -639 -671 0
-1720 -639 -728 0
-1720 -640 781 0
-1720 -640 -518 -524 0
-1720 -640 -615 0
-1720 -640 -673 0
-1720 -640 -730 0
-1720 -641 0
-1721 525 0
-1721 776 0
-1721 -633 0
-1721 -634 0
-1721 -635 0
-1721 -638 779 0
-1721 -638 -519 -522 0
-1721 -638 -619 0
-1721 -638 -677 0
-1721 -638 -734 0
-1721 -639 780 0
-1721 -639 -519 -523 0
-1721 -639 -621 0
-1721 -639 -679 0
-1721 -639 -736 0
-1721 -640 781 0
-1721 -640 -519 -524 0
-1721 -640 -623 0
-1721 -640 -681 0
-1721 -640 -738 0
-1721 -641 0
-1722 525 0
-1722 777 0
-1722 -633 0
-1722 -634 0
-1722 -635 0
-1722 -636 0
-1722 -638 779 0
-1722 -638 -520 -522 0
-1722 -638 -627 0
-1722 -638 -685 0
-1722 -638 -742 0
-1722 -639 780 0
-1722 -639 -520 -523 0
-1722 -639 -629 0
-1722 -639 -687 0
-1722 -639 -744 0
-1722 -640 781 0
-1722 -640 -520 -524 0
-1722 -640 -631 0
-1722 -640 -689 0
-1722 -640 -746 0
-1722 -641 0
-1723 525 0
-1723 772 0
-1723 -692 0
-1723 -693 0
-1723 -694 0
-1723 -695 779 0
-1723 -695 -515 -522 0
-1723 -695 -587 0
-1723 -695 -645 0
-1723 -695 -702 0
-1723 -696 780 0
-1723 -696 -515 -523 0
-1723 -696 -589 0
-1723 -696 -647 0
-1723 -696 -704 0
-1723 -697 781 0
-1723 -697 -515 -524 0
-1723 -697 -591 0
-1723 -697 -649 0
-1723 -697 -706 0
-1723 -698 0
-1724 525 0
-1724 773 0
-1724 -693 0
-1724 -694 0
-1724 -695 779 0
-1724 -695 -516 -522 0
-1724 -695 -595 0
-1724 -695 -653 0
-1724 -695 -710 0
-1724 -696 780 0
-1724 -696 -516 -523 0
-1724 -696 -597 0
-1724 -696 -655 0
-1724 -696 -712 0
-1724 -697 781 0
-1724 -697 -516 -524 0
-1724 -697 -599 0
-1724 -697 -657 0
-1724 -697 -714 0
-1724 -698 0
-1725 525 0
-1725 774 0
-1725 -694 0
-1725 -695 779 0
-1725 -695 -517 -522 0
-1725 -695 -603 0
-1725 -695 -661 0
-1725 -695 -718 0
-1725 -696 780 0
-1725 -696 -517 -523 0
-1725 -696 -605 0
-1725 -696 -663 0
-1725 -696 -720 0
-1725 -697 781 0
-1725 -697 -517 -524 0
-1725 -697 -607 0
-1725 -697 -665 0
-1725 -697 -722 0
-1725 -698 0
-1726 525 0
-1726 775 0
-1726 -691 0
-1726 -695 779 0
-1726 -695 -518 -522 0
-1726 -695 -611 0
-1726 -695 -669 0
-1726 -695 -726 0
-1726 -696 780 0
-1726 -696 -518 -523 0
-1726 -696 -613 0
-1726 -696 -671 0
-1726 -696 -728 0
-1726 -697 781 0
-1726 -697 -518 -524 0
-1726 -697 -615 0
-1726 -697 -673 0
-1726 -697 -730 0
-1726 -698 0
-1727 525 0
-1727 776 0
-1727 -691 0
-1727 -692 0
-1727 -695 779 0
-1727 -695 -519 -522 0
-1727 -695 -619 0
-1727 -695 -677 0
-1727 -695 -734 0
-1727 -696 780 0
-1727 -696 -519 -523 0
-1727 -696 -621 0
-1727 -696 -679 0
-1727 -696 -736 0
-1727 -697 781 0
-1727 -697 -519 -524 0
-1727 -697 -623 0
-1727 -697 -681 0
-1727 -697 -738 0
-1727 -698 0
-1728 525 0
-1728 777 0
-1728 -691 0
-1728 -692 0
-1728 -693 0
-1728 -695 779 0
-1728 -695 -520 -522 0
-1728 -695 -627 0
-1728 -695 -685 0
-1728 -695 -742 0
-1728 -696 780 0
-1728 -696 -520 -523 0
-1728 -696 -629 0
-1728 -696 -687 0
-1728 -696 -744 0
-1728 -697 781 0
-1728 -697 -520 -524 0
-1728 -697 -631 0
-1728 -697 -689 0
-1728 -697 -746 0
-1728 -698 0
-1729 525 0
-1729 772 0
-1729 778 0
-1729 -515 -521 0
-1729 -585 0
-1729 -643 0
-1729 -700 0
-1730 525 0
-1730 773 0
-1730 778 0
-1730 -516 -521 0
-1730 -593 0
-1730 -651 0
-1730 -708 0
-1731 525 0
-1731 774 0
-1731 778 0
-1731 -517 -521 0
-1731 -601 0
-1731 -659 0
-1731 -716 0
-1732 525 0
-1732 775 0
-1732 778 0
-1732 -518 -521 0
-1732 -609 0
-1732 -667 0
-1732 -724 0
-1733 525 0
-1733 776 0
-1733 778 0
-1733 -519 -521 0
-1733 -617 0
-1733 -675 0
-1733 -732 0
-1734 525 0
-1734 777 0
-1734 778 0
-1734 -520 -521 0
-1734 -625 0
-1734 -683 0
-1734 -740 0
-1735 584 0
-1735 831 0
-1735 -516 0
-1735 -517 0
-1735 -518 0
-1735 -519 0
-1735 -520 0
-1735 -521 838 0
-1735 -521 -574 -581 0
-1735 -521 -528 0
-1735 -521 -645 0
-1735 -521 -702 0
-1735 -522 839 0
-1735 -522 -574 -582 0
-1735 -522 -530 0
-1735 -522 -647 0
-1735 -522 -704 0
-1735 -523 840 0
-1735 -523 -574 -583 0
-1735 -523 -532 0
-1735 -523 -649 0
-1735 -523 -706 0
-1735 -524 0
-1736 584 0
-1736 832 0
-1736 -515 0
-1736 -517 0
-1736 -518 0
-1736 -519 0
-1736 -520 0
-1736 -521 838 0
-1736 -521 -575 -581 0
-1736 -521 -536 0
-1736 -521 -653 0
-1736 -521 -710 0
-1736 -522 839 0
-1736 -522 -575 -582 0
-1736 -522 -538 0
-1736 -522 -655 0
-1736 -522 -712 0
-1736 -523 840 0
-1736 -523 -575 -583 0
-1736 -523 -540 0
-1736 -523 -657 0
-1736 -523 -714 0
-1736 -524 0
-1737 584 0
-1737 833 0
-1737 -515 0
-1737 -516 0
-1737 -518 0
-1737 -519 0
-1737 -520 0
-1737 -521 838 0
-1737 -521 -576 -581 0
-1737 -521 -544 0
-1737 -521 -661 0
-1737 -521 -718 0
-1737 -522 839 0
-1737 -522 -576 -582 0
-1737 -522 -546 0
-1737 -522 -663 0
-1737 -522 -720 0
-1737 -523 840 0
-1737 -523 -576 -583 0
-1737 -523 -548 0
-1737 -523 -665 0
-1737 -523 -722 0
-1737 -524 0
-1738 584 0
-1738 834 0
-1738 -515 0
-1738 -516 0
-1738 -517 0
-1738 -519 0
-1738 -520 0
-1738 -521 838 0
-1738 -521 -577 -581 0
-1738 -521 -552 0
-1738 -521 -669 0
-1738 -521 -726 0
-1738 -522 839 0
-1738 -522 -577 -582 0
-1738 -522 -554 0
-1738 -522 -671 0
-1738 -522 -728 0
-1738 -523 840 0
-1738 -523 -577 -583 0
-1738 -523 -556 0
-1738 -523 -673 0
-1738 -523 -730 0
-1738 -524 0
-1739 584 0
-1739 835 0
-1739 -515 0
-1739 -516 0
-1739 -517 0
-1739 -518 0
-1739 -520 0
-1739 -521 838 0
-1739 -521 -578 -581 0
-1739 -521 -560 0
-1739 -521 -677 0
-1739 -521 -734 0
-1739 -522 839 0
-1739 -522 -578 -582 0
-1739 -522 -562 0
-1739 -522 -679 0
-1739 -522 -736 0
-1739 -523 840 0
-1739 -523 -578 -583 0
-1739 -523 -564 0
-1739 -523 -681 0
-1739 -523 -738 0
-1739 -524 0
-1740 584 0
-1740 836 0
-1740 -515 0
-1740 -516 0
-1740 -517 0
-1740 -518 0
-1740 -519 0
-1740 -521 838 0
-1740 -521 -579 -581 0
-1740 -521 -568 0
-1740 -521 -685 0
-1740 -521 -742 0
-1740 -522 839 0
-1740 -522 -579 -582 0
-1740 -522 -570 0
-1740 -522 -687 0
-1740 -522 -744 0
-1740 -523 840 0
-1740 -523 -579 -583 0
-1740 -523 -572 0
-1740 -523 -689 0
-1740 -523 -746 0
-1740 -524 0
-1741 584 0
-1741 831 0
-1741 -634 0
-1741 -635 0
-1741 -636 0
-1741 -637 0
-1741 -638 838 0
-1741 -638 -574 -581 0
-1741 -638 -528 0
-1741 -638 -645 0
-1741 -638 -702 0
-1741 -639 839 0
-1741 -639 -574 -582 0
-1741 -639 -530 0
-1741 -639 -647 0
-1741 -639 -704 0
-1741 -640 840 0
-1741 -640 -574 -583 0
-1741 -640 -532 0
-1741 -640 -649 0
-1741 -640 -706 0
-1741 -641 0
-1742 584 0
-1742 832 0
-1742 -635 0
-1742 -636 0
-1742 -637 0
-1742 -638 838 0
-1742 -638 -575 -581 0
-1742 -638 -536 0
-1742 -638 -653 0
-1742 -638 -710 0
-1742 -639 839 0
-1742 -639 -575 -582 0
-1742 -639 -538 0
-1742 -639 -655 0
-1742 -639 -712 0
-1742 -640 840 0
-1742 -640 -575 -583 0
-1742 -640 -540 0
-1742 -640 -657 0
-1742 -640 -714 0
-1742 -641 0
-1743 584 0
-1743 833 0
-1743 -633 0
-1743 -636 0
-1743 -637 0
-1743 -638 838 0
-1743 -638 -576 -581 0
-1743 -638 -544 0
-1743 -638 -661 0
-1743 -638 -718 0
-1743 -639 839 0
-1743 -639 -576 -582 0
-1743 -639 -546 0
-1743 -639 -663 0
-1743 -639 -720 0
-1743 -640 840 0
-1743 -640 -576 -583 0
-1743 -640 -548 0
-1743 -640 -665 0
-1743 -640 -722 0
-1743 -641 0
-1744 584 0
-1744 834 0
-1744 -633 0
-1744 -634 0
-1744 -637 0
-1744 -638 838 0
-1744 -638 -577 -581 0
-1744 -638 -552 0
-1744 -638 -669 0
-1744 -638 -726 0
-1744 -639 839 0
-1744 -639 -577 -582 0
-1744 -639 -554 0
-1744 -639 -671 0
-1744 -639 -728 0
-1744 -640 840 0
-1744 -640 -577 -583 0
-1744 -640 -556 0
-1744 -640 -673 0
-1744 -640 -730 0
-1744 -641 0
-1745 584 0
-1745 835 0
-1745 -633 0
-1745 -634 0
-1745 -635 0
-1745 -638 838 0
-1745 -638 -578 -581 0
-1745 -638 -560 0
-1745 -638 -677 0
-1745 -638 -734 0
-1745 -639 839 0
-1745 -639 -578 -582 0
-1745 -639 -562 0
-1745 -639 -679 0
-1745 -639 -736 0
-1745 -640 840 0
-1745 -640 -578 -583 0
-1745 -640 -564 0
-1745 -640 -681 0
-1745 -640 -738 0
-1745 -641 0
-1746 584 0
-1746 836 0
-1746 -633 0
-1746 -634 0
-1746 -635 0
-1746 -636 0
-1746 -638 838 0
-1746 -638 -579 -581 0
-1746 -638 -568 0
-1746 -638 -685 0
-1746 -638 -742 0
-1746 -639 839 0
-1746 -639 -579 -582 0
-1746 -639 -570 0
-1746 -639 -687 0
-1746 -639 -744 0
-1746 -640 840 0
-1746 -640 -579 -583 0
-1746 -640 -572 0
-1746 -640 -689 0
-1746 -640 -746 0
-1746 -641 0
-1747 584 0
-1747 831 0
-1747 -692 0
-1747 -693 0
-1747 -694 0
-1747 -695 838 0
-1747 -695 -574 -581 0
-1747 -695 -528 0
-1747 -695 -645 0
-1747 -695 -702 0
-1747 -696 839 0
-1747 -696 -574 -582 0
-1747 -696 -530 0
-1747 -696 -647 0
-1747 -696 -704 0
-1747 -697 840 0
-1747 -697 -574 -583 0
-1747 -697 -532 0
-1747 -697 -649 0
-1747 -697 -706 0
-1747 -698 0
-1748 584 0
-1748 832 0
-1748 -693 0
-1748 -694 0
-1748 -695 838 0
-1748 -695 -575 -581 0
-1748 -695 -536 0
-1748 -695 -653 0
-1748 -695 -710 0
-1748 -696 839 0
-1748 -696 -575 -582 0
-1748 -696 -538 0
-1748 -696 -655 0
-1748 -696 -712 0
-1748 -697 840 0
-1748 -697 -575 -583 0
-1748 -697 -540 0
-1748 -697 -657 0
-1748 -697 -714 0
-1748 -698 0
-1749 584 0
-1749 833 0
-1749 -694 0
-1749 -695 838 0
-1749 -695 -576 -581 0
-1749 -695 -544 0
-1749 -695 -661 0
-1749 -695 -718 0
-1749 -696 839 0
-1749 -696 -576 -582 0
-1749 -696 -546 0
-1749 -696 -663 0
-1749 -696 -720 0
-1749 -697 840 0
-1749 -697 -576 -583 0
-1749 -697 -548 0
-1749 -697 -665 0
-1749 -697 -722 0
-1749 -698 0
-1750 584 0
-1750 834 0
-1750 -691 0
-1750 -695 838 0
-1750 -695 -577 -581 0
-1750 -695 -552 0
-1750 -695 -669 0
-1750 -695 -726 0
-1750 -696 839 0
-1750 -696 -577 -582 0
-1750 -696 -554 0
-1750 -696 -671 0
-1750 -696 -728 0
-1750 -697 840 0
-1750 -697 -577 -583 0
-1750 -697 -556 0
-1750 -697 -673 0
-1750 -697 -730 0
-1750 -698 0
-1751 584 0
-1751 835 0
-1751 -691 0
-1751 -692 0
-1751 -695 838 0
-1751 -695 -578 -581 0
-1751 -695 -560 0
-1751 -695 -677 0
-1751 -695 -734 0
-1751 -696 839 0
-1751 -696 -578 -582 0
-1751 -696 -562 0
-1751 -696 -679 0
-1751 -696 -736 0
-1751 -697 840 0
-1751 -697 -578 -583 0
-1751 -697 -564 0
-1751 -697 -681 0
-1751 -697 -738 0
-1751 -698 0
-1752 584 0
-1752 836 0
-1752 -691 0
-1752 -692 0
-1752 -693 0
-1752 -695 838 0
-1752 -695 -579 -581 0
-1752 -695 -568 0
-1752 -695 -685 0
-1752 -695 -742 0
-1752 -696 839 0
-1752 -696 -579 -582 0
-1752 -696 -570 0
-1752 -696 -687 0
-1752 -696 -744 0
-1752 -697 840 0
-1752 -697 -579 -583 0
-1752 -697 -572 0
-1752 -697 -689 0
-1752 -697 -746 0
-1752 -698 0
-1753 584 0
-1753 831 0
-1753 837 0
-1753 -574 -580 0
-1753 -526 0
-1753 -643 0
-1753 -700 0
-1754 584 0
-1754 832 0
-1754 837 0
-1754 -575 -580 0
-1754 -534 0
-1754 -651 0
-1754 -708 0
-1755 584 0
-1755 833 0
-1755 837 0
-1755 -576 -580 0
-1755 -542 0
-1755 -659 0
-1755 -716 0
-1756 584 0
-1756 834 0
-1756 837 0
-1756 -577 -580 0
-1756 -550 0
-1756 -667 0
-1756 -724 0
-1757 584 0
-1757 835 0
-1757 837 0
-1757 -578 -580 0
-1757 -558 0
-1757 -675 0
-1757 -732 0
-1758 584 0
-1758 836 0
-1758 837 0
-1758 -579 -580 0
-1758 -566 0
-1758 -683 0
-1758 -740 0
-1759 642 0
-1759 890 0
-1759 -517 0
-1759 -518 0
-1759 -519 0
-1759 -520 0
-1759 -521 896 0
-1759 -521 -633 -639 0
-1759 -521 -528 0
-1759 -521 -536 0
-1759 -521 -587 0
-1759 -521 -595 0
-1759 -521 -702 0
-1759 -521 -710 0
-1759 -522 897 0
-1759 -522 -633 -640 0
-1759 -522 -530 0
-1759 -522 -538 0
-1759 -522 -589 0
-1759 -522 -597 0
-1759 -522 -704 0
-1759 -522 -712 0
-1759 -523 898 0
-1759 -523 -633 -641 0
-1759 -523 -532 0
-1759 -523 -540 0
-1759 -523 -591 0
-1759 -523 -599 0
-1759 -523 -706 0
-1759 -523 -714 0
-1759 -524 0
-1760 642 0
-1760 891 0
-1760 -515 0
-1760 -518 0
-1760 -519 0
-1760 -520 0
-1760 -521 896 0
-1760 -521 -634 -639 0
-1760 -521 -536 0
-1760 -521 -544 0
-1760 -521 -595 0
-1760 -521 -603 0
-1760 -521 -710 0
-1760 -521 -718 0
-1760 -522 897 0
-1760 -522 -634 -640 0
-1760 -522 -538 0
-1760 -522 -546 0
-1760 -522 -597 0
-1760 -522 -605 0
-1760 -522 -712 0
-1760 -522 -720 0
-1760 -523 898 0
-1760 -523 -634 -641 0
-1760 -523 -540 0
-1760 -523 -548 0
-1760 -523 -599 0
-1760 -523 -607 0
-1760 -523 -714 0
-1760 -523 -722 0
-1760 -524 0
-1761 642 0
-1761 892 0
-1761 -515 0
-1761 -516 0
-1761 -519 0
-1761 -520 0
-1761 -521 896 0
-1761 -521 -635 -639 0
-1761 -521 -544 0
-1761 -521 -552 0
-1761 -521 -603 0
-1761 -521 -611 0
-1761 -521 -718 0
-1761 -521 -726 0
-1761 -522 897 0
-1761 -522 -635 -640 0
-1761 -522 -546 0
-1761 -522 -554 0
-1761 -522 -605 0
-1761 -522 -613 0
-1761 -522 -720 0
-1761 -522 -728 0
-1761 -523 898 0
-1761 -523 -635 -641 0
-1761 -523 -548 0
-1761 -523 -556 0
-1761 -523 -607 0
-1761 -523 -615 0
-1761 -523 -722 0
-1761 -523 -730 0
-1761 -524 0
-1762 642 0
-1762 893 0
-1762 -515 0
-1762 -516 0
-1762 -517 0
-1762 -520 0
-1762 -521 896 0
-1762 -521 -636 -639 0
-1762 -521 -552 0
-1762 -521 -560 0
-1762 -521 -611 0
-1762 -521 -619 0
-1762 -521 -726 0
-1762 -521 -734 0
-1762 -522 897 0
-1762 -522 -636 -640 0
-1762 -522 -554 0
-1762 -522 -562 0
-1762 -522 -613 0
-1762 -522 -621 0
-1762 -522 -728 0
-1762 -522 -736 0
-1762 -523 898 0
-1762 -523 -636 -641 0
-1762 -523 -556 0
-1762 -523 -564 0
-1762 -523 -615 0
-1762 -523 -623 0
-1762 -523 -730 0
-1762 -523 -738 0
-1762 -524 0
-1763 642 0
-1763 894 0
-1763 -515 0
-1763 -516 0
-1763 -517 0
-1763 -518 0
-1763 -521 896 0
-1763 -521 -637 -639 0
-1763 -521 -560 0
-1763 -521 -568 0
-1763 -521 -619 0
-1763 -521 -627 0
-1763 -521 -734 0
-1763 -521 -742 0
-1763 -522 897 0
-1763 -522 -637 -640 0
-1763 -522 -562 0
-1763 -522 -570 0
-1763 -522 -621 0
-1763 -522 -629 0
-1763 -522 -736 0
-1763 -522 -744 0
-1763 -523 898 0
-1763 -523 -637 -641 0
-1763 -523 -564 0
-1763 -523 -572 0
-1763 -523 -623 0
-1763 -523 -631 0
-1763 -523 -738 0
-1763 -523 -746 0
-1763 -524 0
-1764 642 0
-1764 890 0
-1764 -576 0
-1764 -577 0
-1764 -578 0
-1764 -579 0
-1764 -580 896 0
-1764 -580 -633 -639 0
-1764 -580 -528 0
-1764 -580 -536 0
-1764 -580 -587 0
-1764 -580 -595 0
-1764 -580 -702 0
-1764 -580 -710 0
-1764 -581 897 0
-1764 -581 -633 -640 0
-1764 -581 -530 0
-1764 -581 -538 0
-1764 -581 -589 0
-1764 -581 -597 0
-1764 -581 -704 0
-1764 -581 -712 0
-1764 -582 898 0
-1764 -582 -633 -641 0
-1764 -582 -532 0
-1764 -582 -540 0
-1764 -582 -591 0
-1764 -582 -599 0
-1764 -582 -706 0
-1764 -582 -714 0
-1764 -583 0
-1765 642 0
-1765 891 0
-1765 -574 0
-1765 -577 0
-1765 -578 0
-1765 -579 0
-1765 -580 896 0
-1765 -580 -634 -639 0
-1765 -580 -536 0
-1765 -580 -544 0
-1765 -580 -595 0
-1765 -580 -603 0
-1765 -580 -710 0
-1765 -580 -718 0
-1765 -581 897 0
-1765 -581 -634 -640 0
-1765 -581 -538 0
-1765 -581 -546 0
-1765 -581 -597 0
-1765 -581 -605 0
-1765 -581 -712 0
-1765 -581 -720 0
-1765 -582 898 0
-1765 -582 -634 -641 0
-1765 -582 -540 0
-1765 -582 -548 0
-1765 -582 -599 0
-1765 -582 -607 0
-1765 -582 -714 0
-1765 -582 -722 0
-1765 -583 0
-1766 642 0
-1766 892 0
-1766 -574 0
-1766 -575 0
-1766 -578 0
-1766 -579 0
-1766 -580 896 0
-1766 -580 -635 -639 0
-1766 -580 -544 0
-1766 -580 -552 0
-1766 -580 -603 0
-1766 -580 -611 0
-1766 -580 -718 0
-1766 -580 -726 0
-1766 -581 897 0
-1766 -581 -635 -640 0
-1766 -581 -546 0
-1766 -581 -554 0
-1766 -581 -605 0
-1766 -581 -613 0
-1766 -581 -720 0
-1766 -581 -728 0
-1766 -582 898 0
-1766 -582 -635 -641 0
-1766 -582 -548 0
-1766 -582 -556 0
-1766 -582 -607 0
-1766 -582 -615 0
-1766 -582 -722 0
-1766 -582 -730 0
-1766 -583 0
-1767 642 0
-1767 893 0
-1767 -574 0
-1767 -575 0
-1767 -576 0
-1767 -579 0
-1767 -580 896 0
-1767 -580 -636 -639 0
-1767 -580 -552 0
-1767 -580 -560 0
-1767 -580 -611 0
-1767 -580 -619 0
-1767 -580 -726 0
-1767 -580 -734 0
-1767 -581 897 0
-1767 -581 -636 -640 0
-1767 -581 -554 0
-1767 -581 -562 0
-1767 -581 -613 0
-1767 -581 -621 0
-1767 -581 -728 0
-1767 -581 -736 0
-1767 -582 898 0
-1767 -582 -636 -641 0
-1767 -582 -556 0
-1767 -582 -564 0
-1767 -582 -615 0
-1767 -582 -623 0
-1767 -582 -730 0
-1767 -582 -738 0
-1767 -583 0
-1768 642 0
-1768 894 0
-1768 -574 0
-1768 -575 0
-1768 -576 0
-1768 -577 0
-1768 -580 896 0
-1768 -580 -637 -639 0
-1768 -580 -560 0
-1768 -580 -568 0
-1768 -580 -619 0
-1768 -580 -627 0
-1768 -580 -734 0
-1768 -580 -742 0
-1768 -581 897 0
-1768 -581 -637 -640 0
-1768 -581 -562 0
-1768 -581 -570 0
-1768 -581 -621 0
-1768 -581 -629 0
-1768 -581 -736 0
-1768 -581 -744 0
-1768 -582 898 0
-1768 -582 -637 -641 0
-1768 -582 -564 0
-1768 -582 -572 0
-1768 -582 -623 0
-1768 -582 -631 0
-1768 -582 -738 0
-1768 -582 -746 0
-1768 -583 0
-1769 642 0
-1769 890 0
-1769 -693 0
-1769 -694 0
-1769 -695 896 0
-1769 -695 -633 -639 0
-1769 -695 -528 0
-1769 -695 -536 0
-1769 -695 -587 0
-1769 -695 -595 0
-1769 -695 -702 0
-1769 -695 -710 0
-1769 -696 897 0
-1769 -696 -633 -640 0
-1769 -696 -530 0
-1769 -696 -538 0
-1769 -696 -589 0
-1769 -696 -597 0
-1769 -696 -704 0
-1769 -696 -712 0
-1769 -697 898 0
-1769 -697 -633 -641 0
-1769 -697 -532 0
-1769 -697 -540 0
-1769 -697 -591 0
-1769 -697 -599 0
-1769 -697 -706 0
-1769 -697 -714 0
-1769 -698 0
-1770 642 0
-1770 891 0
-1770 -694 0
-1770 -695 896 0
-1770 -695 -634 -639 0
-1770 -695 -536 0
-1770 -695 -544 0
-1770 -695 -595 0
-1770 -695 -603 0
-1770 -695 -710 0
-1770 -695 -718 0
-1770 -696 897 0
-1770 -696 -634 -640 0
-1770 -696 -538 0
-1770 -696 -546 0
-1770 -696 -597 0
-1770 -696 -605 0
-1770 -696 -712 0
-1770 -696 -720 0
-1770 -697 898 0
-1770 -697 -634 -641 0
-1770 -697 -540 0
-1770 -697 -548 0
-1770 -697 -599 0
-1770 -697 -607 0
-1770 -697 -714 0
-1770 -697 -722 0
-1770 -698 0
-1771 642 0
-1771 892 0
-1771 -695 896 0
-1771 -695 -635 -639 0
-1771 -695 -544 0
-1771 -695 -552 0
-1771 -695 -603 0
-1771 -695 -611 0
-1771 -695 -718 0
-1771 -695 -726 0
-1771 -696 897 0
-1771 -696 -635 -640 0
-1771 -696 -546 0
-1771 -696 -554 0
-1771 -696 -605 0
-1771 -696 -613 0
-1771 -696 -720 0
-1771 -696 -728 0
-1771 -697 898 0
-1771 -697 -635 -641 0
-1771 -697 -548 0
-1771 -697 -556 0
-1771 -697 -607 0
-1771 -697 -615 0
-1771 -697 -722 0
-1771 -697 -730 0
-1771 -698 0
-1772 642 0
-1772 893 0
-1772 -691 0
-1772 -695 896 0
-1772 -695 -636 -639 0
-1772 -695 -552 0
-1772 -695 -560 0
-1772 -695 -611 0
-1772 -695 -619 0
-1772 -695 -726 0
-1772 -695 -734 0
-1772 -696 897 0
-1772 -696 -636 -640 0
-1772 -696 -554 0
-1772 -696 -562 0
-1772 -696 -613 0
-1772 -696 -621 0
-1772 -696 -728 0
-1772 -696 -736 0
-1772 -697 898 0
-1772 -697 -636 -641 0
-1772 -697 -556 0
-1772 -697 -564 0
-1772 -697 -615 0
-1772 -697 -623 0
-1772 -697 -730 0
-1772 -697 -738 0
-1772 -698 0
-1773 642 0
-1773 894 0
-1773 -691 0
-1773 -692 0
-1773 -695 896 0
-1773 -695 -637 -639 0
-1773 -695 -560 0
-1773 -695 -568 0
-1773 -695 -619 0
-1773 -695 -627 0
-1773 -695 -734 0
-1773 -695 -742 0
-1773 -696 897 0
-1773 -696 -637 -640 0
-1773 -696 -562 0
-1773 -696 -570 0
-1773 -696 -621 0
-1773 -696 -629 0
-1773 -696 -736 0
-1773 -696 -744 0
-1773 -697 898 0
-1773 -697 -637 -641 0
-1773 -697 -564 0
-1773 -697 -572 0
-1773 -697 -623 0
-1773 -697 -631 0
-1773 -697 -738 0
-1773 -697 -746 0
-1773 -698 0
-1774 642 0
-1774 890 0
-1774 895 0
-1774 -633 -638 0
-1774 -526 0
-1774 -534 0
-1774 -585 0
-1774 -593 0
-1774 -700 0
-1774 -708 0
-1775 642 0
-1775 891 0
-1775 895 0
-1775 -634 -638 0
-1775 -534 0
-1775 -542 0
-1775 -593 0
-1775 -601 0
-1775 -708 0
-1775 -716 0
-1776 642 0
-1776 892 0
-1776 895 0
-1776 -635 -638 0
-1776 -542 0
-1776 -550 0
-1776 -601 0
-1776 -609 0
-1776 -716 0
-1776 -724 0
-1777 642 0
-1777 893 0
-1777 895 0
-1777 -636 -638 0
-1777 -550 0
-1777 -558 0
-1777 -609 0
-1777 -617 0
-1777 -724 0
-1777 -732 0
-1778 642 0
-1778 894 0
-1778 895 0
-1778 -637 -638 0
-1778 -558 0
-1778 -566 0
-1778 -617 0
-1778 -625 0
-1778 -732 0
-1778 -740 0
-1779 699 0
-1779 948 0
-1779 -518 0
-1779 -519 0
-1779 -520 0
-1779 -521 953 0
-1779 -521 -691 -696 0
-1779 -521 -528 0
-1779 -521 -536 0
-1779 -521 -544 0
-1779 -521 -587 0
-1779 -521 -595 0
-1779 -521 -603 0
-1779 -521 -645 0
-1779 -521 -653 0
-1779 -521 -661 0
-1779 -522 954 0
-1779 -522 -691 -697 0
-1779 -522 -530 0
-1779 -522 -538 0
-1779 -522 -546 0
-1779 -522 -589 0
-1779 -522 -597 0
-1779 -522 -605 0
-1779 -522 -647 0
-1779 -522 -655 0
-1779 -522 -663 0
-1779 -523 955 0
-1779 -523 -691 -698 0
-1779 -523 -532 0
-1779 -523 -540 0
-1779 -523 -548 0
-1779 -523 -591 0
-1779 -523 -599 0
-1779 -523 -607 0
-1779 -523 -649 0
-1779 -523 -657 0
-1779 -523 -665 0
-1779 -524 0
-1780 699 0
-1780 949 0
-1780 -515 0
-1780 -519 0
-1780 -520 0
-1780 -521 953 0
-1780 -521 -692 -696 0
-1780 -521 -536 0
-1780 -521 -544 0
-1780 -521 -552 0
-1780 -521 -595 0
-1780 -521 -603 0
-1780 -521 -611 0
-1780 -521 -653 0
-1780 -521 -661 0
-1780 -521 -669 0
-1780 -522 954 0
-1780 -522 -692 -697 0
-1780 -522 -538 0
-1780 -522 -546 0
-1780 -522 -554 0
-1780 -522 -597 0
-1780 -522 -605 0
-1780 -522 -613 0
-1780 -522 -655 0
-1780 -522 -663 0
-1780 -522 -671 0
-1780 -523 955 0
-1780 -523 -692 -698 0
-1780 -523 -540 0
-1780 -523 -548 0
-1780 -523 -556 0
-1780 -523 -599 0
-1780 -523 -607 0
-1780 -523 -615 0
-1780 -523 -657 0
-1780 -523 -665 0
-1780 -523 -673 0
-1780 -524 0
-1781 699 0
-1781 950 0
-1781 -515 0
-1781 -516 0
-1781 -520 0
-1781 -521 953 0
-1781 -521 -693 -696 0
-1781 -521 -544 0
-1781 -521 -552 0
-1781 -521 -560 0
-1781 -521 -603 0
-1781 -521 -611 0
-1781 -521 -619 0
-1781 -521 -661 0
-1781 -521 -669 0
-1781 -521 -677 0
-1781 -522 954 0
-1781 -522 -693 -697 0
-1781 -522 -546 0
-1781 -522 -554 0
-1781 -522 -562 0
-1781 -522 -605 0
-1781 -522 -613 0
-1781 -522 -621 0
-1781 -522 -663 0
-1781 -522 -671 0
-1781 -522 -679 0
-1781 -523 955 0
-1781 -523 -693 -698 0
-1781 -523 -548 0
-1781 -523 -556 0
-1781 -523 -564 0
-1781 -523 -607 0
-1781 -523 -615 0
-1781 -523 -623 0
-1781 -523 -665 0
-1781 -523 -673 0
-1781 -523 -681 0
-1781 -524 0
-1782 699 0
-1782 951 0
-1782 -515 0
-1782 -516 0
-1782 -517 0
-1782 -521 953 0
-1782 -521 -694 -696 0
-1782 -521 -552 0
-1782 -521 -560 0
-1782 -521 -568 0
-1782 -521 -611 0
-1782 -521 -619 0
-1782 -521 -627 0
-1782 -521 -669 0
-1782 -521 -677 0
-1782 -521 -685 0
-1782 -522 954 0
-1782 -522 -694 -697 0
-1782 -522 -554 0
-1782 -522 -562 0
-1782 -522 -570 0
-1782 -522 -613 0
-1782 -522 -621 0
-1782 -522 -629 0
-1782 -522 -671 0
-1782 -522 -679 0
-1782 -522 -687 0
-1782 -523 955 0
-1782 -523 -694 -698 0
-1782 -523 -556 0
-1782 -523 -564 0
-1782 -523 -572 0
-1782 -523 -615 0
-1782 -523 -623 0
-1782 -523 -631 0
-1782 -523 -673 0
-1782 -523 -681 0
-1782 -523 -689 0
-1782 -524 0
-1783 699 0
-1783 948 0
-1783 -577 0
-1783 -578 0
-1783 -579 0
-1783 -580 953 0
-1783 -580 -691 -696 0
-1783 -580 -528 0
-1783 -580 -536 0
-1783 -580 -544 0
-1783 -580 -587 0
-1783 -580 -595 0
-1783 -580 -603 0
-1783 -580 -645 0
-1783 -580 -653 0
-1783 -580 -661 0
-1783 -581 954 0
-1783 -581 -691 -697 0
-1783 -581 -530 0
-1783 -581 -538 0
-1783 -581 -546 0
-1783 -581 -589 0
-1783 -581 -597 0
-1783 -581 -605 0
-1783 -581 -647 0
-1783 -581 -655 0
-1783 -581 -663 0
-1783 -582 955 0
-1783 -582 -691 -698 0
-1783 -582 -532 0
-1783 -582 -540 0
-1783 -582 -548 0
-1783 -582 -591 0
-1783 -582 -599 0
-1783 -582 -607 0
-1783 -582 -649 0
-1783 -582 -657 0
-1783 -582 -665 0
-1783 -583 0
-1784 699 0
-1784 949 0
-1784 -574 0
-1784 -578 0
-1784 -579 0
-1784 -580 953 0
-1784 -580 -692 -696 0
-1784 -580 -536 0
-1784 -580 -544 0
-1784 -580 -552 0
-1784 -580 -595 0
-1784 -580 -603 0
-1784 -580 -611 0
-1784 -580 -653 0
-1784 -580 -661 0
-1784 -580 -669 0
-1784 -581 954 0
-1784 -581 -692 -697 0
-1784 -581 -538 0
-1784 -581 -546 0
-1784 -581 -554 0
-1784 -581 -597 0
-1784 -581 -605 0
-1784 -581 -613 0
-1784 -581 -655 0
-1784 -581 -663 0
-1784 -581 -671 0
-1784 -582 955 0
-1784 -582 -692 -698 0
-1784 -582 -540 0
-1784 -582 -548 0
-1784 -582 -556 0
-1784 -582 -599 0
-1784 -582 -607 0
-1784 -582 -615 0
-1784 -582 -657 0
-1784 -582 -665 0
-1784 -582 -673 0
-1784 -583 0
-1785 699 0
-1785 950 0
-1785 -574 0
-1785 -575 0
-1785 -579 0
-1785 -580 953 0
-1785 -580 -693 -696 0
-1785 -580 -544 0
-1785 -580 -552 0
-1785 -580 -560 0
-1785 -580 -603 0
-1785 -580 -611 0
-1785 -580 -619 0
-1785 -580 -661 0
-1785 -580 -669 0
-1785 -580 -677 0
-1785 -581 954 0
-1785 -581 -693 -697 0
-1785 -581 -546 0
-1785 -581 -554 0
-1785 -581 -562 0
-1785 -581 -605 0
-1785 -581 -613 0
-1785 -581 -621 0
-1785 -581 -663 0
-1785 -581 -671 0
-1785 -581 -679 0
-1785 -582 955 0
-1785 -582 -693 -698 0
-1785 -582 -548 0
-1785 -582 -556 0
-1785 -582 -564 0
-1785 -582 -607 0
-1785 -582 -615 0
-1785 -582 -623 0
-1785 -582 -665 0
-1785 -582 -673 0
-1785 -582 -681 0
-1785 -583 0
-1786 699 0
-1786 951 0
-1786 -574 0
-1786 -575 0
-1786 -576 0
-1786 -580 953 0
-1786 -580 -694 -696 0
-1786 -580 -552 0
-1786 -580 -560 0
-1786 -580 -568 0
-1786 -580 -611 0
-1786 -580 -619 0
-1786 -580 -627 0
-1786 -580 -669 0
-1786 -580 -677 0
-1786 -580 -685 0
-1786 -581 954 0
-1786 -581 -694 -697 0
-1786 -581 -554 0
-1786 -581 -562 0
-1786 -581 -570 0
-1786 -581 -613 0
-1786 -581 -621 0
-1786 -581 -629 0
-1786 -581 -671 0
-1786 -581 -679 0
-1786 -581 -687 0
-1786 -582 955 0
-1786 -582 -694 -698 0
-1786 -582 -556 0
-1786 -582 -564 0
-1786 -582 -572 0
-1786 -582 -615 0
-1786 -582 -623 0
-1786 -582 -631 0
-1786 -582 -673 0
-1786 -582 -681 0
-1786 -582 -689 0
-1786 -583 0
-1787 699 0
-1787 948 0
-1787 -636 0
-1787 -637 0
-1787 -638 953 0
-1787 -638 -691 -696 0
-1787 -638 -528 0
-1787 -638 -536 0
-1787 -638 -544 0
-1787 -638 -587 0
-1787 -638 -595 0
-1787 -638 -603 0
-1787 -638 -645 0
-1787 -638 -653 0
-1787 -638 -661 0
-1787 -639 954 0
-1787 -639 -691 -697 0
-1787 -639 -530 0
-1787 -639 -538 0
-1787 -639 -546 0
-1787 -639 -589 0
-1787 -639 -597 0
-1787 -639 -605 0
-1787 -639 -647 0
-1787 -639 -655 0
-1787 -639 -663 0
-1787 -640 955 0
-1787 -640 -691 -698 0
-1787 -640 -532 0
-1787 -640 -540 0
-1787 -640 -548 0
-1787 -640 -591 0
-1787 -640 -599 0
-1787 -640 -607 0
-1787 -640 -649 0
-1787 -640 -657 0
-1787 -640 -665 0
-1787 -641 0
-1788 699 0
-1788 949 0
-1788 -637 0
-1788 -638 953 0
-1788 -638 -692 -696 0
-1788 -638 -536 0
-1788 -638 -544 0
-1788 -638 -552 0
-1788 -638 -595 0
-1788 -638 -603 0
-1788 -638 -611 0
-1788 -638 -653 0
-1788 -638 -661 0
-1788 -638 -669 0
-1788 -639 954 0
-1788 -639 -692 -697 0
-1788 -639 -538 0
-1788 -639 -546 0
-1788 -639 -554 0
-1788 -639 -597 0
-1788 -639 -605 0
-1788 -639 -613 0
-1788 -639 -655 0
-1788 -639 -663 0
-1788 -639 -671 0
-1788 -640 955 0
-1788 -640 -692 -698 0
-1788 -640 -540 0
-1788 -640 -548 0
-1788 -640 -556 0
-1788 -640 -599 0
-1788 -640 -607 0
-1788 -640 -615 0
-1788 -640 -657 0
-1788 -640 -665 0
-1788 -640 -673 0
-1788 -641 0
-1789 699 0
-1789 950 0
-1789 -633 0
-1789 -638 953 0
-1789 -638 -693 -696 0
-1789 -638 -544 0
-1789 -638 -552 0
-1789 -638 -560 0
-1789 -638 -603 0
-1789 -638 -611 0
-1789 -638 -619 0
-1789 -638 -661 0
-1789 -638 -669 0
-1789 -638 -677 0
-1789 -639 954 0
-1789 -639 -693 -697 0
-1789 -639 -546 0
-1789 -639 -554 0
-1789 -639 -562 0
-1789 -639 -605 0
-1789 -639 -613 0
-1789 -639 -621 0
-1789 -639 -663 0
-1789 -639 -671 0
-1789 -639 -679 0
-1789 -640 955 0
-1789 -640 -693 -698 0
-1789 -640 -548 0
-1789 -640 -556 0
-1789 -640 -564 0
-1789 -640 -607 0
-1789 -640 -615 0
-1789 -640 -623 0
-1789 -640 -665 0
-1789 -640 -673 0
-1789 -640 -681 0
-1789 -641 0
-1790 699 0
-1790 951 0
-1790 -633 0
-1790 -634 0
-1790 -638 953 0
-1790 -638 -694 -696 0
-1790 -638 -552 0
-1790 -638 -560 0
-1790 -638 -568 0
-1790 -638 -611 0
-1790 -638 -619 0
-1790 -638 -627 0
-1790 -638 -669 0
-1790 -638 -677 0
-1790 -638 -685 0
-1790 -639 954 0
-1790 -639 -694 -697 0
-1790 -639 -554 0
-1790 -639 -562 0
-1790 -639 -570 0
-1790 -639 -613 0
-1790 -639 -621 0
-1790 -639 -629 0
-1790 -639 -671 0
-1790 -639 -679 0
-1790 -639 -687 0
-1790 -640 955 0
-1790 -640 -694 -698 0
-1790 -640 -556 0
-1790 -640 -564 0
-1790 -640 -572 0
-1790 -640 -615 0
-1790 -640 -623 0
-1790 -640 -631 0
-1790 -640 -673 0
-1790 -640 -681 0
-1790 -640 -689 0
-1790 -641 0
-1791 699 0
-1791 948 0
-1791 952 0
-1791 -691 -695 0
-1791 -526 0
-1791 -534 0
-1791 -542 0
-1791 -585 0
-1791 -593 0
-1791 -601 0
-1791 -643 0
-1791 -651 0
-1791 -659 0
-1792 699 0
-1792 949 0
-1792 952 0
-1792 -692 -695 0
-1792 -534 0
-1792 -542 0
-1792 -550 0
-1792 -593 0
-1792 -601 0
-1792 -609 0
-1792 -651 0
-1792 -659 0
-1792 -667 0
-1793 699 0
-1793 950 0
-1793 952 0
-1793 -693 -695 0
-1793 -542 0
-1793 -550 0
-1793 -558 0
-1793 -601 0
-1793 -609 0
-1793 -617 0
-1793 -659 0
-1793 -667 0
-1793 -675 0
-1794 699 0
-1794 951 0
-1794 952 0
-1794 -694 -695 0
-1794 -550 0
-1794 -558 0
-1794 -566 0
-1794 -609 0
-1794 -617 0
-1794 -625 0
-1794 -667 0
-1794 -675 0
-1794 -683 0
-515 772 1711 1712 1713 1714 1715 1716 1717 1718 1719 1720 1721 1722 1723 1724 1725 1726 1727 1728 1729 1730 1731 1732 1733 1734 0
-516 773 1711 1712 1713 1714 1715 1716 1717 1718 1719 1720 1721 1722 1723 1724 1725 1726 1727 1728 1729 1730 1731 1732 1733 1734 0
-517 774 1711 1712 1713 1714 1715 1716 1717 1718 1719 1720 1721 1722 1723 1724 1725 1726 1727 1728 1729 1730 1731 1732 1733 1734 0
-518 775 1711 1712 1713 1714 1715 1716 1717 1718 1719 1720 1721 1722 1723 1724 1725 1726 1727 1728 1729 1730 1731 1732 1733 1734 0
-519 776 1711 1712 1713 1714 1715 1716 1717 1718 1719 1720 1721 1722 1723 1724 1725 1726 1727 1728 1729 1730 1731 1732 1733 1734 0
-520 777 1711 1712 1713 1714 1715 1716 1717 1718 1719 1720 1721 1722 1723 1724 1725 1726 1727 1728 1729 1730 1731 1732 1733 1734 0
-521 778 1711 1712 1713 1714 1715 1716 1717 1718 1719 1720 1721 1722 1723 1724 1725 1726 1727 1728 1729 1730 1731 1732 1733 1734 0
-522 779 1711 1712 1713 1714 1715 1716 1717 1718 1719 1720 1721 1722 1723 1724 1725 1726 1727 1728 1729 1730 1731 1732 1733 1734 0
-523 780 1711 1712 1713 1714 1715 1716 1717 1718 1719 1720 1721 1722 1723 1724 1725 1726 1727 1728 1729 1730 1731 1732 1733 1734 0
-524 781 1711 1712 1713 1714 1715 1716 1717 1718 1719 1720 1721 1722 1723 1724 1725 1726 1727 1728 1729 1730 1731 1732 1733 1734 0
-574 831 1735 1736 1737 1738 1739 1740 1741 1742 1743 1744 1745 1746 1747 1748 1749 1750 1751 1752 1753 1754 1755 1756 1757 1758 0
-575 832 1735 1736 1737 1738 1739 1740 1741 1742 1743 1744 1745 1746 1747 1748 1749 1750 1751 1752 1753 1754 1755 1756 1757 1758 0
-576 833 1735 1736 1737 1738 1739 1740 1741 1742 1743 1744 1745 1746 1747 1748 1749 1750 1751 1752 1753 1754 1755 1756 1757 1758 0
-577 834 1735 1736 1737 1738 1739 1740 1741 1742 1743 1744 1745 1746 1747 1748 1749 1750 1751 1752 1753 1754 1755 1756 1757 1758 0
-578 835 1735 1736 1737 1738 1739 1740 1741 1742 1743 1744 1745 1746 1747 1748 1749 1750 1751 1752 1753 1754 1755 1756 1757 1758 0
-579 836 1735 1736 1737 1738 1739 1740 1741 1742 1743 1744 1745 1746 1747 1748 1749 1750 1751 1752 1753 1754 1755 1756 1757 1758 0
-580 837 1735 1736 1737 1738 1739 1740 1741 1742 1743 1744 1745 1746 1747 1748 1749 1750 1751 1752 1753 1754 1755 1756 1757 1758 0
-581 838 1735 1736 1737 1738 1739 1740 1741 1742 1743 1744 1745 1746 1747 1748 1749 1750 1751 1752 1753 1754 1755 1756 1757 1758 0
-582 839 1735 1736 1737 1738 1739 1740 1741 1742 1743 1744 1745 1746 1747 1748 1749 1750 1751 1752 1753 1754 1755 1756 1757 1758 0
-583 840 1735 1736 1737 1738 1739 1740 1741 1742 1743 1744 1745 1746 1747 1748 1749 1750 1751 1752 1753 1754 1755 1756 1757 1758 0
-633 890 1759 1760 1761 1762 1763 1764 1765 1766 1767 1768 1769 1770 1771 1772 1773 1774 1775 1776 1777 1778 0
-634 891 1759 1760 1761 1762 1763 1764 1765 1766 1767 1768 1769 1770 1771 1772 1773 1774 1775 1776 1777 1778 0
-635 892 1759 1760 1761 1762 1763 1764 1765 1766 1767 1768 1769 1770 1771 1772 1773 1774 1775 1776 1777 1778 0
-636 893 1759 1760 1761 1762 1763 1764 1765 1766 1767 1768 1769 1770 1771 1772 1773 1774 1775 1776 1777 1778 0
-637 894 1759 1760 1761 1762 1763 1764 1765 1766 1767 1768 1769 1770 1771 1772 1773 1774 1775 1776 1777 1778 0
-638 895 1759 1760 1761 1762 1763 1764 1765 1766 1767 1768 1769 1770 1771 1772 1773 1774 1775 1776 1777 1778 0
-639 896 1759 1760 1761 1762 1763 1764 1765 1766 1767 1768 1769 1770 1771 1772 1773 1774 1775 1776 1777 1778 0
-640 897 1759 1760 1761 1762 1763 1764 1765 1766 1767 1768 1769 1770 1771 1772 1773 1774 1775 1776 1777 1778 0
-641 898 1759 1760 1761 1762 1763 1764 1765 1766 1767 1768 1769 1770 1771 1772 1773 1774 1775 1776 1777 1778 0
-691 948 1779 1780 1781 1782 1783 1784 1785 1786 1787 1788 1789 1790 1791 1792 1793 1794 0
-692 949 1779 1780 1781 1782 1783 1784 1785 1786 1787 1788 1789 1790 1791 1792 1793 1794 0
-693 950 1779 1780 1781 1782 1783 1784 1785 1786 1787 1788 1789 1790 1791 1792 1793 1794 0
-694 951 1779 1780 1781 1782 1783 1784 1785 1786 1787 1788 1789 1790 1791 1792 1793 1794 0
-695 952 1779 1780 1781 1782 1783 1784 1785 1786 1787 1788 1789 1790 1791 1792 1793 1794 0
-696 953 1779 1780 1781 1782 1783 1784 1785 1786 1787 1788 1789 1790 1791 1792 1793 1794 0
-697 954 1779 1780 1781 1782 1783 1784 1785 1786 1787 1788 1789 1790 1791 1792 1793 1794 0
-698 955 1779 1780 1781 1782 1783 1784 1785 1786 1787 1788 1789 1790 1791 1792 1793 1794 0
-1795 -1796 0
-1795 -1797 0
-1795 -1798 0
-1795 -1799 0
-1795 -1800 0
-1795 -1801 0
-1795 -1802 0
-1795 -1803 0
-1795 -1804 0
-1795 -1805 0
-1795 -1806 0
-1795 -1807 0
-1795 -1808 0
-1795 -1809 0
-1795 -1810 0
-1795 -1811 0
-1795 -1812 0
-1795 -1813 0
-1795 -1814 0
-1795 -1815 0
-1795 -1816 0
-1795 -1817 0
-1795 -1818 0
-1795 -1819 0
-1795 -1820 0
-1795 -1821 0
-1795 -1822 0
-1795 -1823 0
-1795 -1824 0
-1795 -1825 0
-1795 -1826 0
-1795 -1827 0
-1795 -1828 0
-1795 -1829 0
-1795 -1830 0
-1795 -1831 0
-1795 -1832 0
-1795 -1833 0
-1795 -1834 0
-1795 -1835 0
-1795 -1836 0
-1795 -1837 0
-1795 -1838 0
-1795 -1839 0
-1795 -1840 0
-1795 -1841 0
-1795 -1842 0
-1795 -1843 0
-1795 -1844 0
-1795 -1845 0
-1795 -1846 0
-1795 -1847 0
-1795 -1848 0
-1795 -1849 0
-1795 -1850 0
-1795 -1851 0
-1795 -1852 0
-1795 -1853 0
-1795 -1854 0
-1795 -1855 0
-1795 -1856 0
-1795 -1857 0
-1795 -1858 0
-1795 -1859 0
-1795 -1860 0
-1795 -1861 0
-1795 -1862 0
-1795 -1863 0
-1795 -1864 0
-1795 -1865 0
-1795 -1866 0
-1795 -1867 0
-1795 -1868 0
-1795 -1869 0
-1795 -1870 0
-1795 -1871 0
-1795 -1872 0
-1795 -1873 0
-1795 -1874 0
-1795 -1875 0
-1795 -1876 0
-1795 -1877 0
-1795 -1878 0
-1796 -1797 0
-1796 -1798 0
-1796 -1799 0
-1796 -1800 0
-1796 -1801 0
-1796 -1802 0
-1796 -1803 0
-1796 -1804 0
-1796 -1805 0
-1796 -1806 0
-1796 -1807 0
-1796 -1808 0
-1796 -1809 0
-1796 -1810 0
-1796 -1811 0
-1796 -1812 0
-1796 -1813 0
-1796 -1814 0
-1796 -1815 0
-1796 -1816 0
-1796 -1817 0
-1796 -1818 0
-1796 -1819 0
-1796 -1820 0
-1796 -1821 0
-1796 -1822 0
-1796 -1823 0
-1796 -1824 0
-1796 -1825 0
-1796 -1826 0
-1796 -1827 0
-1796 -1828 0
-1796 -1829 0
-1796 -1830 0
-1796 -1831 0
-1796 -1832 0
-1796 -1833 0
-1796 -1834 0
-1796 -1835 0
-1796 -1836 0
-1796 -1837 0
-1796 -1838 0
-1796 -1839 0
-1796 -1840 0
-1796 -1841 0
-1796 -1842 0
-1796 -1843 0
-1796 -1844 0
-1796 -1845 0
-1796 -1846 0
-1796 -1847 0
-1796 -1848 0
-1796 -1849 0
-1796 -1850 0
-1796 -1851 0
-1796 -1852 0
-1796 -1853 0
-1796 -1854 0
-1796 -1855 0
-1796 -1856 0
-1796 -1857 0
-1796 -1858 0
-1796 -1859 0
-1796 -1860 0
-1796 -1861 0
-1796 -1862 0
-1796 -1863 0
-1796 -1864 0
-1796 -1865 0
-1796 -1866 0
-1796 -1867 0
-1796 -1868 0
-1796 -1869 0
-1796 -1870 0
-1796 -1871 0
-1796 -1872 0
-1796 -1873 0
-1796 -1874 0
-1796 -1875 0
-1796 -1876 0
-1796 -1877 0
-1796 -1878 0
-1797 -1798 0
-1797 -1799 0
-1797 -1800 0
-1797 -1801 0
-1797 -1802 0
-1797 -1803 0
-1797 -1804 0
-1797 -1805 0
-1797 -1806 0
-1797 -1807 0
-1797 -1808 0
-1797 -1809 0
-1797 -1810 0
-1797 -1811 0
-1797 -1812 0
-1797 -1813 0
-1797 -1814 0
-1797 -1815 0
-1797 -1816 0
-1797 -1817 0
-1797 -1818 0
-1797 -1819 0
-1797 -1820 0
-1797 -1821 0
-1797 -1822 0
-1797 -1823 0
-1797 -1824 0
-1797 -1825 0
-1797 -1826 0
-1797 -1827 0
-1797 -1828 0
-1797 -1829 0
-1797 -1830 0
-1797 -1831 0
-1797 -1832 0
-1797 -1833 0
-1797 -1834 0
-1797 -1835 0
-1797 -1836 0
-1797 -1837 0
-1797 -1838 0
-1797 -1839 0
-1797 -1840 0
-1797 -1841 0
-1797 -1842 0
-1797 -1843 0
-1797 -1844 0
-1797 -1845 0
-1797 -1846 0
-1797 -1847 0
-1797 -1848 0
-1797 -1849 0
-1797 -1850 0
-1797 -1851 0
-1797 -1852 0
-1797 -1853 0
-1797 -1854 0
-1797 -1855 0
-1797 -1856 0
-1797 -1857 0
-1797 -1858 0
-1797 -1859 0
-1797 -1860 0
-1797 -1861 0
-1797 -1862 0
-1797 -1863 0
-1797 -1864 0
-1797 -1865 0
-1797 -1866 0
-1797 -1867 0
-1797 -1868 0
-1797 -1869 0
-1797 -1870 0
-1797 -1871 0
-1797 -1872 0
-1797 -1873 0
-1797 -1874 0
-1797 -1875 0
-1797 -1876 0
-1797 -1877 0
-1797 -1878 0
-1798 -1799 0
-1798 -1800 0
-1798 -1801 0
-1798 -1802 0
-1798 -1803 0
-1798 -1804 0
-1798 -1805 0
-1798 -1806 0
-1798 -1807 0
-1798 -1808 0
-1798 -1809 0
-1798 -1810 0
-1798 -1811 0
-1798 -1812 0
-1798 -1813 0
-1798 -1814 0
-1798 -1815 0
-1798 -1816 0
-1798 -1817 0
-1798 -1818 0
-1798 -1819 0
-1798 -1820 0
-1798 -1821 0
-1798 -1822 0
-1798 -1823 0
-1798 -1824 0
-1798 -1825 0
-1798 -1826 0
-1798 -1827 0
-1798 -1828 0
-1798 -1829 0
-1798 -1830 0
-1798 -1831 0
-1798 -1832 0
-1798 -1833 0
-1798 -1834 0
-1798 -1835 0
-1798 -1836 0
-1798 -1837 0
-1798 -1838 0
-1798 -1839 0
-1798 -1840 0
-1798 -1841 0
-1798 -1842 0
-1798 -1843 0
-1798 -1844 0
-1798 -1845 0
-1798 -1846 0
-1798 -1847 0
-1798 -1848 0
-1798 -1849 0
-1798 -1850 0
-1798 -1851 0
-1798 -1852 0
-1798 -1853 0
-1798 -1854 0
-1798 -1855 0
-1798 -1856 0
-1798 -1857 0
-1798 -1858 0
-1798 -1859 0
-1798 -1860 0
-1798 -1861 0
-1798 -1862 0
-1798 -1863 0
-1798 -1864 0
-1798 -1865 0
-1798 -1866 0
-1798 -1867 0
-1798 -1868 0
-1798 -1869 0
-1798 -1870 0
-1798 -1871 0
-1798 -1872 0
-1798 -1873 0
-1798 -1874 0
-1798 -1875 0
-1798 -1876 0
-1798 -1877 0
-1798 -1878 0
-1799 -1800 0
-1799 -1801 0
-1799 -1802 0
-1799 -1803 0
-1799 -1804 0
-1799 -1805 0
-1799 -1806 0
-1799 -1807 0
-1799 -1808 0
-1799 -1809 0
-1799 -1810 0
-1799 -1811 0
-1799 -1812 0
-1799 -1813 0
-1799 -1814 0
-1799 -1815 0
-1799 -1816 0
-1799 -1817 0
-1799 -1818 0
-1799 -1819 0
-1799 -1820 0
-1799 -1821 0
-1799 -1822 0
-1799 -1823 0
-1799 -1824 0
-1799 -1825 0
-1799 -1826 0
-1799 -1827 0
-1799 -1828 0
-1799 -1829 0
-1799 -1830 0
-1799 -1831 0
-1799 -1832 0
-1799 -1833 0
-1799 -1834 0
-1799 -1835 0
-1799 -1836 0
-1799 -1837 0
-1799 -1838 0
-1799 -1839 0
-1799 -1840 0
-1799 -1841 0
-1799 -1842 0
-1799 -1843 0
-1799 -1844 0
-1799 -1845 0
-1799 -1846 0
-1799 -1847 0
-1799 -1848 0
-1799 -1849 0
-1799 -1850 0
-1799 -1851 0
-1799 -1852 0
-1799 -1853 0
-1799 -1854 0
-1799 -1855 0
-1799 -1856 0
-1799 -1857 0
-1799 -1858 0
-1799 -1859 0
-1799 -1860 0
-1799 -1861 0
-1799 -1862 0
-1799 -1863 0
-1799 -1864 0
-1799 -1865 0
-1799 -1866 0
-1799 -1867 0
-1799 -1868 0
-1799 -1869 0
-1799 -1870 0
-1799 -1871 0
-1799 -1872 0
-1799 -1873 0
-1799 -1874 0
-1799 -1875 0
-1799 -1876 0
-1799 -1877 0
-1799 -1878 0
-1800 -1801 0
-1800 -1802 0
-1800 -1803 0
-1800 -1804 0
-1800 -1805 0
-1800 -1806 0
-1800 -1807 0
-1800 -1808 0
-1800 -1809 0
-1800 -1810 0
-1800 -1811 0
-1800 -1812 0
-1800 -1813 0
-1800 -1814 0
-1800 -1815 0
-1800 -1816 0
-1800 -1817 0
-1800 -1818 0
-1800 -1819 0
-1800 -1820 0
-1800 -1821 0
-1800 -1822 0
-1800 -1823 0
-1800 -1824 0
-1800 -1825 0
-1800 -1826 0
-1800 -1827 0
-1800 -1828 0
-1800 -1829 0
-1800 -1830 0
-1800 -1831 0
-1800 -1832 0
-1800 -1833 0
-1800 -1834 0
-1800 -1835 0
-1800 -1836 0
-1800 -1837 0
-1800 -1838 0
-1800 -1839 0
-1800 -1840 0
-1800 -1841 0
-1800 -1842 0
-1800 -1843 0
-1800 -1844 0
-1800 -1845 0
-1800 -1846 0
-1800 -1847 0
-1800 -1848 0
-1800 -1849 0
-1800 -1850 0
-1800 -1851 0
-1800 -1852 0
-1800 -1853 0
-1800 -1854 0
-1800 -1855 0
-1800 -1856 0
-1800 -1857 0
-1800 -1858 0
-1800 -1859 0
-1800 -1860 0
-1800 -1861 0
-1800 -1862 0
-1800 -1863 0
-1800 -1864 0
-1800 -1865 0
-1800 -1866 0
-1800 -1867 0
-1800 -1868 0
-1800 -1869 0
-1800 -1870 0
-1800 -1871 0
-1800 -1872 0
-1800 -1873 0
-1800 -1874 0
-1800 -1875 0
-1800 -1876 0
-1800 -1877 0
-1800 -1878 0
-1801 -1802 0
-1801 -1803 0
-1801 -1804 0
-1801 -1805 0
-1801 -1806 0
-1801 -1807 0
-1801 -1808 0
-1801 -1809 0
-1801 -1810 0
-1801 -1811 0
-1801 -1812 0
-1801 -1813 0
-1801 -1814 0
-1801 -1815 0
-1801 -1816 0
-1801 -1817 0
-1801 -1818 0
-1801 -1819 0
-1801 -1820 0
-1801 -1821 0
-1801 -1822 0
-1801 -1823 0
-1801 -1824 0
-1801 -1825 0
-1801 -1826 0
-1801 -1827 0
-1801 -1828 0
-1801 -1829 0
-1801 -1830 0
-1801 -1831 0
-1801 -1832 0
-1801 -1833 0
-1801 -1834 0
-1801 -1835 0
-1801 -1836 0
-1801 -1837 0
-1801 -1838 0
-1801 -1839 0
-1801 -1840 0
-1801 -1841 0
-1801 -1842 0
-1801 -1843 0
-1801 -1844 0
-1801 -1845 0
-1801 -1846 0
-1801 -1847 0
-1801 -1848 0
-1801 -1849 0
-1801 -1850 0
-1801 -1851 0
-1801 -1852 0
-1801 -1853 0
-1801 -1854 0
-1801 -1855 0
-1801 -1856 0
-1801 -1857 0
-1801 -1858 0
-1801 -1859 0
-1801 -1860 0
-1801 -1861 0
-1801 -1862 0
-1801 -1863 0
-1801 -1864 0
-1801 -1865 0
-1801 -1866 0
-1801 -1867 0
-1801 -1868 0
-1801 -1869 0
-1801 -1870 0
-1801 -1871 0
-1801 -1872 0
-1801 -1873 0
-1801 -1874 0
-1801 -1875 0
-1801 -1876 0
-1801 -1877 0
-1801 -1878 0
-1802 -1803 0
-1802 -1804 0
-1802 -1805 0
-1802 -1806 0
-1802 -1807 0
-1802 -1808 0
-1802 -1809 0
-1802 -1810 0
-1802 -1811 0
-1802 -1812 0
-1802 -1813 0
-1802 -1814 0
-1802 -1815 0
-1802 -1816 0
-1802 -1817 0
-1802 -1818 0
-1802 -1819 0
-1802 -1820 0
-1802 -1821 0
-1802 -1822 0
-1802 -1823 0
-1802 -1824 0
-1802 -1825 0
-1802 -1826 0
-1802 -1827 0
-1802 -1828 0
-1802 -1829 0
-1802 -1830 0
-1802 -1831 0
-1802 -1832 0
-1802 -1833 0
-1802 -1834 0
-1802 -1835 0
-1802 -1836 0
-1802 -1837 0
-1802 -1838 0
-1802 -1839 0
-1802 -1840 0
-1802 -1841 0
-1802 -1842 0
-1802 -1843 0
-1802 -1844 0
-1802 -1845 0
-1802 -1846 0
-1802 -1847 0
-1802 -1848 0
-1802 -1849 0
-1802 -1850 0
-1802 -1851 0
-1802 -1852 0
-1802 -1853 0
-1802 -1854 0
-1802 -1855 0
-1802 -1856 0
-1802 -1857 0
-1802 -1858 0
-1802 -1859 0
-1802 -1860 0
-1802 -1861 0
-1802 -1862 0
-1802 -1863 0
-1802 -1864 0
-1802 -1865 0
-1802 -1866 0
-1802 -1867 0
-1802 -1868 0
-1802 -1869 0
-1802 -1870 0
-1802 -1871 0
-1802 -1872 0
-1802 -1873 0
-1802 -1874 0
-1802 -1875 0
-1802 -1876 0
-1802 -1877 0
-1802 -1878 0
-1803 -1804 0
-1803 -1805 0
-1803 -1806 0
-1803 -1807 0
-1803 -1808 0
-1803 -1809 0
-1803 -1810 0
-1803 -1811 0
-1803 -1812 0
-1803 -1813 0
-1803 -1814 0
-1803 -1815 0
-1803 -1816 0
-1803 -1817 0
-1803 -1818 0
-1803 -1819 0
-1803 -1820 0
-1803 -1821 0
-1803 -1822 0
-1803 -1823 0
-1803 -1824 0
-1803 -1825 0
-1803 -1826 0
-1803 -1827 0
-1803 -1828 0
-1803 -1829 0
-1803 -1830 0
-1803 -1831 0
-1803 -1832 0
-1803 -1833 0
-1803 -1834 0
-1803 -1835 0
-1803 -1836 0
-1803 -1837 0
-1803 -1838 0
-1803 -1839 0
-1803 -1840 0
-1803 -1841 0
-1803 -1842 0
-1803 -1843 0
-1803 -1844 0
-1803 -1845 0
-1803 -1846 0
-1803 -1847 0
-1803 -1848 0
-1803 -1849 0
-1803 -1850 0
-1803 -1851 0
-1803 -1852 0
-1803 -1853 0
-1803 -1854 0
-1803 -1855 0
-1803 -1856 0
-1803 -1857 0
-1803 -1858 0
-1803 -1859 0
-1803 -1860 0
-1803 -1861 0
-1803 -1862 0
-1803 -1863 0
-1803 -1864 0
-1803 -1865 0
-1803 -1866 0
-1803 -1867 0
-1803 -1868 0
-1803 -1869 0
-1803 -1870 0
-1803 -1871 0
-1803 -1872 0
-1803 -1873 0
-1803 -1874 0
-1803 -1875 0
-1803 -1876 0
-1803 -1877 0
-1803 -1878 0
-1804 -1805 0
-1804 -1806 0
-1804 -1807 0
-1804 -1808 0
-1804 -1809 0
-1804 -1810 0
-1804 -1811 0
-1804 -1812 0
-1804 -1813 0
-1804 -1814 0
-1804 -1815 0
-1804 -1816 0
-1804 -1817 0
-1804 -1818 0
-1804 -1819 0
-1804 -1820 0
-1804 -1821 0
-1804 -1822 0
-1804 -1823 0
-1804 -1824 0
-1804 -1825 0
-1804 -1826 0
-1804 -1827 0
-1804 -1828 0
-1804 -1829 0
-1804 -1830 0
-1804 -1831 0
-1804 -1832 0
-1804 -1833 0
-1804 -1834 0
-1804 -1835 0
-1804 -1836 0
-1804 -1837 0
-1804 -1838 0
-1804 -1839 0
-1804 -1840 0
-1804 -1841 0
-1804 -1842 0
-1804 -1843 0
-1804 -1844 0
-1804 -1845 0
-1804 -1846 0
-1804 -1847 0
-1804 -1848 0
-1804 -1849 0
-1804 -1850 0
-1804 -1851 0
-1804 -1852 0
-1804 -1853 0
-1804 -1854 0
-1804 -1855 0
-1804 -1856 0
-1804 -1857 0
-1804 -1858 0
-1804 -1859 0
-1804 -1860 0
-1804 -1861 0
-1804 -1862 0
-1804 -1863 0
-1804 -1864 0
-1804 -1865 0
-1804 -1866 0
-1804 -1867 0
-1804 -1868 0
-1804 -1869 0
-1804 -1870 0
-1804 -1871 0
-1804 -1872 0
-1804 -1873 0
-1804 -1874 0
-1804 -1875 0
-1804 -1876 0
-1804 -1877 0
-1804 -1878 0
-1805 -1806 0
-1805 -1807 0
-1805 -1808 0
-1805 -1809 0
-1805 -1810 0
-1805 -1811 0
-1805 -1812 0
-1805 -1813 0
-1805 -1814 0
-1805 -1815 0
-1805 -1816 0
-1805 -1817 0
-1805 -1818 0
-1805 -1819 0
-1805 -1820 0
-1805 -1821 0
-1805 -1822 0
-1805 -1823 0
-1805 -1824 0
-1805 -1825 0
-1805 -1826 0
-1805 -1827 0
-1805 -1828 0
-1805 -1829 0
-1805 -1830 0
-1805 -1831 0
-1805 -1832 0
-1805 -1833 0
-1805 -1834 0
-1805 -1835 0
-1805 -1836 0
-1805 -1837 0
-1805 -1838 0
-1805 -1839 0
-1805 -1840 0
-1805 -1841 0
-1805 -1842 0
-1805 -1843 0
-1805 -1844 0
-1805 -1845 0
-1805 -1846 0
-1805 -1847 0
-1805 -1848 0
-1805 -1849 0
-1805 -1850 0
-1805 -1851 0
-1805 -1852 0
-1805 -1853 0
-1805 -1854 0
-1805 -1855 0
-1805 -1856 0
-1805 -1857 0
-1805 -1858 0
-1805 -1859 0
-1805 -1860 0
-1805 -1861 0
-1805 -1862 0
-1805 -1863 0
-1805 -1864 0
-1805 -1865 0
-1805 -1866 0
-1805 -1867 0
-1805 -1868 0
-1805 -1869 0
-1805 -1870 0
-1805 -1871 0
-1805 -1872 0
-1805 -1873 0
-1805 -1874 0
-1805 -1875 0
-1805 -1876 0
-1805 -1877 0
-1805 -1878 0
-1806 -1807 0
-1806 -1808 0
-1806 -1809 0
-1806 -1810 0
-1806 -1811 0
-1806 -1812 0
-1806 -1813 0
-1806 -1814 0
-1806 -1815 0
-1806 -1816 0
-1806 -1817 0
-1806 -1818 0
-1806 -1819 0
-1806 -1820 0
-1806 -1821 0
-1806 -1822 0
-1806 -1823 0
-1806 -1824 0
-1806 -1825 0
-1806 -1826 0
-1806 -1827 0
-1806 -1828 0
-1806 -1829 0
-1806 -1830 0
-1806 -1831 0
-1806 -1832 0
-1806 -1833 0
-1806 -1834 0
-1806 -1835 0
-1806 -1836 0
-1806 -1837 0
-1806 -1838 0
-1806 -1839 0
-1806 -1840 0
-1806 -1841 0
-1806 -1842 0
-1806 -1843 0
-1806 -1844 0
-1806 -1845 0
-1806 -1846 0
-1806 -1847 0
-1806 -1848 0
-1806 -1849 0
-1806 -1850 0
-1806 -1851 0
-1806 -1852 0
-1806 -1853 0
-1806 -1854 0
-1806 -1855 0
-1806 -1856 0
-1806 -1857 0
-1806 -1858 0
-1806 -1859 0
-1806 -1860 0
-1806 -1861 0
-1806 -1862 0
-1806 -1863 0
-1806 -1864 0
-1806 -1865 0
-1806 -1866 0
-1806 -1867 0
-1806 -1868 0
-1806 -1869 0
-1806 -1870 0
-1806 -1871 0
-1806 -1872 0
-1806 -1873 0
-1806 -1874 0
-1806 -1875 0
-1806 -1876 0
-1806 -1877 0
-1806 -1878 0
-1807 -1808 0
-1807 -1809 0
-1807 -1810 0
-1807 -1811 0
-1807 -1812 0
-1807 -1813 0
-1807 -1814 0
-1807 -1815 0
-1807 -1816 0
-1807 -1817 0
-1807 -1818 0
-1807 -1819 0
-1807 -1820 0
-1807 -1821 0
-1807 -1822 0
-1807 -1823 0
-1807 -1824 0
-1807 -1825 0
-1807 -1826 0
-1807 -1827 0
-1807 -1828 0
-1807 -1829 0
-1807 -1830 0
-1807 -1831 0
-1807 -1832 0
-1807 -1833 0
-1807 -1834 0
-1807 -1835 0
-1807 -1836 0
-1807 -1837 0
-1807 -1838 0
-1807 -1839 0
-1807 -1840 0
-1807 -1841 0
-1807 -1842 0
-1807 -1843 0
-1807 -1844 0
-1807 -1845 0
-1807 -1846 0
-1807 -1847 0
-1807 -1848 0
-1807 -1849 0
-1807 -1850 0
-1807 -1851 0
-1807 -1852 0
-1807 -1853 0
-1807 -1854 0
-1807 -1855 0
-1807 -1856 0
-1807 -1857 0
-1807 -1858 0
-1807 -1859 0
-1807 -1860 0
-1807 -1861 0
-1807 -1862 0
-1807 -1863 0
-1807 -1864 0
-1807 -1865 0
-1807 -1866 0
-1807 -1867 0
-1807 -1868 0
-1807 -1869 0
-1807 -1870 0
-1807 -1871 0
-1807 -1872 0
-1807 -1873 0
-1807 -1874 0
-1807 -1875 0
-1807 -1876 0
-1807 -1877 0
-1807 -1878 0
-1808 -1809 0
-1808 -1810 0
-1808 -1811 0
-1808 -1812 0
-1808 -1813 0
-1808 -1814 0
-1808 -1815 0
-1808 -1816 0
-1808 -1817 0
-1808 -1818 0
-1808 -1819 0
-1808 -1820 0
-1808 -1821 0
-1808 -1822 0
-1808 -1823 0
-1808 -1824 0
-1808 -1825 0
-1808 -1826 0
-1808 -1827 0
-1808 -1828 0
-1808 -1829 0
-1808 -1830 0
-1808 -1831 0
-1808 -1832 0
-1808 -1833 0
-1808 -1834 0
-1808 -1835 0
-1808 -1836 0
-1808 -1837 0
-1808 -1838 0
-1808 -1839 0
-1808 -1840 0
-1808 -1841 0
-1808 -1842 0
-1808 -1843 0
-1808 -1844 0
-1808 -1845 0
-1808 -1846 0
-1808 -1847 0
-1808 -1848 0
-1808 -1849 0
-1808 -1850 0
-1808 -1851 0
-1808 -1852 0
-1808 -1853 0
-1808 -1854 0
-1808 -1855 0
-1808 -1856 0
-1808 -1857 0
-1808 -1858 0
-1808 -1859 0
-1808 -1860 0
-1808 -1861 0
-1808 -1862 0
-1808 -1863 0
-1808 -1864 0
-1808 -1865 0
-1808 -1866 0
-1808 -1867 0
-1808 -1868 0
-1808 -1869 0
-1808 -1870 0
-1808 -1871 0
-1808 -1872 0
-1808 -1873 0
-1808 -1874 0
-1808 -1875 0
-1808 -1876 0
-1808 -1877 0
-1808 -1878 0
-1809 -1810 0
-1809 -1811 0
-1809 -1812 0
-1809 -1813 0
-1809 -1814 0
-1809 -1815 0
-1809 -1816 0
-1809 -1817 0
-1809 -1818 0
-1809 -1819 0
-1809 -1820 0
-1809 -1821 0
-1809 -1822 0
-1809 -1823 0
-1809 -1824 0
-1809 -1825 0
-1809 -1826 0
-1809 -1827 0
-1809 -1828 0
-1809 -1829 0
-1809 -1830 0
-1809 -1831 0
-1809 -1832 0
-1809 -1833 0
-1809 -1834 0
-1809 -1835 0
-1809 -1836 0
-1809 -1837 0
-1809 -1838 0
-1809 -1839 0
-1809 -1840 0
-1809 -1841 0
-1809 -1842 0
-1809 -1843 0
-1809 -1844 0
-1809 -1845 0
-1809 -1846 0
-1809 -1847 0
-1809 -1848 0
-1809 -1849 0
-1809 -1850 0
-1809 -1851 0
-1809 -1852 0
-1809 -1853 0
-1809 -1854 0
-1809 -1855 0
-1809 -1856 0
-1809 -1857 0
-1809 -1858 0
-1809 -1859 0
-1809 -1860 0
-1809 -1861 0
-1809 -1862 0
-1809 -1863 0
-1809 -1864 0
-1809 -1865 0
-1809 -1866 0
-1809 -1867 0
-1809 -1868 0
-1809 -1869 0
-1809 -1870 0
-1809 -1871 0
-1809 -1872 0
-1809 -1873 0
-1809 -1874 0
-1809 -1875 0
-1809 -1876 0
-1809 -1877 0
-1809 -1878 0
-1810 -1811 0
-1810 -1812 0
-1810 -1813 0
-1810 -1814 0
-1810 -1815 0
-1810 -1816 0
-1810 -1817 0
-1810 -1818 0
-1810 -1819 0
-1810 -1820 0
-1810 -1821 0
-1810 -1822 0
-1810 -1823 0
-1810 -1824 0
-1810 -1825 0
-1810 -1826 0
-1810 -1827 0
-1810 -1828 0
-1810 -1829 0
-1810 -1830 0
-1810 -1831 0
-1810 -1832 0
-1810 -1833 0
-1810 -1834 0
-1810 -1835 0
-1810 -1836 0
-1810 -1837 0
-1810 -1838 0
-1810 -1839 0
-1810 -1840 0
-1810 -1841 0
-1810 -1842 0
-1810 -1843 0
-1810 -1844 0
-1810 -1845 0
-1810 -1846 0
-1810 -1847 0
-1810 -1848 0
-1810 -1849 0
-1810 -1850 0
-1810 -1851 0
-1810 -1852 0
-1810 -1853 0
-1810 -1854 0
-1810 -1855 0
-1810 -1856 0
-1810 -1857 0
-1810 -1858 0
-1810 -1859 0
-1810 -1860 0
-1810 -1861 0
-1810 -1862 0
-1810 -1863 0
-1810 -1864 0
-1810 -1865 0
-1810 -1866 0
-1810 -1867 0
-1810 -1868 0
-1810 -1869 0
-1810 -1870 0
-1810 -1871 0
-1810 -1872 0
-1810 -1873 0
-1810 -1874 0
-1810 -1875 0
-1810 -1876 0
-1810 -1877 0
-1810 -1878 0
-1811 -1812 0
-1811 -1813 0
-1811 -1814 0
-1811 -1815 0
-1811 -1816 0
-1811 -1817 0
-1811 -1818 0
-1811 -1819 0
-1811 -1820 0
-1811 -1821 0
-1811 -1822 0
-1811 -1823 0
-1811 -1824 0
-1811 -1825 0
-1811 -1826 0
-1811 -1827 0
-1811 -1828 0
-1811 -1829 0
-1811 -1830 0
-1811 -1831 0
-1811 -1832 0
-1811 -1833 0
-1811 -1834 0
-1811 -1835 0
-1811 -1836 0
-1811 -1837 0
-1811 -1838 0
-1811 -1839 0
-1811 -1840 0
-1811 -1841 0
-1811 -1842 0
-1811 -1843 0
-1811 -1844 0
-1811 -1845 0
-1811 -1846 0
-1811 -1847 0
-1811 -1848 0
-1811 -1849 0
-1811 -1850 0
-1811 -1851 0
-1811 -1852 0
-1811 -1853 0
-1811 -1854 0
-1811 -1855 0
-1811 -1856 0
-1811 -1857 0
-1811 -1858 0
-1811 -1859 0
-1811 -1860 0
-1811 -1861 0
-1811 -1862 0
-1811 -1863 0
-1811 -1864 0
-1811 -1865 0
-1811 -1866 0
-1811 -1867 0
-1811 -1868 0
-1811 -1869 0
-1811 -1870 0
-1811 -1871 0
-1811 -1872 0
-1811 -1873 0
-1811 -1874 0
-1811 -1875 0
-1811 -1876 0
-1811 -1877 0
-1811 -1878 0
-1812 -1813 0
-1812 -1814 0
-1812 -1815 0
-1812 -1816 0
-1812 -1817 0
-1812 -1818 0
-1812 -1819 0
-1812 -1820 0
-1812 -1821 0
-1812 -1822 0
-1812 -1823 0
-1812 -1824 0
-1812 -1825 0
-1812 -1826 0
-1812 -1827 0
-1812 -1828 0
-1812 -1829 0
-1812 -1830 0
-1812 -1831 0
-1812 -1832 0
-1812 -1833 0
-1812 -1834 0
-1812 -1835 0
-1812 -1836 0
-1812 -1837 0
-1812 -1838 0
-1812 -1839 0
-1812 -1840 0
-1812 -1841 0
-1812 -1842 0
-1812 -1843 0
-1812 -1844 0
-1812 -1845 0
-1812 -1846 0
-1812 -1847 0
-1812 -1848 0
-1812 -1849 0
-1812 -1850 0
-1812 -1851 0
-1812 -1852 0
-1812 -1853 0
-1812 -1854 0
-1812 -1855 0
-1812 -1856 0
-1812 -1857 0
-1812 -1858 0
-1812 -1859 0
-1812 -1860 0
-1812 -1861 0
-1812 -1862 0
-1812 -1863 0
-1812 -1864 0
-1812 -1865 0
-1812 -1866 0
-1812 -1867 0
-1812 -1868 0
-1812 -1869 0
-1812 -1870 0
-1812 -1871 0
-1812 -1872 0
-1812 -1873 0
-1812 -1874 0
-1812 -1875 0
-1812 -1876 0
-1812 -1877 0
-1812 -1878 0
-1813 -1814 0
-1813 -1815 0
-1813 -1816 0
-1813 -1817 0
-1813 -1818 0
-1813 -1819 0
-1813 -1820 0
-1813 -1821 0
-1813 -1822 0
-1813 -1823 0
-1813 -1824 0
-1813 -1825 0
-1813 -1826 0
-1813 -1827 0
-1813 -1828 0
-1813 -1829 0
-1813 -1830 0
-1813 -1831 0
-1813 -1832 0
-1813 -1833 0
-1813 -1834 0
-1813 -1835 0
-1813 -1836 0
-1813 -1837 0
-1813 -1838 0
-1813 -1839 0
-1813 -1840 0
-1813 -1841 0
-1813 -1842 0
-1813 -1843 0
-1813 -1844 0
-1813 -1845 0
-1813 -1846 0
-1813 -1847 0
-1813 -1848 0
-1813 -1849 0
-1813 -1850 0
-1813 -1851 0
-1813 -1852 0
-1813 -1853 0
-1813 -1854 0
-1813 -1855 0
-1813 -1856 0
-1813 -1857 0
-1813 -1858 0
-1813 -1859 0
-1813 -1860 0
-1813 -1861 0
-1813 -1862 0
-1813 -1863 0
-1813 -1864 0
-1813 -1865 0
-1813 -1866 0
-1813 -1867 0
-1813 -1868 0
-1813 -1869 0
-1813 -1870 0
-1813 -1871 0
-1813 -1872 0
-1813 -1873 0
-1813 -1874 0
-1813 -1875 0
-1813 -1876 0
-1813 -1877 0
-1813 -1878 0
-1814 -1815 0
-1814 -1816 0
-1814 -1817 0
-1814 -1818 0
-1814 -1819 0
-1814 -1820 0
-1814 -1821 0
-1814 -1822 0
-1814 -1823 0
-1814 -1824 0
-1814 -1825 0
-1814 -1826 0
-1814 -1827 0
-1814 -1828 0
-1814 -1829 0
-1814 -1830 0
-1814 -1831 0
-1814 -1832 0
-1814 -1833 0
-1814 -1834 0
-1814 -1835 0
-1814 -1836 0
-1814 -1837 0
-1814 -1838 0
-1814 -1839 0
-1814 -1840 0
-1814 -1841 0
-1814 -1842 0
-1814 -1843 0
-1814 -1844 0
-1814 -1845 0
-1814 -1846 0
-1814 -1847 0
-1814 -1848 0
-1814 -1849 0
-1814 -1850 0
-1814 -1851 0
-1814 -1852 0
-1814 -1853 0
-1814 -1854 0
-1814 -1855 0
-1814 -1856 0
-1814 -1857 0
-1814 -1858 0
-1814 -1859 0
-1814 -1860 0
-1814 -1861 0
-1814 -1862 0
-1814 -1863 0
-1814 -1864 0
-1814 -1865 0
-1814 -1866 0
-1814 -1867 0
-1814 -1868 0
-1814 -1869 0
-1814 -1870 0
-1814 -1871 0
-1814 -1872 0
-1814 -1873 0
-1814 -1874 0
-1814 -1875 0
-1814 -1876 0
-1814 -1877 0
-1814 -1878 0
-1815 -1816 0
-1815 -1817 0
-1815 -1818 0
-1815 -1819 0
-1815 -1820 0
-1815 -1821 0
-1815 -1822 0
-1815 -1823 0
-1815 -1824 0
-1815 -1825 0
-1815 -1826 0
-1815 -1827 0
-1815 -1828 0
-1815 -1829 0
-1815 -1830 0
-1815 -1831 0
-1815 -1832 0
-1815 -1833 0
-1815 -1834 0
-1815 -1835 0
-1815 -1836 0
-1815 -1837 0
-1815 -1838 0
-1815 -1839 0
-1815 -1840 0
-1815 -1841 0
-1815 -1842 0
-1815 -1843 0
-1815 -1844 0
-1815 -1845 0
-1815 -1846 0
-1815 -1847 0
-1815 -1848 0
-1815 -1849 0
-1815 -1850 0
-1815 -1851 0
-1815 -1852 0
-1815 -1853 0
-1815 -1854 0
-1815 -1855 0
-1815 -1856 0
-1815 -1857 0
-1815 -1858 0
-1815 -1859 0
-1815 -1860 0
-1815 -1861 0
-1815 -1862 0
-1815 -1863 0
-1815 -1864 0
-1815 -1865 0
-1815 -1866 0
-1815 -1867 0
-1815 -1868 0
-1815 -1869 0
-1815 -1870 0
-1815 -1871 0
-1815 -1872 0
-1815 -1873 0
-1815 -1874 0
-1815 -1875 0
-1815 -1876 0
-1815 -1877 0
-1815 -1878 0
-1816 -1817 0
-1816 -1818 0
-1816 -1819 0
-1816 -1820 0
-1816 -1821 0
-1816 -1822 0
-1816 -1823 0
-1816 -1824 0
-1816 -1825 0
-1816 -1826 0
-1816 -1827 0
-1816 -1828 0
-1816 -1829 0
-1816 -1830 0
-1816 -1831 0
-1816 -1832 0
-1816 -1833 0
-1816 -1834 0
-1816 -1835 0
-1816 -1836 0
-1816 -1837 0
-1816 -1838 0
-1816 -1839 0
-1816 -1840 0
-1816 -1841 0
-1816 -1842 0
-1816 -1843 0
-1816 -1844 0
-1816 -1845 0
-1816 -1846 0
-1816 -1847 0
-1816 -1848 0
-1816 -1849 0
-1816 -1850 0
-1816 -1851 0
-1816 -1852 0
-1816 -1853 0
-1816 -1854 0
-1816 -1855 0
-1816 -1856 0
-1816 -1857 0
-1816 -1858 0
-1816 -1859 0
-1816 -1860 0
-1816 -1861 0
-1816 -1862 0
-1816 -1863 0
-1816 -1864 0
-1816 -1865 0
-1816 -1866 0
-1816 -1867 0
-1816 -1868 0
-1816 -1869 0
-1816 -1870 0
-1816 -1871 0
-1816 -1872 0
-1816 -1873 0
-1816 -1874 0
-1816 -1875 0
-1816 -1876 0
-1816 -1877 0
-1816 -1878 0
-1817 -1818 0
-1817 -1819 0
-1817 -1820 0
-1817 -1821 0
-1817 -1822 0
-1817 -1823 0
-1817 -1824 0
-1817 -1825 0
-1817 -1826 0
-1817 -1827 0
-1817 -1828 0
-1817 -1829 0
-1817 -1830 0
-1817 -1831 0
-1817 -1832 0
-1817 -1833 0
-1817 -1834 0
-1817 -1835 0
-1817 -1836 0
-1817 -1837 0
-1817 -1838 0
-1817 -1839 0
-1817 -1840 0
-1817 -1841 0
-1817 -1842 0
-1817 -1843 0
-1817 -1844 0
-1817 -1845 0
-1817 -1846 0
-1817 -1847 0
-1817 -1848 0
-1817 -1849 0
-1817 -1850 0
-1817 -1851 0
-1817 -1852 0
-1817 -1853 0
-1817 -1854 0
-1817 -1855 0
-1817 -1856 0
-1817 -1857 0
-1817 -1858 0
-1817 -1859 0
-1817 -1860 0
-1817 -1861 0
-1817 -1862 0
-1817 -1863 0
-1817 -1864 0
-1817 -1865 0
-1817 -1866 0
-1817 -1867 0
-1817 -1868 0
-1817 -1869 0
-1817 -1870 0
-1817 -1871 0
-1817 -1872 0
-1817 -1873 0
-1817 -1874 0
-1817 -1875 0
-1817 -1876 0
-1817 -1877 0
-1817 -1878 0
-1818 -1819 0
-1818 -1820 0
-1818 -1821 0
-1818 -1822 0
-1818 -1823 0
-1818 -1824 0
-1818 -1825 0
-1818 -1826 0
-1818 -1827 0
-1818 -1828 0
-1818 -1829 0
-1818 -1830 0
-1818 -1831 0
-1818 -1832 0
-1818 -1833 0
-1818 -1834 0
-1818 -1835 0
-1818 -1836 0
-1818 -1837 0
-1818 -1838 0
-1818 -1839 0
-1818 -1840 0
-1818 -1841 0
-1818 -1842 0
-1818 -1843 0
-1818 -1844 0
-1818 -1845 0
-1818 -1846 0
-1818 -1847 0
-1818 -1848 0
-1818 -1849 0
-1818 -1850 0
-1818 -1851 0
-1818 -1852 0
-1818 -1853 0
-1818 -1854 0
-1818 -1855 0
-1818 -1856 0
-1818 -1857 0
-1818 -1858 0
-1818 -1859 0
-1818 -1860 0
-1818 -1861 0
-1818 -1862 0
-1818 -1863 0
-1818 -1864 0
-1818 -1865 0
-1818 -1866 0
-1818 -1867 0
-1818 -1868 0
-1818 -1869 0
-1818 -1870 0
-1818 -1871 0
-1818 -1872 0
-1818 -1873 0
-1818 -1874 0
-1818 -1875 0
-1818 -1876 0
-1818 -1877 0
-1818 -1878 0
-1819 -1820 0
-1819 -1821 0
-1819 -1822 0
-1819 -1823 0
-1819 -1824 0
-1819 -1825 0
-1819 -1826 0
-1819 -1827 0
-1819 -1828 0
-1819 -1829 0
-1819 -1830 0
-1819 -1831 0
-1819 -1832 0
-1819 -1833 0
-1819 -1834 0
-1819 -1835 0
-1819 -1836 0
-1819 -1837 0
-1819 -1838 0
-1819 -1839 0
-1819 -1840 0
-1819 -1841 0
-1819 -1842 0
-1819 -1843 0
-1819 -1844 0
-1819 -1845 0
-1819 -1846 0
-1819 -1847 0
-1819 -1848 0
-1819 -1849 0
-1819 -1850 0
-1819 -1851 0
-1819 -1852 0
-1819 -1853 0
-1819 -1854 0
-1819 -1855 0
-1819 -1856 0
-1819 -1857 0
-1819 -1858 0
-1819 -1859 0
-1819 -1860 0
-1819 -1861 0
-1819 -1862 0
-1819 -1863 0
-1819 -1864 0
-1819 -1865 0
-1819 -1866 0
-1819 -1867 0
-1819 -1868 0
-1819 -1869 0
-1819 -1870 0
-1819 -1871 0
-1819 -1872 0
-1819 -1873 0
-1819 -1874 0
-1819 -1875 0
-1819 -1876 0
-1819 -1877 0
-1819 -1878 0
-1820 -1821 0
-1820 -1822 0
-1820 -1823 0
-1820 -1824 0
-1820 -1825 0
-1820 -1826 0
-1820 -1827 0
-1820 -1828 0
-1820 -1829 0
-1820 -1830 0
-1820 -1831 0
-1820 -1832 0
-1820 -1833 0
-1820 -1834 0
-1820 -1835 0
-1820 -1836 0
-1820 -1837 0
-1820 -1838 0
-1820 -1839 0
-1820 -1840 0
-1820 -1841 0
-1820 -1842 0
-1820 -1843 0
-1820 -1844 0
-1820 -1845 0
-1820 -1846 0
-1820 -1847 0
-1820 -1848 0
-1820 -1849 0
-1820 -1850 0
-1820 -1851 0
-1820 -1852 0
-1820 -1853 0
-1820 -1854 0
-1820 -1855 0
-1820 -1856 0
-1820 -1857 0
-1820 -1858 0
-1820 -1859 0
-1820 -1860 0
-1820 -1861 0
-1820 -1862 0
-1820 -1863 0
-1820 -1864 0
-1820 -1865 0
-1820 -1866 0
-1820 -1867 0
-1820 -1868 0
-1820 -1869 0
-1820 -1870 0
-1820 -1871 0
-1820 -1872 0
-1820 -1873 0
-1820 -1874 0
-1820 -1875 0
-1820 -1876 0
-1820 -1877 0
-1820 -1878 0
-1821 -1822 0
-1821 -1823 0
-1821 -1824 0
-1821 -1825 0
-1821 -1826 0
-1821 -1827 0
-1821 -1828 0
-1821 -1829 0
-1821 -1830 0
-1821 -1831 0
-1821 -1832 0
-1821 -1833 0
-1821 -1834 0
-1821 -1835 0
-1821 -1836 0
-1821 -1837 0
-1821 -1838 0
-1821 -1839 0
-1821 -1840 0
-1821 -1841 0
-1821 -1842 0
-1821 -1843 0
-1821 -1844 0
-1821 -1845 0
-1821 -1846 0
-1821 -1847 0
-1821 -1848 0
-1821 -1849 0
-1821 -1850 0
-1821 -1851 0
-1821 -1852 0
-1821 -1853 0
-1821 -1854 0
-1821 -1855 0
-1821 -1856 0
-1821 -1857 0
-1821 -1858 0
-1821 -1859 0
-1821 -1860 0
-1821 -1861 0
-1821 -1862 0
-1821 -1863 0
-1821 -1864 0
-1821 -1865 0
-1821 -1866 0
-1821 -1867 0
-1821 -1868 0
-1821 -1869 0
-1821 -1870 0
-1821 -1871 0
-1821 -1872 0
-1821 -1873 0
-1821 -1874 0
-1821 -1875 0
-1821 -1876 0
-1821 -1877 0
-1821 -1878 0
-1822 -1823 0
-1822 -1824 0
-1822 -1825 0
-1822 -1826 0
-1822 -1827 0
-1822 -1828 0
-1822 -1829 0
-1822 -1830 0
-1822 -1831 0
-1822 -1832 0
-1822 -1833 0
-1822 -1834 0
-1822 -1835 0
-1822 -1836 0
-1822 -1837 0
-1822 -1838 0
-1822 -1839 0
-1822 -1840 0
-1822 -1841 0
-1822 -1842 0
-1822 -1843 0
-1822 -1844 0
-1822 -1845 0
-1822 -1846 0
-1822 -1847 0
-1822 -1848 0
-1822 -1849 0
-1822 -1850 0
-1822 -1851 0
-1822 -1852 0
-1822 -1853 0
-1822 -1854 0
-1822 -1855 0
-1822 -1856 0
-1822 -1857 0
-1822 -1858 0
-1822 -1859 0
-1822 -1860 0
-1822 -1861 0
-1822 -1862 0
-1822 -1863 0
-1822 -1864 0
-1822 -1865 0
-1822 -1866 0
-1822 -1867 0
-1822 -1868 0
-1822 -1869 0
-1822 -1870 0
-1822 -1871 0
-1822 -1872 0
-1822 -1873 0
-1822 -1874 0
-1822 -1875 0
-1822 -1876 0
-1822 -1877 0
-1822 -1878 0
-1823 -1824 0
-1823 -1825 0
-1823 -1826 0
-1823 -1827 0
-1823 -1828 0
-1823 -1829 0
-1823 -1830 0
-1823 -1831 0
-1823 -1832 0
-1823 -1833 0
-1823 -1834 0
-1823 -1835 0
-1823 -1836 0
-1823 -1837 0
-1823 -1838 0
-1823 -1839 0
-1823 -1840 0
-1823 -1841 0
-1823 -1842 0
-1823 -1843 0
-1823 -1844 0
-1823 -1845 0
-1823 -1846 0
-1823 -1847 0
-1823 -1848 0
-1823 -1849 0
-1823 -1850 0
-1823 -1851 0
-1823 -1852 0
-1823 -1853 0
-1823 -1854 0
-1823 -1855 0
-1823 -1856 0
-1823 -1857 0
-1823 -1858 0
-1823 -1859 0
-1823 -1860 0
-1823 -1861 0
-1823 -1862 0
-1823 -1863 0
-1823 -1864 0
-1823 -1865 0
-1823 -1866 0
-1823 -1867 0
-1823 -1868 0
-1823 -1869 0
-1823 -1870 0
-1823 -1871 0
-1823 -1872 0
-1823 -1873 0
-1823 -1874 0
-1823 -1875 0
-1823 -1876 0
-1823 -1877 0
-1823 -1878 0
-1824 -1825 0
-1824 -1826 0
-1824 -1827 0
-1824 -1828 0
-1824 -1829 0
-1824 -1830 0
-1824 -1831 0
-1824 -1832 0
-1824 -1833 0
-1824 -1834 0
-1824 -1835 0
-1824 -1836 0
-1824 -1837 0
-1824 -1838 0
-1824 -1839 0
-1824 -1840 0
-1824 -1841 0
-1824 -1842 0
-1824 -1843 0
-1824 -1844 0
-1824 -1845 0
-1824 -1846 0
-1824 -1847 0
-1824 -1848 0
-1824 -1849 0
-1824 -1850 0
-1824 -1851 0
-1824 -1852 0
-1824 -1853 0
-1824 -1854 0
-1824 -1855 0
-1824 -1856 0
-1824 -1857 0
-1824 -1858 0
-1824 -1859 0
-1824 -1860 0
-1824 -1861 0
-1824 -1862 0
-1824 -1863 0
-1824 -1864 0
-1824 -1865 0
-1824 -1866 0
-1824 -1867 0
-1824 -1868 0
-1824 -1869 0
-1824 -1870 0
-1824 -1871 0
-1824 -1872 0
-1824 -1873 0
-1824 -1874 0
-1824 -1875 0
-1824 -1876 0
-1824 -1877 0
-1824 -1878 0
-1825 -1826 0
-1825 -1827 0
-1825 -1828 0
-1825 -1829 0
-1825 -1830 0
-1825 -1831 0
-1825 -1832 0
-1825 -1833 0
-1825 -1834 0
-1825 -1835 0
-1825 -1836 0
-1825 -1837 0
-1825 -1838 0
-1825 -1839 0
-1825 -1840 0
-1825 -1841 0
-1825 -1842 0
-1825 -1843 0
-1825 -1844 0
-1825 -1845 0
-1825 -1846 0
-1825 -1847 0
-1825 -1848 0
-1825 -1849 0
-1825 -1850 0
-1825 -1851 0
-1825 -1852 0
-1825 -1853 0
-1825 -1854 0
-1825 -1855 0
-1825 -1856 0
-1825 -1857 0
-1825 -1858 0
-1825 -1859 0
-1825 -1860 0
-1825 -1861 0
-1825 -1862 0
-1825 -1863 0
-1825 -1864 0
-1825 -1865 0
-1825 -1866 0
-1825 -1867 0
-1825 -1868 0
-1825 -1869 0
-1825 -1870 0
-1825 -1871 0
-1825 -1872 0
-1825 -1873 0
-1825 -1874 0
-1825 -1875 0
-1825 -1876 0
-1825 -1877 0
-1825 -1878 0
-1826 -1827 0
-1826 -1828 0
-1826 -1829 0
-1826 -1830 0
-1826 -1831 0
-1826 -1832 0
-1826 -1833 0
-1826 -1834 0
-1826 -1835 0
-1826 -1836 0
-1826 -1837 0
-1826 -1838 0
-1826 -1839 0
-1826 -1840 0
-1826 -1841 0
-1826 -1842 0
-1826 -1843 0
-1826 -1844 0
-1826 -1845 0
-1826 -1846 0
-1826 -1847 0
-1826 -1848 0
-1826 -1849 0
-1826 -1850 0
-1826 -1851 0
-1826 -1852 0
-1826 -1853 0
-1826 -1854 0
-1826 -1855 0
-1826 -1856 0
-1826 -1857 0
-1826 -1858 0
-1826 -1859 0
-1826 -1860 0
-1826 -1861 0
-1826 -1862 0
-1826 -1863 0
-1826 -1864 0
-1826 -1865 0
-1826 -1866 0
-1826 -1867 0
-1826 -1868 0
-1826 -1869 0
-1826 -1870 0
-1826 -1871 0
-1826 -1872 0
-1826 -1873 0
-1826 -1874 0
-1826 -1875 0
-1826 -1876 0
-1826 -1877 0
-1826 -1878 0
-1827 -1828 0
-1827 -1829 0
-1827 -1830 0
-1827 -1831 0
-1827 -1832 0
-1827 -1833 0
-1827 -1834 0
-1827 -1835 0
-1827 -1836 0
-1827 -1837 0
-1827 -1838 0
-1827 -1839 0
-1827 -1840 0
-1827 -1841 0
-1827 -1842 0
-1827 -1843 0
-1827 -1844 0
-1827 -1845 0
-1827 -1846 0
-1827 -1847 0
-1827 -1848 0
-1827 -1849 0
-1827 -1850 0
-1827 -1851 0
-1827 -1852 0
-1827 -1853 0
-1827 -1854 0
-1827 -1855 0
-1827 -1856 0
-1827 -1857 0
-1827 -1858 0
-1827 -1859 0
-1827 -1860 0
-1827 -1861 0
-1827 -1862 0
-1827 -1863 0
-1827 -1864 0
-1827 -1865 0
-1827 -1866 0
-1827 -1867 0
-1827 -1868 0
-1827 -1869 0
-1827 -1870 0
-1827 -1871 0
-1827 -1872 0
-1827 -1873 0
-1827 -1874 0
-1827 -1875 0
-1827 -1876 0
-1827 -1877 0
-1827 -1878 0
-1828 -1829 0
-1828 -1830 0
-1828 -1831 0
-1828 -1832 0
-1828 -1833 0
-1828 -1834 0
-1828 -1835 0
-1828 -1836 0
-1828 -1837 0
-1828 -1838 0
-1828 -1839 0
-1828 -1840 0
-1828 -1841 0
-1828 -1842 0
-1828 -1843 0
-1828 -1844 0
-1828 -1845 0
-1828 -1846 0
-1828 -1847 0
-1828 -1848 0
-1828 -1849 0
-1828 -1850 0
-1828 -1851 0
-1828 -1852 0
-1828 -1853 0
-1828 -1854 0
-1828 -1855 0
-1828 -1856 0
-1828 -1857 0
-1828 -1858 0
-1828 -1859 0
-1828 -1860 0
-1828 -1861 0
-1828 -1862 0
-1828 -1863 0
-1828 -1864 0
-1828 -1865 0
-1828 -1866 0
-1828 -1867 0
-1828 -1868 0
-1828 -1869 0
-1828 -1870 0
-1828 -1871 0
-1828 -1872 0
-1828 -1873 0
-1828 -1874 0
-1828 -1875 0
-1828 -1876 0
-1828 -1877 0
-1828 -1878 0
-1829 -1830 0
-1829 -1831 0
-1829 -1832 0
-1829 -1833 0
-1829 -1834 0
-1829 -1835 0
-1829 -1836 0
-1829 -1837 0
-1829 -1838 0
-1829 -1839 0
-1829 -1840 0
-1829 -1841 0
-1829 -1842 0
-1829 -1843 0
-1829 -1844 0
-1829 -1845 0
-1829 -1846 0
-1829 -1847 0
-1829 -1848 0
-1829 -1849 0
-1829 -1850 0
-1829 -1851 0
-1829 -1852 0
-1829 -1853 0
-1829 -1854 0
-1829 -1855 0
-1829 -1856 0
-1829 -1857 0
-1829 -1858 0
-1829 -1859 0
-1829 -1860 0
-1829 -1861 0
-1829 -1862 0
-1829 -1863 0
-1829 -1864 0
-1829 -1865 0
-1829 -1866 0
-1829 -1867 0
-1829 -1868 0
-1829 -1869 0
-1829 -1870 0
-1829 -1871 0
-1829 -1872 0
-1829 -1873 0
-1829 -1874 0
-1829 -1875 0
-1829 -1876 0
-1829 -1877 0
-1829 -1878 0
-1830 -1831 0
-1830 -1832 0
-1830 -1833 0
-1830 -1834 0
-1830 -1835 0
-1830 -1836 0
-1830 -1837 0
-1830 -1838 0
-1830 -1839 0
-1830 -1840 0
-1830 -1841 0
-1830 -1842 0
-1830 -1843 0
-1830 -1844 0
-1830 -1845 0
-1830 -1846 0
-1830 -1847 0
-1830 -1848 0
-1830 -1849 0
-1830 -1850 0
-1830 -1851 0
-1830 -1852 0
-1830 -1853 0
-1830 -1854 0
-1830 -1855 0
-1830 -1856 0
-1830 -1857 0
-1830 -1858 0
-1830 -1859 0
-1830 -1860 0
-1830 -1861 0
-1830 -1862 0
-1830 -1863 0
-1830 -1864 0
-1830 -1865 0
-1830 -1866 0
-1830 -1867 0
-1830 -1868 0
-1830 -1869 0
-1830 -1870 0
-1830 -1871 0
-1830 -1872 0
-1830 -1873 0
-1830 -1874 0
-1830 -1875 0
-1830 -1876 0
-1830 -1877 0
-1830 -1878 0
-1831 -1832 0
-1831 -1833 0
-1831 -1834 0
-1831 -1835 0
-1831 -1836 0
-1831 -1837 0
-1831 -1838 0
-1831 -1839 0
-1831 -1840 0
-1831 -1841 0
-1831 -1842 0
-1831 -1843 0
-1831 -1844 0
-1831 -1845 0
-1831 -1846 0
-1831 -1847 0
-1831 -1848 0
-1831 -1849 0
-1831 -1850 0
-1831 -1851 0
-1831 -1852 0
-1831 -1853 0
-1831 -1854 0
-1831 -1855 0
-1831 -1856 0
-1831 -1857 0
-1831 -1858 0
-1831 -1859 0
-1831 -1860 0
-1831 -1861 0
-1831 -1862 0
-1831 -1863 0
-1831 -1864 0
-1831 -1865 0
-1831 -1866 0
-1831 -1867 0
-1831 -1868 0
-1831 -1869 0
-1831 -1870 0
-1831 -1871 0
-1831 -1872 0
-1831 -1873 0
-1831 -1874 0
-1831 -1875 0
-1831 -1876 0
-1831 -1877 0
-1831 -1878 0
-1832 -1833 0
-1832 -1834 0
-1832 -1835 0
-1832 -1836 0
-1832 -1837 0
-1832 -1838 0
-1832 -1839 0
-1832 -1840 0
-1832 -1841 0
-1832 -1842 0
-1832 -1843 0
-1832 -1844 0
-1832 -1845 0
-1832 -1846 0
-1832 -1847 0
-1832 -1848 0
-1832 -1849 0
-1832 -1850 0
-1832 -1851 0
-1832 -1852 0
-1832 -1853 0
-1832 -1854 0
-1832 -1855 0
-1832 -1856 0
-1832 -1857 0
-1832 -1858 0
-1832 -1859 0
-1832 -1860 0
-1832 -1861 0
-1832 -1862 0
-1832 -1863 0
-1832 -1864 0
-1832 -1865 0
-1832 -1866 0
-1832 -1867 0
-1832 -1868 0
-1832 -1869 0
-1832 -1870 0
-1832 -1871 0
-1832 -1872 0
-1832 -1873 0
-1832 -1874 0
-1832 -1875 0
-1832 -1876 0
-1832 -1877 0
-1832 -1878 0
-1833 -1834 0
-1833 -1835 0
-1833 -1836 0
-1833 -1837 0
-1833 -1838 0
-1833 -1839 0
-1833 -1840 0
-1833 -1841 0
-1833 -1842 0
-1833 -1843 0
-1833 -1844 0
-1833 -1845 0
-1833 -1846 0
-1833 -1847 0
-1833 -1848 0
-1833 -1849 0
-1833 -1850 0
-1833 -1851 0
-1833 -1852 0
-1833 -1853 0
-1833 -1854 0
-1833 -1855 0
-1833 -1856 0
-1833 -1857 0
-1833 -1858 0
-1833 -1859 0
-1833 -1860 0
-1833 -1861 0
-1833 -1862 0
-1833 -1863 0
-1833 -1864 0
-1833 -1865 0
-1833 -1866 0
-1833 -1867 0
-1833 -1868 0
-1833 -1869 0
-1833 -1870 0
-1833 -1871 0
-1833 -1872 0
-1833 -1873 0
-1833 -1874 0
-1833 -1875 0
-1833 -1876 0
-1833 -1877 0
-1833 -1878 0
-1834 -1835 0
-1834 -1836 0
-1834 -1837 0
-1834 -1838 0
-1834 -1839 0
-1834 -1840 0
-1834 -1841 0
-1834 -1842 0
-1834 -1843 0
-1834 -1844 0
-1834 -1845 0
-1834 -1846 0
-1834 -1847 0
-1834 -1848 0
-1834 -1849 0
-1834 -1850 0
-1834 -1851 0
-1834 -1852 0
-1834 -1853 0
-1834 -1854 0
-1834 -1855 0
-1834 -1856 0
-1834 -1857 0
-1834 -1858 0
-1834 -1859 0
-1834 -1860 0
-1834 -1861 0
-1834 -1862 0
-1834 -1863 0
-1834 -1864 0
-1834 -1865 0
-1834 -1866 0
-1834 -1867 0
-1834 -1868 0
-1834 -1869 0
-1834 -1870 0
-1834 -1871 0
-1834 -1872 0
-1834 -1873 0
-1834 -1874 0
-1834 -1875 0
-1834 -1876 0
-1834 -1877 0
-1834 -1878 0
-1835 -1836 0
-1835 -1837 0
-1835 -1838 0
-1835 -1839 0
-1835 -1840 0
-1835 -1841 0
-1835 -1842 0
-1835 -1843 0
-1835 -1844 0
-1835 -1845 0
-1835 -1846 0
-1835 -1847 0
-1835 -1848 0
-1835 -1849 0
-1835 -1850 0
-1835 -1851 0
-1835 -1852 0
-1835 -1853 0
-1835 -1854 0
-1835 -1855 0
-1835 -1856 0
-1835 -1857 0
-1835 -1858 0
-1835 -1859 0
-1835 -1860 0
-1835 -1861 0
-1835 -1862 0
-1835 -1863 0
-1835 -1864 0
-1835 -1865 0
-1835 -1866 0
-1835 -1867 0
-1835 -1868 0
-1835 -1869 0
-1835 -1870 0
-1835 -1871 0
-1835 -1872 0
-1835 -1873 0
-1835 -1874 0
-1835 -1875 0
-1835 -1876 0
-1835 -1877 0
-1835 -1878 0
-1836 -1837 0
-1836 -1838 0
-1836 -1839 0
-1836 -1840 0
-1836 -1841 0
-1836 -1842 0
-1836 -1843 0
-1836 -1844 0
-1836 -1845 0
-1836 -1846 0
-1836 -1847 0
-1836 -1848 0
-1836 -1849 0
-1836 -1850 0
-1836 -1851 0
-1836 -1852 0
-1836 -1853 0
-1836 -1854 0
-1836 -1855 0
-1836 -1856 0
-1836 -1857 0
-1836 -1858 0
-1836 -1859 0
-1836 -1860 0
-1836 -1861 0
-1836 -1862 0
-1836 -1863 0
-1836 -1864 0
-1836 -1865 0
-1836 -1866 0
-1836 -1867 0
-1836 -1868 0
-1836 -1869 0
-1836 -1870 0
-1836 -1871 0
-1836 -1872 0
-1836 -1873 0
-1836 -1874 0
-1836 -1875 0
-1836 -1876 0
-1836 -1877 0
-1836 -1878 0
-1837 -1838 0
-1837 -1839 0
-1837 -1840 0
-1837 -1841 0
-1837 -1842 0
-1837 -1843 0
-1837 -1844 0
-1837 -1845 0
-1837 -1846 0
-1837 -1847 0
-1837 -1848 0
-1837 -1849 0
-1837 -1850 0
-1837 -1851 0
-1837 -1852 0
-1837 -1853 0
-1837 -1854 0
-1837 -1855 0
-1837 -1856 0
-1837 -1857 0
-1837 -1858 0
-1837 -1859 0
-1837 -1860 0
-1837 -1861 0
-1837 -1862 0
-1837 -1863 0
-1837 -1864 0
-1837 -1865 0
-1837 -1866 0
-1837 -1867 0
-1837 -1868 0
-1837 -1869 0
-1837 -1870 0
-1837 -1871 0
-1837 -1872 0
-1837 -1873 0
-1837 -1874 0
-1837 -1875 0
-1837 -1876 0
-1837 -1877 0
-1837 -1878 0
-1838 -1839 0
-1838 -1840 0
-1838 -1841 0
-1838 -1842 0
-1838 -1843 0
-1838 -1844 0
-1838 -1845 0
-1838 -1846 0
-1838 -1847 0
-1838 -1848 0
-1838 -1849 0
-1838 -1850 0
-1838 -1851 0
-1838 -1852 0
-1838 -1853 0
-1838 -1854 0
-1838 -1855 0
-1838 -1856 0
-1838 -1857 0
-1838 -1858 0
-1838 -1859 0
-1838 -1860 0
-1838 -1861 0
-1838 -1862 0
-1838 -1863 0
-1838 -1864 0
-1838 -1865 0
-1838 -1866 0
-1838 -1867 0
-1838 -1868 0
-1838 -1869 0
-1838 -1870 0
-1838 -1871 0
-1838 -1872 0
-1838 -1873 0
-1838 -1874 0
-1838 -1875 0
-1838 -1876 0
-1838 -1877 0
-1838 -1878 0
-1839 -1840 0
-1839 -1841 0
-1839 -1842 0
-1839 -1843 0
-1839 -1844 0
-1839 -1845 0
-1839 -1846 0
-1839 -1847 0
-1839 -1848 0
-1839 -1849 0
-1839 -1850 0
-1839 -1851 0
-1839 -1852 0
-1839 -1853 0
-1839 -1854 0
-1839 -1855 0
-1839 -1856 0
-1839 -1857 0
-1839 -1858 0
-1839 -1859 0
-1839 -1860 0
-1839 -1861 0
-1839 -1862 0
-1839 -1863 0
-1839 -1864 0
-1839 -1865 0
-1839 -1866 0
-1839 -1867 0
-1839 -1868 0
-1839 -1869 0
-1839 -1870 0
-1839 -1871 0
-1839 -1872 0
-1839 -1873 0
-1839 -1874 0
-1839 -1875 0
-1839 -1876 0
-1839 -1877 0
-1839 -1878 0
-1840 -1841 0
-1840 -1842 0
-1840 -1843 0
-1840 -1844 0
-1840 -1845 0
-1840 -1846 0
-1840 -1847 0
-1840 -1848 0
-1840 -1849 0
-1840 -1850 0
-1840 -1851 0
-1840 -1852 0
-1840 -1853 0
-1840 -1854 0
-1840 -1855 0
-1840 -1856 0
-1840 -1857 0
-1840 -1858 0
-1840 -1859 0
-1840 -1860 0
-1840 -1861 0
-1840 -1862 0
-1840 -1863 0
-1840 -1864 0
-1840 -1865 0
-1840 -1866 0
-1840 -1867 0
-1840 -1868 0
-1840 -1869 0
-1840 -1870 0
-1840 -1871 0
-1840 -1872 0
-1840 -1873 0
-1840 -1874 0
-1840 -1875 0
-1840 -1876 0
-1840 -1877 0
-1840 -1878 0
-1841 -1842 0
-1841 -1843 0
-1841 -1844 0
-1841 -1845 0
-1841 -1846 0
-1841 -1847 0
-1841 -1848 0
-1841 -1849 0
-1841 -1850 0
-1841 -1851 0
-1841 -1852 0
-1841 -1853 0
-1841 -1854 0
-1841 -1855 0
-1841 -1856 0
-1841 -1857 0
-1841 -1858 0
-1841 -1859 0
-1841 -1860 0
-1841 -1861 0
-1841 -1862 0
-1841 -1863 0
-1841 -1864 0
-1841 -1865 0
-1841 -1866 0
-1841 -1867 0
-1841 -1868 0
-1841 -1869 0
-1841 -1870 0
-1841 -1871 0
-1841 -1872 0
-1841 -1873 0
-1841 -1874 0
-1841 -1875 0
-1841 -1876 0
-1841 -1877 0
-1841 -1878 0
-1842 -1843 0
-1842 -1844 0
-1842 -1845 0
-1842 -1846 0
-1842 -1847 0
-1842 -1848 0
-1842 -1849 0
-1842 -1850 0
-1842 -1851 0
-1842 -1852 0
-1842 -1853 0
-1842 -1854 0
-1842 -1855 0
-1842 -1856 0
-1842 -1857 0
-1842 -1858 0
-1842 -1859 0
-1842 -1860 0
-1842 -1861 0
-1842 -1862 0
-1842 -1863 0
-1842 -1864 0
-1842 -1865 0
-1842 -1866 0
-1842 -1867 0
-1842 -1868 0
-1842 -1869 0
-1842 -1870 0
-1842 -1871 0
-1842 -1872 0
-1842 -1873 0
-1842 -1874 0
-1842 -1875 0
-1842 -1876 0
-1842 -1877 0
-1842 -1878 0
-1843 -1844 0
-1843 -1845 0
-1843 -1846 0
-1843 -1847 0
-1843 -1848 0
-1843 -1849 0
-1843 -1850 0
-1843 -1851 0
-1843 -1852 0
-1843 -1853 0
-1843 -1854 0
-1843 -1855 0
-1843 -1856 0
-1843 -1857 0
-1843 -1858 0
-1843 -1859 0
-1843 -1860 0
-1843 -1861 0
-1843 -1862 0
-1843 -1863 0
-1843 -1864 0
-1843 -1865 0
-1843 -1866 0
-1843 -1867 0
-1843 -1868 0
-1843 -1869 0
-1843 -1870 0
-1843 -1871 0
-1843 -1872 0
-1843 -1873 0
-1843 -1874 0
-1843 -1875 0
-1843 -1876 0
-1843 -1877 0
-1843 -1878 0
-1844 -1845 0
-1844 -1846 0
-1844 -1847 0
-1844 -1848 0
-1844 -1849 0
-1844 -1850 0
-1844 -1851 0
-1844 -1852 0
-1844 -1853 0
-1844 -1854 0
-1844 -1855 0
-1844 -1856 0
-1844 -1857 0
-1844 -1858 0
-1844 -1859 0
-1844 -1860 0
-1844 -1861 0
-1844 -1862 0
-1844 -1863 0
-1844 -1864 0
-1844 -1865 0
-1844 -1866 0
-1844 -1867 0
-1844 -1868 0
-1844 -1869 0
-1844 -1870 0
-1844 -1871 0
-1844 -1872 0
-1844 -1873 0
-1844 -1874 0
-1844 -1875 0
-1844 -1876 0
-1844 -1877 0
-1844 -1878 0
-1845 -1846 0
-1845 -1847 0
-1845 -1848 0
-1845 -1849 0
-1845 -1850 0
-1845 -1851 0
-1845 -1852 0
-1845 -1853 0
-1845 -1854 0
-1845 -1855 0
-1845 -1856 0
-1845 -1857 0
-1845 -1858 0
-1845 -1859 0
-1845 -1860 0
-1845 -1861 0
-1845 -1862 0
-1845 -1863 0
-1845 -1864 0
-1845 -1865 0
-1845 -1866 0
-1845 -1867 0
-1845 -1868 0
-1845 -1869 0
-1845 -1870 0
-1845 -1871 0
-1845 -1872 0
-1845 -1873 0
-1845 -1874 0
-1845 -1875 0
-1845 -1876 0
-1845 -1877 0
-1845 -1878 0
-1846 -1847 0
-1846 -1848 0
-1846 -1849 0
-1846 -1850 0
-1846 -1851 0
-1846 -1852 0
-1846 -1853 0
-1846 -1854 0
-1846 -1855 0
-1846 -1856 0
-1846 -1857 0
-1846 -1858 0
-1846 -1859 0
-1846 -1860 0
-1846 -1861 0
-1846 -1862 0
-1846 -1863 0
-1846 -1864 0
-1846 -1865 0
-1846 -1866 0
-1846 -1867 0
-1846 -1868 0
-1846 -1869 0
-1846 -1870 0
-1846 -1871 0
-1846 -1872 0
-1846 -1873 0
-1846 -1874 0
-1846 -1875 0
-1846 -1876 0
-1846 -1877 0
-1846 -1878 0
-1847 -1848 0
-1847 -1849 0
-1847 -1850 0
-1847 -1851 0
-1847 -1852 0
-1847 -1853 0
-1847 -1854 0
-1847 -1855 0
-1847 -1856 0
-1847 -1857 0
-1847 -1858 0
-1847 -1859 0
-1847 -1860 0
-1847 -1861 0
-1847 -1862 0
-1847 -1863 0
-1847 -1864 0
-1847 -1865 0
-1847 -1866 0
-1847 -1867 0
-1847 -1868 0
-1847 -1869 0
-1847 -1870 0
-1847 -1871 0
-1847 -1872 0
-1847 -1873 0
-1847 -1874 0
-1847 -1875 0
-1847 -1876 0
-1847 -1877 0
-1847 -1878 0
-1848 -1849 0
-1848 -1850 0
-1848 -1851 0
-1848 -1852 0
-1848 -1853 0
-1848 -1854 0
-1848 -1855 0
-1848 -1856 0
-1848 -1857 0
-1848 -1858 0
-1848 -1859 0
-1848 -1860 0
-1848 -1861 0
-1848 -1862 0
-1848 -1863 0
-1848 -1864 0
-1848 -1865 0
-1848 -1866 0
-1848 -1867 0
-1848 -1868 0
-1848 -1869 0
-1848 -1870 0
-1848 -1871 0
-1848 -1872 0
-1848 -1873 0
-1848 -1874 0
-1848 -1875 0
-1848 -1876 0
-1848 -1877 0
-1848 -1878 0
-1849 -1850 0
-1849 -1851 0
-1849 -1852 0
-1849 -1853 0
-1849 -1854 0
-1849 -1855 0
-1849 -1856 0
-1849 -1857 0
-1849 -1858 0
-1849 -1859 0
-1849 -1860 0
-1849 -1861 0
-1849 -1862 0
-1849 -1863 0
-1849 -1864 0
-1849 -1865 0
-1849 -1866 0
-1849 -1867 0
-1849 -1868 0
-1849 -1869 0
-1849 -1870 0
-1849 -1871 0
-1849 -1872 0
-1849 -1873 0
-1849 -1874 0
-1849 -1875 0
-1849 -1876 0
-1849 -1877 0
-1849 -1878 0
-1850 -1851 0
-1850 -1852 0
-1850 -1853 0
-1850 -1854 0
-1850 -1855 0
-1850 -1856 0
-1850 -1857 0
-1850 -1858 0
-1850 -1859 0
-1850 -1860 0
-1850 -1861 0
-1850 -1862 0
-1850 -1863 0
-1850 -1864 0
-1850 -1865 0
-1850 -1866 0
-1850 -1867 0
-1850 -1868 0
-1850 -1869 0
-1850 -1870 0
-1850 -1871 0
-1850 -1872 0
-1850 -1873 0
-1850 -1874 0
-1850 -1875 0
-1850 -1876 0
-1850 -1877 0
-1850 -1878 0
-1851 -1852 0
-1851 -1853 0
-1851 -1854 0
-1851 -1855 0
-1851 -1856 0
-1851 -1857 0
-1851 -1858 0
-1851 -1859 0
-1851 -1860 0
-1851 -1861 0
-1851 -1862 0
-1851 -1863 0
-1851 -1864 0
-1851 -1865 0
-1851 -1866 0
-1851 -1867 0
-1851 -1868 0
-1851 -1869 0
-1851 -1870 0
-1851 -1871 0
-1851 -1872 0
-1851 -1873 0
-1851 -1874 0
-1851 -1875 0
-1851 -1876 0
-1851 -1877 0
-1851 -1878 0
-1852 -1853 0
-1852 -1854 0
-1852 -1855 0
-1852 -1856 0
-1852 -1857 0
-1852 -1858 0
-1852 -1859 0
-1852 -1860 0
-1852 -1861 0
-1852 -1862 0
-1852 -1863 0
-1852 -1864 0
-1852 -1865 0
-1852 -1866 0
-1852 -1867 0
-1852 -1868 0
-1852 -1869 0
-1852 -1870 0
-1852 -1871 0
-1852 -1872 0
-1852 -1873 0
-1852 -1874 0
-1852 -1875 0
-1852 -1876 0
-1852 -1877 0
-1852 -1878 0
-1853 -1854 0
-1853 -1855 0
-1853 -1856 0
-1853 -1857 0
-1853 -1858 0
-1853 -1859 0
-1853 -1860 0
-1853 -1861 0
-1853 -1862 0
-1853 -1863 0
-1853 -1864 0
-1853 -1865 0
-1853 -1866 0
-1853 -1867 0
-1853 -1868 0
-1853 -1869 0
-1853 -1870 0
-1853 -1871 0
-1853 -1872 0
-1853 -1873 0
-1853 -1874 0
-1853 -1875 0
-1853 -1876 0
-1853 -1877 0
-1853 -1878 0
-1854 -1855 0
-1854 -1856 0
-1854 -1857 0
-1854 -1858 0
-1854 -1859 0
-1854 -1860 0
-1854 -1861 0
-1854 -1862 0
-1854 -1863 0
-1854 -1864 0
-1854 -1865 0
-1854 -1866 0
-1854 -1867 0
-1854 -1868 0
-1854 -1869 0
-1854 -1870 0
-1854 -1871 0
-1854 -1872 0
-1854 -1873 0
-1854 -1874 0
-1854 -1875 0
-1854 -1876 0
-1854 -1877 0
-1854 -1878 0
-1855 -1856 0
-1855 -1857 0
-1855 -1858 0
-1855 -1859 0
-1855 -1860 0
-1855 -1861 0
-1855 -1862 0
-1855 -1863 0
-1855 -1864 0
-1855 -1865 0
-1855 -1866 0
-1855 -1867 0
-1855 -1868 0
-1855 -1869 0
-1855 -1870 0
-1855 -1871 0
-1855 -1872 0
-1855 -1873 0
-1855 -1874 0
-1855 -1875 0
-1855 -1876 0
-1855 -1877 0
-1855 -1878 0
-1856 -1857 0
-1856 -1858 0
-1856 -1859 0
-1856 -1860 0
-1856 -1861 0
-1856 -1862 0
-1856 -1863 0
-1856 -1864 0
-1856 -1865 0
-1856 -1866 0
-1856 -1867 0
-1856 -1868 0
-1856 -1869 0
-1856 -1870 0
-1856 -1871 0
-1856 -1872 0
-1856 -1873 0
-1856 -1874 0
-1856 -1875 0
-1856 -1876 0
-1856 -1877 0
-1856 -1878 0
-1857 -1858 0
-1857 -1859 0
-1857 -1860 0
-1857 -1861 0
-1857 -1862 0
-1857 -1863 0
-1857 -1864 0
-1857 -1865 0
-1857 -1866 0
-1857 -1867 0
-1857 -1868 0
-1857 -1869 0
-1857 -1870 0
-1857 -1871 0
-1857 -1872 0
-1857 -1873 0
-1857 -1874 0
-1857 -1875 0
-1857 -1876 0
-1857 -1877 0
-1857 -1878 0
-1858 -1859 0
-1858 -1860 0
-1858 -1861 0
-1858 -1862 0
-1858 -1863 0
-1858 -1864 0
-1858 -1865 0
-1858 -1866 0
-1858 -1867 0
-1858 -1868 0
-1858 -1869 0
-1858 -1870 0
-1858 -1871 0
-1858 -1872 0
-1858 -1873 0
-1858 -1874 0
-1858 -1875 0
-1858 -1876 0
-1858 -1877 0
-1858 -1878 0
-1859 -1860 0
-1859 -1861 0
-1859 -1862 0
-1859 -1863 0
-1859 -1864 0
-1859 -1865 0
-1859 -1866 0
-1859 -1867 0
-1859 -1868 0
-1859 -1869 0
-1859 -1870 0
-1859 -1871 0
-1859 -1872 0
-1859 -1873 0
-1859 -1874 0
-1859 -1875 0
-1859 -1876 0
-1859 -1877 0
-1859 -1878 0
-1860 -1861 0
-1860 -1862 0
-1860 -1863 0
-1860 -1864 0
-1860 -1865 0
-1860 -1866 0
-1860 -1867 0
-1860 -1868 0
-1860 -1869 0
-1860 -1870 0
-1860 -1871 0
-1860 -1872 0
-1860 -1873 0
-1860 -1874 0
-1860 -1875 0
-1860 -1876 0
-1860 -1877 0
-1860 -1878 0
-1861 -1862 0
-1861 -1863 0
-1861 -1864 0
-1861 -1865 0
-1861 -1866 0
-1861 -1867 0
-1861 -1868 0
-1861 -1869 0
-1861 -1870 0
-1861 -1871 0
-1861 -1872 0
-1861 -1873 0
-1861 -1874 0
-1861 -1875 0
-1861 -1876 0
-1861 -1877 0
-1861 -1878 0
-1862 -1863 0
-1862 -1864 0
-1862 -1865 0
-1862 -1866 0
-1862 -1867 0
-1862 -1868 0
-1862 -1869 0
-1862 -1870 0
-1862 -1871 0
-1862 -1872 0
-1862 -1873 0
-1862 -1874 0
-1862 -1875 0
-1862 -1876 0
-1862 -1877 0
-1862 -1878 0
-1863 -1864 0
-1863 -1865 0
-1863 -1866 0
-1863 -1867 0
-1863 -1868 0
-1863 -1869 0
-1863 -1870 0
-1863 -1871 0
-1863 -1872 0
-1863 -1873 0
-1863 -1874 0
-1863 -1875 0
-1863 -1876 0
-1863 -1877 0
-1863 -1878 0
-1864 -1865 0
-1864 -1866 0
-1864 -1867 0
-1864 -1868 0
-1864 -1869 0
-1864 -1870 0
-1864 -1871 0
-1864 -1872 0
-1864 -1873 0
-1864 -1874 0
-1864 -1875 0
-1864 -1876 0
-1864 -1877 0
-1864 -1878 0
-1865 -1866 0
-1865 -1867 0
-1865 -1868 0
-1865 -1869 0
-1865 -1870 0
-1865 -1871 0
-1865 -1872 0
-1865 -1873 0
-1865 -1874 0
-1865 -1875 0
-1865 -1876 0
-1865 -1877 0
-1865 -1878 0
-1866 -1867 0
-1866 -1868 0
-1866 -1869 0
-1866 -1870 0
-1866 -1871 0
-1866 -1872 0
-1866 -1873 0
-1866 -1874 0
-1866 -1875 0
-1866 -1876 0
-1866 -1877 0
-1866 -1878 0
-1867 -1868 0
-1867 -1869 0
-1867 -1870 0
-1867 -1871 0
-1867 -1872 0
-1867 -1873 0
-1867 -1874 0
-1867 -1875 0
-1867 -1876 0
-1867 -1877 0
-1867 -1878 0
-1868 -1869 0
-1868 -1870 0
-1868 -1871 0
-1868 -1872 0
-1868 -1873 0
-1868 -1874 0
-1868 -1875 0
-1868 -1876 0
-1868 -1877 0
-1868 -1878 0
-1869 -1870 0
-1869 -1871 0
-1869 -1872 0
-1869 -1873 0
-1869 -1874 0
-1869 -1875 0
-1869 -1876 0
-1869 -1877 0
-1869 -1878 0
-1870 -1871 0
-1870 -1872 0
-1870 -1873 0
-1870 -1874 0
-1870 -1875 0
-1870 -1876 0
-1870 -1877 0
-1870 -1878 0
-1871 -1872 0
-1871 -1873 0
-1871 -1874 0
-1871 -1875 0
-1871 -1876 0
-1871 -1877 0
-1871 -1878 0
-1872 -1873 0
-1872 -1874 0
-1872 -1875 0
-1872 -1876 0
-1872 -1877 0
-1872 -1878 0
-1873 -1874 0
-1873 -1875 0
-1873 -1876 0
-1873 -1877 0
-1873 -1878 0
-1874 -1875 0
-1874 -1876 0
-1874 -1877 0
-1874 -1878 0
-1875 -1876 0
-1875 -1877 0
-1875 -1878 0
-1876 -1877 0
-1876 -1878 0
-1877 -1878 0
-1795 782 0
-1795 1029 0
-1795 -832 0
-1795 -833 0
-1795 -834 0
-1795 -835 0
-1795 -836 0
-1795 -837 1036 0
-1795 -837 -772 -779 0
-1795 -837 -844 0
-1795 -837 -902 0
-1795 -837 -959 0
-1795 -838 1037 0
-1795 -838 -772 -780 0
-1795 -838 -846 0
-1795 -838 -904 0
-1795 -838 -961 0
-1795 -839 1038 0
-1795 -839 -772 -781 0
-1795 -839 -848 0
-1795 -839 -906 0
-1795 -839 -963 0
-1795 -840 0
-1796 782 0
-1796 1030 0
-1796 -831 0
-1796 -833 0
-1796 -834 0
-1796 -835 0
-1796 -836 0
-1796 -837 1036 0
-1796 -837 -773 -779 0
-1796 -837 -852 0
-1796 -837 -910 0
-1796 -837 -967 0
-1796 -838 1037 0
-1796 -838 -773 -780 0
-1796 -838 -854 0
-1796 -838 -912 0
-1796 -838 -969 0
-1796 -839 1038 0
-1796 -839 -773 -781 0
-1796 -839 -856 0
-1796 -839 -914 0
-1796 -839 -971 0
-1796 -840 0
-1797 782 0
-1797 1031 0
-1797 -831 0
-1797 -832 0
-1797 -834 0
-1797 -835 0
-1797 -836 0
-1797 -837 1036 0
-1797 -837 -774 -779 0
-1797 -837 -860 0
-1797 -837 -918 0
-1797 -837 -975 0
-1797 -838 1037 0
-1797 -838 -774 -780 0
-1797 -838 -862 0
-1797 -838 -920 0
-1797 -838 -977 0
-1797 -839 1038 0
-1797 -839 -774 -781 0
-1797 -839 -864 0
-1797 -839 -922 0
-1797 -839 -979 0
-1797 -840 0
-1798 782 0
-1798 1032 0
-1798 -831 0
-1798 -832 0
-1798 -833 0
-1798 -835 0
-1798 -836 0
-1798 -837 1036 0
-1798 -837 -775 -779 0
-1798 -837 -868 0
-1798 -837 -926 0
-1798 -837 -983 0
-1798 -838 1037 0
-1798 -838 -775 -780 0
-1798 -838 -870 0
-1798 -838 -928 0
-1798 -838 -985 0
-1798 -839 1038 0
-1798 -839 -775 -781 0
-1798 -839 -872 0
-1798 -839 -930 0
-1798 -839 -987 0
-1798 -840 0
-1799 782 0
-1799 1033 0
-1799 -831 0
-1799 -832 0
-1799 -833 0
-1799 -834 0
-1799 -836 0
-1799 -837 1036 0
-1799 -837 -776 -779 0
-1799 -837 -876 0
-1799 -837 -934 0
-1799 -837 -991 0
-1799 -838 1037 0
-1799 -838 -776 -780 0
-1799 -838 -878 0
-1799 -838 -936 0
-1799 -838 -993 0
-1799 -839 1038 0
-1799 -839 -776 -781 0
-1799 -839 -880 0
-1799 -839 -938 0
-1799 -839 -995 0
-1799 -840 0
-1800 782 0
-1800 1034 0
-1800 -831 0
-1800 -832 0
-1800 -833 0
-1800 -834 0
-1800 -835 0
-1800 -837 1036 0
-1800 -837 -777 -779 0
-1800 -837 -884 0
-1800 -837 -942 0
-1800 -837 -999 0
-1800 -838 1037 0
-1800 -838 -777 -780 0
-1800 -838 -886 0
-1800 -838 -944 0
-1800 -838 -1001 0
-1800 -839 1038 0
-1800 -839 -777 -781 0
-1800 -839 -888 0
-1800 -839 -946 0
-1800 -839 -1003 0
-1800 -840 0
-1801 782 0
-1801 1029 0
-1801 -891 0
-1801 -892 0
-1801 -893 0
-1801 -894 0
-1801 -895 1036 0
-1801 -895 -772 -779 0
-1801 -895 -844 0
-1801 -895 -902 0
-1801 -895 -959 0
-1801 -896 1037 0
-1801 -896 -772 -780 0
-1801 -896 -846 0
-1801 -896 -904 0
-1801 -896 -961 0
-1801 -897 1038 0
-1801 -897 -772 -781 0
-1801 -897 -848 0
-1801 -897 -906 0
-1801 -897 -963 0
-1801 -898 0
-1802 782 0
-1802 1030 0
-1802 -892 0
-1802 -893 0
-1802 -894 0
-1802 -895 1036 0
-1802 -895 -773 -779 0
-1802 -895 -852 0
-1802 -895 -910 0
-1802 -895 -967 0
-1802 -896 1037 0
-1802 -896 -773 -780 0
-1802 -896 -854 0
-1802 -896 -912 0
-1802 -896 -969 0
-1802 -897 1038 0
-1802 -897 -773 -781 0
-1802 -897 -856 0
-1802 -897 -914 0
-1802 -897 -971 0
-1802 -898 0
-1803 782 0
-1803 1031 0
-1803 -890 0
-1803 -893 0
-1803 -894 0
-1803 -895 1036 0
-1803 -895 -774 -779 0
-1803 -895 -860 0
-1803 -895 -918 0
-1803 -895 -975 0
-1803 -896 1037 0
-1803 -896 -774 -780 0
-1803 -896 -862 0
-1803 -896 -920 0
-1803 -896 -977 0
-1803 -897 1038 0
-1803 -897 -774 -781 0
-1803 -897 -864 0
-1803 -897 -922 0
-1803 -897 -979 0
-1803 -898 0
-1804 782 0
-1804 1032 0
-1804 -890 0
-1804 -891 0
-1804 -894 0
-1804 -895 1036 0
-1804 -895 -775 -779 0
-1804 -895 -868 0
-1804 -895 -926 0
-1804 -895 -983 0
-1804 -896 1037 0
-1804 -896 -775 -780 0
-1804 -896 -870 0
-1804 -896 -928 0
-1804 -896 -985 0
-1804 -897 1038 0
-1804 -897 -775 -781 0
-1804 -897 -872 0
-1804 -897 -930 0
-1804 -897 -987 0
-1804 -898 0
-1805 782 0
-1805 1033 0
-1805 -890 0
-1805 -891 0
-1805 -892 0
-1805 -895 1036 0
-1805 -895 -776 -779 0
-1805 -895 -876 0
-1805 -895 -934 0
-1805 -895 -991 0
-1805 -896 1037 0
-1805 -896 -776 -780 0
-1805 -896 -878 0
-1805 -896 -936 0
-1805 -896 -993 0
-1805 -897 1038 0
-1805 -897 -776 -781 0
-1805 -897 -880 0
-1805 -897 -938 0
-1805 -897 -995 0
-1805 -898 0
-1806 782 0
-1806 1034 0
-1806 -890 0
-1806 -891 0
-1806 -892 0
-1806 -893 0
-1806 -895 1036 0
-1806 -895 -777 -779 0
-1806 -895 -884 0
-1806 -895 -942 0
-1806 -895 -999 0
-1806 -896 1037 0
-1806 -896 -777 -780 0
-1806 -896 -886 0
-1806 -896 -944 0
-1806 -896 -1001 0
-1806 -897 1038 0
-1806 -897 -777 -781 0
-1806 -897 -888 0
-1806 -897 -946 0
-1806 -897 -1003 0
-1806 -898 0
-1807 782 0
-1807 1029 0
-1807 -949 0
-1807 -950 0
-1807 -951 0
-1807 -952 1036 0
-1807 -952 -772 -779 0
-1807 -952 -844 0
-1807 -952 -902 0
-1807 -952 -959 0
-1807 -953 1037 0
-1807 -953 -772 -780 0
-1807 -953 -846 0
-1807 -953 -904 0
-1807 -953 -961 0
-1807 -954 1038 0
-1807 -954 -772 -781 0
-1807 -954 -848 0
-1807 -954 -906 0
-1807 -954 -963 0
-1807 -955 0
-1808 782 0
-1808 1030 0
-1808 -950 0
-1808 -951 0
-1808 -952 1036 0
-1808 -952 -773 -779 0
-1808 -952 -852 0
-1808 -952 -910 0
-1808 -952 -967 0
-1808 -953 1037 0
-1808 -953 -773 -780 0
-1808 -953 -854 0
-1808 -953 -912 0
-1808 -953 -969 0
-1808 -954 1038 0
-1808 -954 -773 -781 0
-1808 -954 -856 0
-1808 -954 -914 0
-1808 -954 -971 0
-1808 -955 0
-1809 782 0
-1809 1031 0
-1809 -951 0
-1809 -952 1036 0
-1809 -952 -774 -779 0
-1809 -952 -860 0
-1809 -952 -918 0
-1809 -952 -975 0
-1809 -953 1037 0
-1809 -953 -774 -780 0
-1809 -953 -862 0
-1809 -953 -920 0
-1809 -953 -977 0
-1809 -954 1038 0
-1809 -954 -774 -781 0
-1809 -954 -864 0
-1809 -954 -922 0
-1809 -954 -979 0
-1809 -955 0
-1810 782 0
-1810 1032 0
-1810 -948 0
-1810 -952 1036 0
-1810 -952 -775 -779 0
-1810 -952 -868 0
-1810 -952 -926 0
-1810 -952 -983 0
-1810 -953 1037 0
-1810 -953 -775 -780 0
-1810 -953 -870 0
-1810 -953 -928 0
-1810 -953 -985 0
-1810 -954 1038 0
-1810 -954 -775 -781 0
-1810 -954 -872 0
-1810 -954 -930 0
-1810 -954 -987 0
-1810 -955 0
-1811 782 0
-1811 1033 0
-1811 -948 0
-1811 -949 0
-1811 -952 1036 0
-1811 -952 -776 -779 0
-1811 -952 -876 0
-1811 -952 -934 0
-1811 -952 -991 0
-1811 -953 1037 0
-1811 -953 -776 -780 0
-1811 -953 -878 0
-1811 -953 -936 0
-1811 -953 -993 0
-1811 -954 1038 0
-1811 -954 -776 -781 0
-1811 -954 -880 0
-1811 -954 -938 0
-1811 -954 -995 0
-1811 -955 0
-1812 782 0
-1812 1034 0
-1812 -948 0
-1812 -949 0
-1812 -950 0
-1812 -952 1036 0
-1812 -952 -777 -779 0
-1812 -952 -884 0
-1812 -952 -942 0
-1812 -952 -999 0
-1812 -953 1037 0
-1812 -953 -777 -780 0
-1812 -953 -886 0
-1812 -953 -944 0
-1812 -953 -1001 0
-1812 -954 1038 0
-1812 -954 -777 -781 0
-1812 -954 -888 0
-1812 -954 -946 0
-1812 -954 -1003 0
-1812 -955 0
-1813 782 0
-1813 1029 0
-1813 1035 0
-1813 -772 -778 0
-1813 -842 0
-1813 -900 0
-1813 -957 0
-1814 782 0
-1814 1030 0
-1814 1035 0
-1814 -773 -778 0
-1814 -850 0
-1814 -908 0
-1814 -965 0
-1815 782 0
-1815 1031 0
-1815 1035 0
-1815 -774 -778 0
-1815 -858 0
-1815 -916 0
-1815 -973 0
-1816 782 0
-1816 1032 0
-1816 1035 0
-1816 -775 -778 0
-1816 -866 0
-1816 -924 0
-1816 -981 0
-1817 782 0
-1817 1033 0
-1817 1035 0
-1817 -776 -778 0
-1817 -874 0
-1817 -932 0
-1817 -989 0
-1818 782 0
-1818 1034 0
-1818 1035 0
-1818 -777 -778 0
-1818 -882 0
-1818 -940 0
-1818 -997 0
-1819 841 0
-1819 1088 0
-1819 -773 0
-1819 -774 0
-1819 -775 0
-1819 -776 0
-1819 -777 0
-1819 -778 1095 0
-1819 -778 -831 -838 0
-1819 -778 -785 0
-1819 -778 -902 0
-1819 -778 -959 0
-1819 -779 1096 0
-1819 -779 -831 -839 0
-1819 -779 -787 0
-1819 -779 -904 0
-1819 -779 -961 0
-1819 -780 1097 0
-1819 -780 -831 -840 0
-1819 -780 -789 0
-1819 -780 -906 0
-1819 -780 -963 0
-1819 -781 0
-1820 841 0
-1820 1089 0
-1820 -772 0
-1820 -774 0
-1820 -775 0
-1820 -776 0
-1820 -777 0
-1820 -778 1095 0
-1820 -778 -832 -838 0
-1820 -778 -793 0
-1820 -778 -910 0
-1820 -778 -967 0
-1820 -779 1096 0
-1820 -779 -832 -839 0
-1820 -779 -795 0
-1820 -779 -912 0
-1820 -779 -969 0
-1820 -780 1097 0
-1820 -780 -832 -840 0
-1820 -780 -797 0
-1820 -780 -914 0
-1820 -780 -971 0
-1820 -781 0
-1821 841 0
-1821 1090 0
-1821 -772 0
-1821 -773 0
-1821 -775 0
-1821 -776 0
-1821 -777 0
-1821 -778 1095 0
-1821 -778 -833 -838 0
-1821 -778 -801 0
-1821 -778 -918 0
-1821 -778 -975 0
-1821 -779 1096 0
-1821 -779 -833 -839 0
-1821 -779 -803 0
-1821 -779 -920 0
-1821 -779 -977 0
-1821 -780 1097 0
-1821 -780 -833 -840 0
-1821 -780 -805 0
-1821 -780 -922 0
-1821 -780 -979 0
-1821 -781 0
-1822 841 0
-1822 1091 0
-1822 -772 0
-1822 -773 0
-1822 -774 0
-1822 -776 0
-1822 -777 0
-1822 -778 1095 0
-1822 -778 -834 -838 0
-1822 -778 -809 0
-1822 -778 -926 0
-1822 -778 -983 0
-1822 -779 1096 0
-1822 -779 -834 -839 0
-1822 -779 -811 0
-1822 -779 -928 0
-1822 -779 -985 0
-1822 -780 1097 0
-1822 -780 -834 -840 0
-1822 -780 -813 0
-1822 -780 -930 0
-1822 -780 -987 0
-1822 -781 0
-1823 841 0
-1823 1092 0
-1823 -772 0
-1823 -773 0
-1823 -774 0
-1823 -775 0
-1823 -777 0
-1823 -778 1095 0
-1823 -778 -835 -838 0
-1823 -778 -817 0
-1823 -778 -934 0
-1823 -778 -991 0
-1823 -779 1096 0
-1823 -779 -835 -839 0
-1823 -779 -819 0
-1823 -779 -936 0
-1823 -779 -993 0
-1823 -780 1097 0
-1823 -780 -835 -840 0
-1823 -780 -821 0
-1823 -780 -938 0
-1823 -780 -995 0
-1823 -781 0
-1824 841 0
-1824 1093 0
-1824 -772 0
-1824 -773 0
-1824 -774 0
-1824 -775 0
-1824 -776 0
-1824 -778 1095 0
-1824 -778 -836 -838 0
-1824 -778 -825 0
-1824 -778 -942 0
-1824 -778 -999 0
-1824 -779 1096 0
-1824 -779 -836 -839 0
-1824 -779 -827 0
-1824 -779 -944 0
-1824 -779 -1001 0
-1824 -780 1097 0
-1824 -780 -836 -840 0
-1824 -780 -829 0
-1824 -780 -946 0
-1824 -780 -1003 0
-1824 -781 0
-1825 841 0
-1825 1088 0
-1825 -891 0
-1825 -892 0
-1825 -893 0
-1825 -894 0
-1825 -895 1095 0
-1825 -895 -831 -838 0
-1825 -895 -785 0
-1825 -895 -902 0
-1825 -895 -959 0
-1825 -896 1096 0
-1825 -896 -831 -839 0
-1825 -896 -787 0
-1825 -896 -904 0
-1825 -896 -961 0
-1825 -897 1097 0
-1825 -897 -831 -840 0
-1825 -897 -789 0
-1825 -897 -906 0
-1825 -897 -963 0
-1825 -898 0
-1826 841 0
-1826 1089 0
-1826 -892 0
-1826 -893 0
-1826 -894 0
-1826 -895 1095 0
-1826 -895 -832 -838 0
-1826 -895 -793 0
-1826 -895 -910 0
-1826 -895 -967 0
-1826 -896 1096 0
-1826 -896 -832 -839 0
-1826 -896 -795 0
-1826 -896 -912 0
-1826 -896 -969 0
-1826 -897 1097 0
-1826 -897 -832 -840 0
-1826 -897 -797 0
-1826 -897 -914 0
-1826 -897 -971 0
-1826 -898 0
-1827 841 0
-1827 1090 0
-1827 -890 0
-1827 -893 0
-1827 -894 0
-1827 -895 1095 0
-1827 -895 -833 -838 0
-1827 -895 -801 0
-1827 -895 -918 0
-1827 -895 -975 0
-1827 -896 1096 0
-1827 -896 -833 -839 0
-1827 -896 -803 0
-1827 -896 -920 0
-1827 -896 -977 0
-1827 -897 1097 0
-1827 -897 -833 -840 0
-1827 -897 -805 0
-1827 -897 -922 0
-1827 -897 -979 0
-1827 -898 0
-1828 841 0
-1828 1091 0
-1828 -890 0
-1828 -891 0
-1828 -894 0
-1828 -895 1095 0
-1828 -895 -834 -838 0
-1828 -895 -809 0
-1828 -895 -926 0
-1828 -895 -983 0
-1828 -896 1096 0
-1828 -896 -834 -839 0
-1828 -896 -811 0
-1828 -896 -928 0
-1828 -896 -985 0
-1828 -897 1097 0
-1828 -897 -834 -840 0
-1828 -897 -813 0
-1828 -897 -930 0
-1828 -897 -987 0
-1828 -898 0
-1829 841 0
-1829 1092 0
-1829 -890 0
-1829 -891 0
-1829 -892 0
-1829 -895 1095 0
-1829 -895 -835 -838 0
-1829 -895 -817 0
-1829 -895 -934 0
-1829 -895 -991 0
-1829 -896 1096 0
-1829 -896 -835 -839 0
-1829 -896 -819 0
-1829 -896 -936 0
-1829 -896 -993 0
-1829 -897 1097 0
-1829 -897 -835 -840 0
-1829 -897 -821 0
-1829 -897 -938 0
-1829 -897 -995 0
-1829 -898 0
-1830 841 0
-1830 1093 0
-1830 -890 0
-1830 -891 0
-1830 -892 0
-1830 -893 0
-1830 -895 1095 0
-1830 -895 -836 -838 0
-1830 -895 -825 0
-1830 -895 -942 0
-1830 -895 -999 0
-1830 -896 1096 0
-1830 -896 -836 -839 0
-1830 -896 -827 0
-1830 -896 -944 0
-1830 -896 -1001 0
-1830 -897 1097 0
-1830 -897 -836 -840 0
-1830 -897 -829 0
-1830 -897 -946 0
-1830 -897 -1003 0
-1830 -898 0
-1831 841 0
-1831 1088 0
-1831 -949 0
-1831 -950 0
-1831 -951 0
-1831 -952 1095 0
-1831 -952 -831 -838 0
-1831 -952 -785 0
-1831 -952 -902 0
-1831 -952 -959 0
-1831 -953 1096 0
-1831 -953 -831 -839 0
-1831 -953 -787 0
-1831 -953 -904 0
-1831 -953 -961 0
-1831 -954 1097 0
-1831 -954 -831 -840 0
-1831 -954 -789 0
-1831 -954 -906 0
-1831 -954 -963 0
-1831 -955 0
-1832 841 0
-1832 1089 0
-1832 -950 0
-1832 -951 0
-1832 -952 1095 0
-1832 -952 -832 -838 0
-1832 -952 -793 0
-1832 -952 -910 0
-1832 -952 -967 0
-1832 -953 1096 0
-1832 -953 -832 -839 0
-1832 -953 -795 0
-1832 -953 -912 0
-1832 -953 -969 0
-1832 -954 1097 0
-1832 -954 -832 -840 0
-1832 -954 -797 0
-1832 -954 -914 0
-1832 -954 -971 0
-1832 -955 0
-1833 841 0
-1833 1090 0
-1833 -951 0
-1833 -952 1095 0
-1833 -952 -833 -838 0
-1833 -952 -801 0
-1833 -952 -918 0
-1833 -952 -975 0
-1833 -953 1096 0
-1833 -953 -833 -839 0
-1833 -953 -803 0
-1833 -953 -920 0
-1833 -953 -977 0
-1833 -954 1097 0
-1833 -954 -833 -840 0
-1833 -954 -805 0
-1833 -954 -922 0
-1833 -954 -979 0
-1833 -955 0
-1834 841 0
-1834 1091 0
-1834 -948 0
-1834 -952 1095 0
-1834 -952 -834 -838 0
-1834 -952 -809 0
-1834 -952 -926 0
-1834 -952 -983 0
-1834 -953 1096 0
-1834 -953 -834 -839 0
-1834 -953 -811 0
-1834 -953 -928 0
-1834 -953 -985 0
-1834 -954 1097 0
-1834 -954 -834 -840 0
-1834 -954 -813 0
-1834 -954 -930 0
-1834 -954 -987 0
-1834 -955 0
-1835 841 0
-1835 1092 0
-1835 -948 0
-1835 -949 0
-1835 -952 1095 0
-1835 -952 -835 -838 0
-1835 -952 -817 0
-1835 -952 -934 0
-1835 -952 -991 0
-1835 -953 1096 0
-1835 -953 -835 -839 0
-1835 -953 -819 0
-1835 -953 -936 0
-1835 -953 -993 0
-1835 -954 1097 0
-1835 -954 -835 -840 0
-1835 -954 -821 0
-1835 -954 -938 0
-1835 -954 -995 0
-1835 -955 0
-1836 841 0
-1836 1093 0
-1836 -948 0
-1836 -949 0
-1836 -950 0
-1836 -952 1095 0
-1836 -952 -836 -838 0
-1836 -952 -825 0
-1836 -952 -942 0
-1836 -952 -999 0
-1836 -953 1096 0
-1836 -953 -836 -839 0
-1836 -953 -827 0
-1836 -953 -944 0
-1836 -953 -1001 0
-1836 -954 1097 0
-1836 -954 -836 -840 0
-1836 -954 -829 0
-1836 -954 -946 0
-1836 -954 -1003 0
-1836 -955 0
-1837 841 0
-1837 1088 0
-1837 1094 0
-1837 -831 -837 0
-1837 -783 0
-1837 -900 0
-1837 -957 0
-1838 841 0
-1838 1089 0
-1838 1094 0
-1838 -832 -837 0
-1838 -791 0
-1838 -908 0
-1838 -965 0
-1839 841 0
-1839 1090 0
-1839 1094 0
-1839 -833 -837 0
-1839 -799 0
-1839 -916 0
-1839 -973 0
-1840 841 0
-1840 1091 0
-1840 1094 0
-1840 -834 -837 0
-1840 -807 0
-1840 -924 0
-1840 -981 0
-1841 841 0
-1841 1092 0
-1841 1094 0
-1841 -835 -837 0
-1841 -815 0
-1841 -932 0
-1841 -989 0
-1842 841 0
-1842 1093 0
-1842 1094 0
-1842 -836 -837 0
-1842 -823 0
-1842 -940 0
-1842 -997 0
-1843 899 0
-1843 1147 0
-1843 -774 0
-1843 -775 0
-1843 -776 0
-1843 -777 0
-1843 -778 1153 0
-1843 -778 -890 -896 0
-1843 -778 -785 0
-1843 -778 -793 0
-1843 -778 -844 0
-1843 -778 -852 0
-1843 -778 -959 0
-1843 -778 -967 0
-1843 -779 1154 0
-1843 -779 -890 -897 0
-1843 -779 -787 0
-1843 -779 -795 0
-1843 -779 -846 0
-1843 -779 -854 0
-1843 -779 -961 0
-1843 -779 -969 0
-1843 -780 1155 0
-1843 -780 -890 -898 0
-1843 -780 -789 0
-1843 -780 -797 0
-1843 -780 -848 0
-1843 -780 -856 0
-1843 -780 -963 0
-1843 -780 -971 0
-1843 -781 0
-1844 899 0
-1844 1148 0
-1844 -772 0
-1844 -775 0
-1844 -776 0
-1844 -777 0
-1844 -778 1153 0
-1844 -778 -891 -896 0
-1844 -778 -793 0
-1844 -778 -801 0
-1844 -778 -852 0
-1844 -778 -860 0
-1844 -778 -967 0
-1844 -778 -975 0
-1844 -779 1154 0
-1844 -779 -891 -897 0
-1844 -779 -795 0
-1844 -779 -803 0
-1844 -779 -854 0
-1844 -779 -862 0
-1844 -779 -969 0
-1844 -779 -977 0
-1844 -780 1155 0
-1844 -780 -891 -898 0
-1844 -780 -797 0
-1844 -780 -805 0
-1844 -780 -856 0
-1844 -780 -864 0
-1844 -780 -971 0
-1844 -780 -979 0
-1844 -781 0
-1845 899 0
-1845 1149 0
-1845 -772 0
-1845 -773 0
-1845 -776 0
-1845 -777 0
-1845 -778 1153 0
-1845 -778 -892 -896 0
-1845 -778 -801 0
-1845 -778 -809 0
-1845 -778 -860 0
-1845 -778 -868 0
-1845 -778 -975 0
-1845 -778 -983 0
-1845 -779 1154 0
-1845 -779 -892 -897 0
-1845 -779 -803 0
-1845 -779 -811 0
-1845 -779 -862 0
-1845 -779 -870 0
-1845 -779 -977 0
-1845 -779 -985 0
-1845 -780 1155 0
-1845 -780 -892 -898 0
-1845 -780 -805 0
-1845 -780 -813 0
-1845 -780 -864 0
-1845 -780 -872 0
-1845 -780 -979 0
-1845 -780 -987 0
-1845 -781 0
-1846 899 0
-1846 1150 0
-1846 -772 0
-1846 -773 0
-1846 -774 0
-1846 -777 0
-1846 -778 1153 0
-1846 -778 -893 -896 0
-1846 -778 -809 0
-1846 -778 -817 0
-1846 -778 -868 0
-1846 -778 -876 0
-1846 -778 -983 0
-1846 -778 -991 0
-1846 -779 1154 0
-1846 -779 -893 -897 0
-1846 -779 -811 0
-1846 -779 -819 0
-1846 -779 -870 0
-1846 -779 -878 0
-1846 -779 -985 0
-1846 -779 -993 0
-1846 -780 1155 0
-1846 -780 -893 -898 0
-1846 -780 -813 0
-1846 -780 -821 0
-1846 -780 -872 0
-1846 -780 -880 0
-1846 -780 -987 0
-1846 -780 -995 0
-1846 -781 0
-1847 899 0
-1847 1151 0
-1847 -772 0
-1847 -773 0
-1847 -774 0
-1847 -775 0
-1847 -778 1153 0
-1847 -778 -894 -896 0
-1847 -778 -817 0
-1847 -778 -825 0
-1847 -778 -876 0
-1847 -778 -884 0
-1847 -778 -991 0
-1847 -778 -999 0
-1847 -779 1154 0
-1847 -779 -894 -897 0
-1847 -779 -819 0
-1847 -779 -827 0
-1847 -779 -878 0
-1847 -779 -886 0
-1847 -779 -993 0
-1847 -779 -1001 0
-1847 -780 1155 0
-1847 -780 -894 -898 0
-1847 -780 -821 0
-1847 -780 -829 0
-1847 -780 -880 0
-1847 -780 -888 0
-1847 -780 -995 0
-1847 -780 -1003 0
-1847 -781 0
-1848 899 0
-1848 1147 0
-1848 -833 0
-1848 -834 0
-1848 -835 0
-1848 -836 0
-1848 -837 1153 0
-1848 -837 -890 -896 0
-1848 -837 -785 0
-1848 -837 -793 0
-1848 -837 -844 0
-1848 -837 -852 0
-1848 -837 -959 0
-1848 -837 -967 0
-1848 -838 1154 0
-1848 -838 -890 -897 0
-1848 -838 -787 0
-1848 -838 -795 0
-1848 -838 -846 0
-1848 -838 -854 0
-1848 -838 -961 0
-1848 -838 -969 0
-1848 -839 1155 0
-1848 -839 -890 -898 0
-1848 -839 -789 0
-1848 -839 -797 0
-1848 -839 -848 0
-1848 -839 -856 0
-1848 -839 -963 0
-1848 -839 -971 0
-1848 -840 0
-1849 899 0
-1849 1148 0
-1849 -831 0
-1849 -834 0
-1849 -835 0
-1849 -836 0
-1849 -837 1153 0
-1849 -837 -891 -896 0
-1849 -837 -793 0
-1849 -837 -801 0
-1849 -837 -852 0
-1849 -837 -860 0
-1849 -837 -967 0
-1849 -837 -975 0
-1849 -838 1154 0
-1849 -838 -891 -897 0
-1849 -838 -795 0
-1849 -838 -803 0
-1849 -838 -854 0
-1849 -838 -862 0
-1849 -838 -969 0
-1849 -838 -977 0
-1849 -839 1155 0
-1849 -839 -891 -898 0
-1849 -839 -797 0
-1849 -839 -805 0
-1849 -839 -856 0
-1849 -839 -864 0
-1849 -839 -971 0
-1849 -839 -979 0
-1849 -840 0
-1850 899 0
-1850 1149 0
-1850 -831 0
-1850 -832 0
-1850 -835 0
-1850 -836 0
-1850 -837 1153 0
-1850 -837 -892 -896 0
-1850 -837 -801 0
-1850 -837 -809 0
-1850 -837 -860 0
-1850 -837 -868 0
-1850 -837 -975 0
-1850 -837 -983 0
-1850 -838 1154 0
-1850 -838 -892 -897 0
-1850 -838 -803 0
-1850 -838 -811 0
-1850 -838 -862 0
-1850 -838 -870 0
-1850 -838 -977 0
-1850 -838 -985 0
-1850 -839 1155 0
-1850 -839 -892 -898 0
-1850 -839 -805 0
-1850 -839 -813 0
-1850 -839 -864 0
-1850 -839 -872 0
-1850 -839 -979 0
-1850 -839 -987 0
-1850 -840 0
-1851 899 0
-1851 1150 0
-1851 -831 0
-1851 -832 0
-1851 -833 0
-1851 -836 0
-1851 -837 1153 0
-1851 -837 -893 -896 0
-1851 -837 -809 0
-1851 -837 -817 0
-1851 -837 -868 0
-1851 -837 -876 0
-1851 -837 -983 0
-1851 -837 -991 0
-1851 -838 1154 0
-1851 -838 -893 -897 0
-1851 -838 -811 0
-1851 -838 -819 0
-1851 -838 -870 0
-1851 -838 -878 0
-1851 -838 -985 0
-1851 -838 -993 0
-1851 -839 1155 0
-1851 -839 -893 -898 0
-1851 -839 -813 0
-1851 -839 -821 0
-1851 -839 -872 0
-1851 -839 -880 0
-1851 -839 -987 0
-1851 -839 -995 0
-1851 -840 0
-1852 899 0
-1852 1151 0
-1852 -831 0
-1852 -832 0
-1852 -833 0
-1852 -834 0
-1852 -837 1153 0
-1852 -837 -894 -896 0
-1852 -837 -817 0
-1852 -837 -825 0
-1852 -837 -876 0
-1852 -837 -884 0
-1852 -837 -991 0
-1852 -837 -999 0
-1852 -838 1154 0
-1852 -838 -894 -897 0
-1852 -838 -819 0
-1852 -838 -827 0
-1852 -838 -878 0
-1852 -838 -886 0
-1852 -838 -993 0
-1852 -838 -1001 0
-1852 -839 1155 0
-1852 -839 -894 -898 0
-1852 -839 -821 0
-1852 -839 -829 0
-1852 -839 -880 0
-1852 -839 -888 0
-1852 -839 -995 0
-1852 -839 -1003 0
-1852 -840 0
-1853 899 0
-1853 1147 0
-1853 -950 0
-1853 -951 0
-1853 -952 1153 0
-1853 -952 -890 -896 0
-1853 -952 -785 0
-1853 -952 -793 0
-1853 -952 -844 0
-1853 -952 -852 0
-1853 -952 -959 0
-1853 -952 -967 0
-1853 -953 1154 0
-1853 -953 -890 -897 0
-1853 -953 -787 0
-1853 -953 -795 0
-1853 -953 -846 0
-1853 -953 -854 0
-1853 -953 -961 0
-1853 -953 -969 0
-1853 -954 1155 0
-1853 -954 -890 -898 0
-1853 -954 -789 0
-1853 -954 -797 0
-1853 -954 -848 0
-1853 -954 -856 0
-1853 -954 -963 0
-1853 -954 -971 0
-1853 -955 0
-1854 899 0
-1854 1148 0
-1854 -951 0
-1854 -952 1153 0
-1854 -952 -891 -896 0
-1854 -952 -793 0
-1854 -952 -801 0
-1854 -952 -852 0
-1854 -952 -860 0
-1854 -952 -967 0
-1854 -952 -975 0
-1854 -953 1154 0
-1854 -953 -891 -897 0
-1854 -953 -795 0
-1854 -953 -803 0
-1854 -953 -854 0
-1854 -953 -862 0
-1854 -953 -969 0
-1854 -953 -977 0
-1854 -954 1155 0
-1854 -954 -891 -898 0
-1854 -954 -797 0
-1854 -954 -805 0
-1854 -954 -856 0
-1854 -954 -864 0
-1854 -954 -971 0
-1854 -954 -979 0
-1854 -955 0
-1855 899 0
-1855 1149 0
-1855 -952 1153 0
-1855 -952 -892 -896 0
-1855 -952 -801 0
-1855 -952 -809 0
-1855 -952 -860 0
-1855 -952 -868 0
-1855 -952 -975 0
-1855 -952 -983 0
-1855 -953 1154 0
-1855 -953 -892 -897 0
-1855 -953 -803 0
-1855 -953 -811 0
-1855 -953 -862 0
-1855 -953 -870 0
-1855 -953 -977 0
-1855 -953 -985 0
-1855 -954 1155 0
-1855 -954 -892 -898 0
-1855 -954 -805 0
-1855 -954 -813 0
-1855 -954 -864 0
-1855 -954 -872 0
-1855 -954 -979 0
-1855 -954 -987 0
-1855 -955 0
-1856 899 0
-1856 1150 0
-1856 -948 0
-1856 -952 1153 0
-1856 -952 -893 -896 0
-1856 -952 -809 0
-1856 -952 -817 0
-1856 -952 -868 0
-1856 -952 -876 0
-1856 -952 -983 0
-1856 -952 -991 0
-1856 -953 1154 0
-1856 -953 -893 -897 0
-1856 -953 -811 0
-1856 -953 -819 0
-1856 -953 -870 0
-1856 -953 -878 0
-1856 -953 -985 0
-1856 -953 -993 0
-1856 -954 1155 0
-1856 -954 -893 -898 0
-1856 -954 -813 0
-1856 -954 -821 0
-1856 -954 -872 0
-1856 -954 -880 0
-1856 -954 -987 0
-1856 -954 -995 0
-1856 -955 0
-1857 899 0
-1857 1151 0
-1857 -948 0
-1857 -949 0
-1857 -952 1153 0
-1857 -952 -894 -896 0
-1857 -952 -817 0
-1857 -952 -825 0
-1857 -952 -876 0
-1857 -952 -884 0
-1857 -952 -991 0
-1857 -952 -999 0
-1857 -953 1154 0
-1857 -953 -894 -897 0
-1857 -953 -819 0
-1857 -953 -827 0
-1857 -953 -878 0
-1857 -953 -886 0
-1857 -953 -993 0
-1857 -953 -1001 0
-1857 -954 1155 0
-1857 -954 -894 -898 0
-1857 -954 -821 0
-1857 -954 -829 0
-1857 -954 -880 0
-1857 -954 -888 0
-1857 -954 -995 0
-1857 -954 -1003 0
-1857 -955 0
-1858 899 0
-1858 1147 0
-1858 1152 0
-1858 -890 -895 0
-1858 -783 0
-1858 -791 0
-1858 -842 0
-1858 -850 0
-1858 -957 0
-1858 -965 0
-1859 899 0
-1859 1148 0
-1859 1152 0
-1859 -891 -895 0
-1859 -791 0
-1859 -799 0
-1859 -850 0
-1859 -858 0
-1859 -965 0
-1859 -973 0
-1860 899 0
-1860 1149 0
-1860 1152 0
-1860 -892 -895 0
-1860 -799 0
-1860 -807 0
-1860 -858 0
-1860 -866 0
-1860 -973 0
-1860 -981 0
-1861 899 0
-1861 1150 0
-1861 1152 0
-1861 -893 -895 0
-1861 -807 0
-1861 -815 0
-1861 -866 0
-1861 -874 0
-1861 -981 0
-1861 -989 0
-1862 899 0
-1862 1151 0
-1862 1152 0
-1862 -894 -895 0
-1862 -815 0
-1862 -823 0
-1862 -874 0
-1862 -882 0
-1862 -989 0
-1862 -997 0
-1863 956 0
-1863 1205 0
-1863 -775 0
-1863 -776 0
-1863 -777 0
-1863 -778 1210 0
-1863 -778 -948 -953 0
-1863 -778 -785 0
-1863 -778 -793 0
-1863 -778 -801 0
-1863 -778 -844 0
-1863 -778 -852 0
-1863 -778 -860 0
-1863 -778 -902 0
-1863 -778 -910 0
-1863 -778 -918 0
-1863 -779 1211 0
-1863 -779 -948 -954 0
-1863 -779 -787 0
-1863 -779 -795 0
-1863 -779 -803 0
-1863 -779 -846 0
-1863 -779 -854 0
-1863 -779 -862 0
-1863 -779 -904 0
-1863 -779 -912 0
-1863 -779 -920 0
-1863 -780 1212 0
-1863 -780 -948 -955 0
-1863 -780 -789 0
-1863 -780 -797 0
-1863 -780 -805 0
-1863 -780 -848 0
-1863 -780 -856 0
-1863 -780 -864 0
-1863 -780 -906 0
-1863 -780 -914 0
-1863 -780 -922 0
-1863 -781 0
-1864 956 0
-1864 1206 0
-1864 -772 0
-1864 -776 0
-1864 -777 0
-1864 -778 1210 0
-1864 -778 -949 -953 0
-1864 -778 -793 0
-1864 -778 -801 0
-1864 -778 -809 0
-1864 -778 -852 0
-1864 -778 -860 0
-1864 -778 -868 0
-1864 -778 -910 0
-1864 -778 -918 0
-1864 -778 -926 0
-1864 -779 1211 0
-1864 -779 -949 -954 0
-1864 -779 -795 0
-1864 -779 -803 0
-1864 -779 -811 0
-1864 -779 -854 0
-1864 -779 -862 0
-1864 -779 -870 0
-1864 -779 -912 0
-1864 -779 -920 0
-1864 -779 -928 0
-1864 -780 1212 0
-1864 -780 -949 -955 0
-1864 -780 -797 0
-1864 -780 -805 0
-1864 -780 -813 0
-1864 -780 -856 0
-1864 -780 -864 0
-1864 -780 -872 0
-1864 -780 -914 0
-1864 -780 -922 0
-1864 -780 -930 0
-1864 -781 0
-1865 956 0
-1865 1207 0
-1865 -772 0
-1865 -773 0
-1865 -777 0
-1865 -778 1210 0
-1865 -778 -950 -953 0
-1865 -778 -801 0
-1865 -778 -809 0
-1865 -778 -817 0
-1865 -778 -860 0
-1865 -778 -868 0
-1865 -778 -876 0
-1865 -778 -918 0
-1865 -778 -926 0
-1865 -778 -934 0
-1865 -779 1211 0
-1865 -779 -950 -954 0
-1865 -779 -803 0
-1865 -779 -811 0
-1865 -779 -819 0
-1865 -779 -862 0
-1865 -779 -870 0
-1865 -779 -878 0
-1865 -779 -920 0
-1865 -779 -928 0
-1865 -779 -936 0
-1865 -780 1212 0
-1865 -780 -950 -955 0
-1865 -780 -805 0
-1865 -780 -813 0
-1865 -780 -821 0
-1865 -780 -864 0
-1865 -780 -872 0
-1865 -780 -880 0
-1865 -780 -922 0
-1865 -780 -930 0
-1865 -780 -938 0
-1865 -781 0
-1866 956 0
-1866 1208 0
-1866 -772 0
-1866 -773 0
-1866 -774 0
-1866 -778 1210 0
-1866 -778 -951 -953 0
-1866 -778 -809 0
-1866 -778 -817 0
-1866 -778 -825 0
-1866 -778 -868 0
-1866 -778 -876 0
-1866 -778 -884 0
-1866 -778 -926 0
-1866 -778 -934 0
-1866 -778 -942 0
-1866 -779 1211 0
-1866 -779 -951 -954 0
-1866 -779 -811 0
-1866 -779 -819 0
-1866 -779 -827 0
-1866 -779 -870 0
-1866 -779 -878 0
-1866 -779 -886 0
-1866 -779 -928 0
-1866 -779 -936 0
-1866 -779 -944 0
-1866 -780 1212 0
-1866 -780 -951 -955 0
-1866 -780 -813 0
-1866 -780 -821 0
-1866 -780 -829 0
-1866 -780 -872 0
-1866 -780 -880 0
-1866 -780 -888 0
-1866 -780 -930 0
-1866 -780 -938 0
-1866 -780 -946 0
-1866 -781 0
-1867 956 0
-1867 1205 0
-1867 -834 0
-1867 -835 0
-1867 -836 0
-1867 -837 1210 0
-1867 -837 -948 -953 0
-1867 -837 -785 0
-1867 -837 -793 0
-1867 -837 -801 0
-1867 -837 -844 0
-1867 -837 -852 0
-1867 -837 -860 0
-1867 -837 -902 0
-1867 -837 -910 0
-1867 -837 -918 0
-1867 -838 1211 0
-1867 -838 -948 -954 0
-1867 -838 -787 0
-1867 -838 -795 0
-1867 -838 -803 0
-1867 -838 -846 0
-1867 -838 -854 0
-1867 -838 -862 0
-1867 -838 -904 0
-1867 -838 -912 0
-1867 -838 -920 0
-1867 -839 1212 0
-1867 -839 -948 -955 0
-1867 -839 -789 0
-1867 -839 -797 0
-1867 -839 -805 0
-1867 -839 -848 0
-1867 -839 -856 0
-1867 -839 -864 0
-1867 -839 -906 0
-1867 -839 -914 0
-1867 -839 -922 0
-1867 -840 0
-1868 956 0
-1868 1206 0
-1868 -831 0
-1868 -835 0
-1868 -836 0
-1868 -837 1210 0
-1868 -837 -949 -953 0
-1868 -837 -793 0
-1868 -837 -801 0
-1868 -837 -809 0
-1868 -837 -852 0
-1868 -837 -860 0
-1868 -837 -868 0
-1868 -837 -910 0
-1868 -837 -918 0
-1868 -837 -926 0
-1868 -838 1211 0
-1868 -838 -949 -954 0
-1868 -838 -795 0
-1868 -838 -803 0
-1868 -838 -811 0
-1868 -838 -854 0
-1868 -838 -862 0
-1868 -838 -870 0
-1868 -838 -912 0
-1868 -838 -920 0
-1868 -838 -928 0
-1868 -839 1212 0
-1868 -839 -949 -955 0
-1868 -839 -797 0
-1868 -839 -805 0
-1868 -839 -813 0
-1868 -839 -856 0
-1868 -839 -864 0
-1868 -839 -872 0
-1868 -839 -914 0
-1868 -839 -922 0
-1868 -839 -930 0
-1868 -840 0
-1869 956 0
-1869 1207 0
-1869 -831 0
-1869 -832 0
-1869 -836 0
-1869 -837 1210 0
-1869 -837 -950 -953 0
-1869 -837 -801 0
-1869 -837 -809 0
-1869 -837 -817 0
-1869 -837 -860 0
-1869 -837 -868 0
-1869 -837 -876 0
-1869 -837 -918 0
-1869 -837 -926 0
-1869 -837 -934 0
-1869 -838 1211 0
-1869 -838 -950 -954 0
-1869 -838 -803 0
-1869 -838 -811 0
-1869 -838 -819 0
-1869 -838 -862 0
-1869 -838 -870 0
-1869 -838 -878 0
-1869 -838 -920 0
-1869 -838 -928 0
-1869 -838 -936 0
-1869 -839 1212 0
-1869 -839 -950 -955 0
-1869 -839 -805 0
-1869 -839 -813 0
-1869 -839 -821 0
-1869 -839 -864 0
-1869 -839 -872 0
-1869 -839 -880 0
-1869 -839 -922 0
-1869 -839 -930 0
-1869 -839 -938 0
-1869 -840 0
-1870 956 0
-1870 1208 0
-1870 -831 0
-1870 -832 0
-1870 -833 0
-1870 -837 1210 0
-1870 -837 -951 -953 0
-1870 -837 -809 0
-1870 -837 -817 0
-1870 -837 -825 0
-1870 -837 -868 0
-1870 -837 -876 0
-1870 -837 -884 0
-1870 -837 -926 0
-1870 -837 -934 0
-1870 -837 -942 0
-1870 -838 1211 0
-1870 -838 -951 -954 0
-1870 -838 -811 0
-1870 -838 -819 0
-1870 -838 -827 0
-1870 -838 -870 0
-1870 -838 -878 0
-1870 -838 -886 0
-1870 -838 -928 0
-1870 -838 -936 0
-1870 -838 -944 0
-1870 -839 1212 0
-1870 -839 -951 -955 0
-1870 -839 -813 0
-1870 -839 -821 0
-1870 -839 -829 0
-1870 -839 -872 0
-1870 -839 -880 0
-1870 -839 -888 0
-1870 -839 -930 0
-1870 -839 -938 0
-1870 -839 -946 0
-1870 -840 0
-1871 956 0
-1871 1205 0
-1871 -893 0
-1871 -894 0
-1871 -895 1210 0
-1871 -895 -948 -953 0
-1871 -895 -785 0
-1871 -895 -793 0
-1871 -895 -801 0
-1871 -895 -844 0
-1871 -895 -852 0
-1871 -895 -860 0
-1871 -895 -902 0
-1871 -895 -910 0
-1871 -895 -918 0
-1871 -896 1211 0
-1871 -896 -948 -954 0
-1871 -896 -787 0
-1871 -896 -795 0
-1871 -896 -803 0
-1871 -896 -846 0
-1871 -896 -854 0
-1871 -896 -862 0
-1871 -896 -904 0
-1871 -896 -912 0
-1871 -896 -920 0
-1871 -897 1212 0
-1871 -897 -948 -955 0
-1871 -897 -789 0
-1871 -897 -797 0
-1871 -897 -805 0
-1871 -897 -848 0
-1871 -897 -856 0
-1871 -897 -864 0
-1871 -897 -906 0
-1871 -897 -914 0
-1871 -897 -922 0
-1871 -898 0
-1872 956 0
-1872 1206 0
-1872 -894 0
-1872 -895 1210 0
-1872 -895 -949 -953 0
-1872 -895 -793 0
-1872 -895 -801 0
-1872 -895 -809 0
-1872 -895 -852 0
-1872 -895 -860 0
-1872 -895 -868 0
-1872 -895 -910 0
-1872 -895 -918 0
-1872 -895 -926 0
-1872 -896 1211 0
-1872 -896 -949 -954 0
-1872 -896 -795 0
-1872 -896 -803 0
-1872 -896 -811 0
-1872 -896 -854 0
-1872 -896 -862 0
-1872 -896 -870 0
-1872 -896 -912 0
-1872 -896 -920 0
-1872 -896 -928 0
-1872 -897 1212 0
-1872 -897 -949 -955 0
-1872 -897 -797 0
-1872 -897 -805 0
-1872 -897 -813 0
-1872 -897 -856 0
-1872 -897 -864 0
-1872 -897 -872 0
-1872 -897 -914 0
-1872 -897 -922 0
-1872 -897 -930 0
-1872 -898 0
-1873 956 0
-1873 1207 0
-1873 -890 0
-1873 -895 1210 0
-1873 -895 -950 -953 0
-1873 -895 -801 0
-1873 -895 -809 0
-1873 -895 -817 0
-1873 -895 -860 0
-1873 -895 -868 0
-1873 -895 -876 0
-1873 -895 -918 0
-1873 -895 -926 0
-1873 -895 -934 0
-1873 -896 1211 0
-1873 -896 -950 -954 0
-1873 -896 -803 0
-1873 -896 -811 0
-1873 -896 -819 0
-1873 -896 -862 0
-1873 -896 -870 0
-1873 -896 -878 0
-1873 -896 -920 0
-1873 -896 -928 0
-1873 -896 -936 0
-1873 -897 1212 0
-1873 -897 -950 -955 0
-1873 -897 -805 0
-1873 -897 -813 0
-1873 -897 -821 0
-1873 -897 -864 0
-1873 -897 -872 0
-1873 -897 -880 0
-1873 -897 -922 0
-1873 -897 -930 0
-1873 -897 -938 0
-1873 -898 0
-1874 956 0
-1874 1208 0
-1874 -890 0
-1874 -891 0
-1874 -895 1210 0
-1874 -895 -951 -953 0
-1874 -895 -809 0
-1874 -895 -817 0
-1874 -895 -825 0
-1874 -895 -868 0
-1874 -895 -876 0
-1874 -895 -884 0
-1874 -895 -926 0
-1874 -895 -934 0
-1874 -895 -942 0
-1874 -896 1211 0
-1874 -896 -951 -954 0
-1874 -896 -811 0
-1874 -896 -819 0
-1874 -896 -827 0
-1874 -896 -870 0
-1874 -896 -878 0
-1874 -896 -886 0
-1874 -896 -928 0
-1874 -896 -936 0
-1874 -896 -944 0
-1874 -897 1212 0
-1874 -897 -951 -955 0
-1874 -897 -813 0
-1874 -897 -821 0
-1874 -897 -829 0
-1874 -897 -872 0
-1874 -897 -880 0
-1874 -897 -888 0
-1874 -897 -930 0
-1874 -897 -938 0
-1874 -897 -946 0
-1874 -898 0
-1875 956 0
-1875 1205 0
-1875 1209 0
-1875 -948 -952 0
-1875 -783 0
-1875 -791 0
-1875 -799 0
-1875 -842 0
-1875 -850 0
-1875 -858 0
-1875 -900 0
-1875 -908 0
-1875 -916 0
-1876 956 0
-1876 1206 0
-1876 1209 0
-1876 -949 -952 0
-1876 -791 0
-1876 -799 0
-1876 -807 0
-1876 -850 0
-1876 -858 0
-1876 -866 0
-1876 -908 0
-1876 -916 0
-1876 -924 0
-1877 956 0
-1877 1207 0
-1877 1209 0
-1877 -950 -952 0
-1877 -799 0
-1877 -807 0
-1877 -815 0
-1877 -858 0
-1877 -866 0
-1877 -874 0
-1877 -916 0
-1877 -924 0
-1877 -932 0
-1878 956 0
-1878 1208 0
-1878 1209 0
-1878 -951 -952 0
-1878 -807 0
-1878 -815 0
-1878 -823 0
-1878 -866 0
-1878 -874 0
-1878 -882 0
-1878 -924 0
-1878 -932 0
-1878 -940 0
-772 1029 1795 1796 1797 1798 1799 1800 1801 1802 1803 1804 1805 1806 1807 1808 1809 1810 1811 1812 1813 1814 1815 1816 1817 1818 0
-773 1030 1795 1796 1797 1798 1799 1800 1801 1802 1803 1804 1805 1806 1807 1808 1809 1810 1811 1812 1813 1814 1815 1816 1817 1818 0
-774 1031 1795 1796 1797 1798 1799 1800 1801 1802 1803 1804 1805 1806 1807 1808 1809 1810 1811 1812 1813 1814 1815 1816 1817 1818 0
-775 1032 1795 1796 1797 1798 1799 1800 1801 1802 1803 1804 1805 1806 1807 1808 1809 1810 1811 1812 1813 1814 1815 1816 1817 1818 0
-776 1033 1795 1796 1797 1798 1799 1800 1801 1802 1803 1804 1805 1806 1807 1808 1809 1810 1811 1812 1813 1814 1815 1816 1817 1818 0
-777 1034 1795 1796 1797 1798 1799 1800 1801 1802 1803 1804 1805 1806 1807 1808 1809 1810 1811 1812 1813 1814 1815 1816 1817 1818 0
-778 1035 1795 1796 1797 1798 1799 1800 1801 1802 1803 1804 1805 1806 1807 1808 1809 1810 1811 1812 1813 1814 1815 1816 1817 1818 0
-779 1036 1795 1796 1797 1798 1799 1800 1801 1802 1803 1804 1805 1806 1807 1808 1809 1810 1811 1812 1813 1814 1815 1816 1817 1818 0
-780 1037 1795 1796 1797 1798 1799 1800 1801 1802 1803 1804 1805 1806 1807 1808 1809 1810 1811 1812 1813 1814 1815 1816 1817 1818 0
-781 1038 1795 1796 1797 1798 1799 1800 1801 1802 1803 1804 1805 1806 1807 1808 1809 1810 1811 1812 1813 1814 1815 1816 1817 1818 0
-831 1088 1819 1820 1821 1822 1823 1824 1825 1826 1827 1828 1829 1830 1831 1832 1833 1834 1835 1836 1837 1838 1839 1840 1841 1842 0
-832 1089 1819 1820 1821 1822 1823 1824 1825 1826 1827 1828 1829 1830 1831 1832 1833 1834 1835 1836 1837 1838 1839 1840 1841 1842 0
-833 1090 1819 1820 1821 1822 1823 1824 1825 1826 1827 1828 1829 1830 1831 1832 1833 1834 1835 1836 1837 1838 1839 1840 1841 1842 0
-834 1091 1819 1820 1821 1822 1823 1824 1825 1826 1827 1828 1829 1830 1831 1832 1833 1834 1835 1836 1837 1838 1839 1840 1841 1842 0
-835 1092 1819 1820 1821 1822 1823 1824 1825 1826 1827 1828 1829 1830 1831 1832 1833 1834 1835 1836 1837 1838 1839 1840 1841 1842 0
-836 1093 1819 1820 1821 1822 1823 1824 1825 1826 1827 1828 1829 1830 1831 1832 1833 1834 1835 1836 1837 1838 1839 1840 1841 1842 0
-837 1094 1819 1820 1821 1822 1823 1824 1825 1826 1827 1828 1829 1830 1831 1832 1833 1834 1835 1836 1837 1838 1839 1840 1841 1842 0
-838 1095 1819 1820 1821 1822 1823 1824 1825 1826 1827 1828 1829 1830 1831 1832 1833 1834 1835 1836 1837 1838 1839 1840 1841 1842 0
-839 1096 1819 1820 1821 1822 1823 1824 1825 1826 1827 1828 1829 1830 1831 1832 1833 1834 1835 1836 1837 1838 1839 1840 1841 1842 0
-840 1097 1819 1820 1821 1822 1823 1824 1825 1826 1827 1828 1829 1830 1831 1832 1833 1834 1835 1836 1837 1838 1839 1840 1841 1842 0
-890 1147 1843 1844 1845 1846 1847 1848 1849 1850 1851 1852 1853 1854 1855 1856 1857 1858 1859 1860 1861 1862 0
-891 1148 1843 1844 1845 1846 1847 1848 1849 1850 1851 1852 1853 1854 1855 1856 1857 1858 1859 1860 1861 1862 0
-892 1149 1843 1844 1845 1846 1847 1848 1849 1850 1851 1852 1853 1854 1855 1856 1857 1858 1859 1860 1861 1862 0
-893 1150 1843 1844 1845 1846 1847 1848 1849 1850 1851 1852 1853 1854 1855 1856 1857 1858 1859 1860 1861 1862 0
-894 1151 1843 1844 1845 1846 1847 1848 1849 1850 1851 1852 1853 1854 1855 1856 1857 1858 1859 1860 1861 1862 0
-895 1152 1843 1844 1845 1846 1847 1848 1849 1850 1851 1852 1853 1854 1855 1856 1857 1858 1859 1860 1861 1862 0
-896 1153 1843 1844 1845 1846 1847 1848 1849 1850 1851 1852 1853 1854 1855 1856 1857 1858 1859 1860 1861 1862 0
-897 1154 1843 1844 1845 1846 1847 1848 1849 1850 1851 1852 1853 1854 1855 1856 1857 1858 1859 1860 1861 1862 0
-898 1155 1843 1844 1845 1846 1847 1848 1849 1850 1851 1852 1853 1854 1855 1856 1857 1858 1859 1860 1861 1862 0
-948 1205 1863 1864 1865 1866 1867 1868 1869 1870 1871 1872 1873 1874 1875 1876 1877 1878 0
-949 1206 1863 1864 1865 1866 1867 1868 1869 1870 1871 1872 1873 1874 1875 1876 1877 1878 0
-950 1207 1863 1864 1865 1866 1867 1868 1869 1870 1871 1872 1873 1874 1875 1876 1877 1878 0
-951 1208 1863 1864 1865 1866 1867 1868 1869 1870 1871 1872 1873 1874 1875 1876 1877 1878 0
-952 1209 1863 1864 1865 1866 1867 1868 1869 1870 1871 1872 1873 1874 1875 1876 1877 1878 0
-953 1210 1863 1864 1865 1866 1867 1868 1869 1870 1871 1872 1873 1874 1875 1876 1877 1878 0
-954 1211 1863 1864 1865 1866 1867 1868 1869 1870 1871 1872 1873 1874 1875 1876 1877 1878 0
-955 1212 1863 1864 1865 1866 1867 1868 1869 1870 1871 1872 1873 1874 1875 1876 1877 1878 0
-1879 -1880 0
-1879 -1881 0
-1879 -1882 0
-1879 -1883 0
-1879 -1884 0
-1879 -1885 0
-1879 -1886 0
-1879 -1887 0
-1879 -1888 0
-1879 -1889 0
-1879 -1890 0
-1879 -1891 0
-1879 -1892 0
-1879 -1893 0
-1879 -1894 0
-1879 -1895 0
-1879 -1896 0
-1879 -1897 0
-1879 -1898 0
-1879 -1899 0
-1879 -1900 0
-1879 -1901 0
-1879 -1902 0
-1879 -1903 0
-1879 -1904 0
-1879 -1905 0
-1879 -1906 0
-1879 -1907 0
-1879 -1908 0
-1879 -1909 0
-1879 -1910 0
-1879 -1911 0
-1879 -1912 0
-1879 -1913 0
-1879 -1914 0
-1879 -1915 0
-1879 -1916 0
-1879 -1917 0
-1879 -1918 0
-1879 -1919 0
-1879 -1920 0
-1879 -1921 0
-1879 -1922 0
-1879 -1923 0
-1879 -1924 0
-1879 -1925 0
-1879 -1926 0
-1879 -1927 0
-1879 -1928 0
-1879 -1929 0
-1879 -1930 0
-1879 -1931 0
-1879 -1932 0
-1879 -1933 0
-1879 -1934 0
-1879 -1935 0
-1879 -1936 0
-1879 -1937 0
-1879 -1938 0
-1879 -1939 0
-1879 -1940 0
-1879 -1941 0
-1879 -1942 0
-1879 -1943 0
-1879 -1944 0
-1879 -1945 0
-1879 -1946 0
-1879 -1947 0
-1879 -1948 0
-1879 -1949 0
-1879 -1950 0
-1879 -1951 0
-1879 -1952 0
-1879 -1953 0
-1879 -1954 0
-1879 -1955 0
-1879 -1956 0
-1879 -1957 0
-1879 -1958 0
-1879 -1959 0
-1879 -1960 0
-1879 -1961 0
-1879 -1962 0
-1880 -1881 0
-1880 -1882 0
-1880 -1883 0
-1880 -1884 0
-1880 -1885 0
-1880 -1886 0
-1880 -1887 0
-1880 -1888 0
-1880 -1889 0
-1880 -1890 0
-1880 -1891 0
-1880 -1892 0
-1880 -1893 0
-1880 -1894 0
-1880 -1895 0
-1880 -1896 0
-1880 -1897 0
-1880 -1898 0
-1880 -1899 0
-1880 -1900 0
-1880 -1901 0
-1880 -1902 0
-1880 -1903 0
-1880 -1904 0
-1880 -1905 0
-1880 -1906 0
-1880 -1907 0
-1880 -1908 0
-1880 -1909 0
-1880 -1910 0
-1880 -1911 0
-1880 -1912 0
-1880 -1913 0
-1880 -1914 0
-1880 -1915 0
-1880 -1916 0
-1880 -1917 0
-1880 -1918 0
-1880 -1919 0
-1880 -1920 0
-1880 -1921 0
-1880 -1922 0
-1880 -1923 0
-1880 -1924 0
-1880 -1925 0
-1880 -1926 0
-1880 -1927 0
-1880 -1928 0
-1880 -1929 0
-1880 -1930 0
-1880 -1931 0
-1880 -1932 0
-1880 -1933 0
-1880 -1934 0
-1880 -1935 0
-1880 -1936 0
-1880 -1937 0
-1880 -1938 0
-1880 -1939 0
-1880 -1940 0
-1880 -1941 0
-1880 -1942 0
-1880 -1943 0
-1880 -1944 0
-1880 -1945 0
-1880 -1946 0
-1880 -1947 0
-1880 -1948 0
-1880 -1949 0
-1880 -1950 0
-1880 -1951 0
-1880 -1952 0
-1880 -1953 0
-1880 -1954 0
-1880 -1955 0
-1880 -1956 0
-1880 -1957 0
-1880 -1958 0
-1880 -1959 0
-1880 -1960 0
-1880 -1961 0
-1880 -1962 0
-1881 -1882 0
-1881 -1883 0
-1881 -1884 0
-1881 -1885 0
-1881 -1886 0
-1881 -1887 0
-1881 -1888 0
-1881 -1889 0
-1881 -1890 0
-1881 -1891 0
-1881 -1892 0
-1881 -1893 0
-1881 -1894 0
-1881 -1895 0
-1881 -1896 0
-1881 -1897 0
-1881 -1898 0
-1881 -1899 0
-1881 -1900 0
-1881 -1901 0
-1881 -1902 0
-1881 -1903 0
-1881 -1904 0
-1881 -1905 0
-1881 -1906 0
-1881 -1907 0
-1881 -1908 0
-1881 -1909 0
-1881 -1910 0
-1881 -1911 0
-1881 -1912 0
-1881 -1913 0
-1881 -1914 0
-1881 -1915 0
-1881 -1916 0
-1881 -1917 0
-1881 -1918 0
-1881 -1919 0
-1881 -1920 0
-1881 -1921 0
-1881 -1922 0
-1881 -1923 0
-1881 -1924 0
-1881 -1925 0
-1881 -1926 0
-1881 -1927 0
-1881 -1928 0
-1881 -1929 0
-1881 -1930 0
-1881 -1931 0
-1881 -1932 0
-1881 -1933 0
-1881 -1934 0
-1881 -1935 0
-1881 -1936 0
-1881 -1937 0
-1881 -1938 0
-1881 -1939 0
-1881 -1940 0
-1881 -1941 0
-1881 -1942 0
-1881 -1943 0
-1881 -1944 0
-1881 -1945 0
-1881 -1946 0
-1881 -1947 0
-1881 -1948 0
-1881 -1949 0
-1881 -1950 0
-1881 -1951 0
-1881 -1952 0
-1881 -1953 0
-1881 -1954 0
-1881 -1955 0
-1881 -1956 0
-1881 -1957 0
-1881 -1958 0
-1881 -1959 0
-1881 -1960 0
-1881 -1961 0
-1881 -1962 0
-1882 -1883 0
-1882 -1884 0
-1882 -1885 0
-1882 -1886 0
-1882 -1887 0
-1882 -1888 0
-1882 -1889 0
-1882 -1890 0
-1882 -1891 0
-1882 -1892 0
-1882 -1893 0
-1882 -1894 0
-1882 -1895 0
-1882 -1896 0
-1882 -1897 0
-1882 -1898 0
-1882 -1899 0
-1882 -1900 0
-1882 -1901 0
-1882 -1902 0
-1882 -1903 0
-1882 -1904 0
-1882 -1905 0
-1882 -1906 0
-1882 -1907 0
-1882 -1908 0
-1882 -1909 0
-1882 -1910 0
-1882 -1911 0
-1882 -1912 0
-1882 -1913 0
-1882 -1914 0
-1882 -1915 0
-1882 -1916 0
-1882 -1917 0
-1882 -1918 0
-1882 -1919 0
-1882 -1920 0
-1882 -1921 0
-1882 -1922 0
-1882 -1923 0
-1882 -1924 0
-1882 -1925 0
-1882 -1926 0
-1882 -1927 0
-1882 -1928 0
-1882 -1929 0
-1882 -1930 0
-1882 -1931 0
-1882 -1932 0
-1882 -1933 0
-1882 -1934 0
-1882 -1935 0
-1882 -1936 0
-1882 -1937 0
-1882 -1938 0
-1882 -1939 0
-1882 -1940 0
-1882 -1941 0
-1882 -1942 0
-1882 -1943 0
-1882 -1944 0
-1882 -1945 0
-1882 -1946 0
-1882 -1947 0
-1882 -1948 0
-1882 -1949 0
-1882 -1950 0
-1882 -1951 0
-1882 -1952 0
-1882 -1953 0
-1882 -1954 0
-1882 -1955 0
-1882 -1956 0
-1882 -1957 0
-1882 -1958 0
-1882 -1959 0
-1882 -1960 0
-1882 -1961 0
-1882 -1962 0
-1883 -1884 0
-1883 -1885 0
-1883 -1886 0
-1883 -1887 0
-1883 -1888 0
-1883 -1889 0
-1883 -1890 0
-1883 -1891 0
-1883 -1892 0
-1883 -1893 0
-1883 -1894 0
-1883 -1895 0
-1883 -1896 0
-1883 -1897 0
-1883 -1898 0
-1883 -1899 0
-1883 -1900 0
-1883 -1901 0
-1883 -1902 0
-1883 -1903 0
-1883 -1904 0
-1883 -1905 0
-1883 -1906 0
-1883 -1907 0
-1883 -1908 0
-1883 -1909 0
-1883 -1910 0
-1883 -1911 0
-1883 -1912 0
-1883 -1913 0
-1883 -1914 0
-1883 -1915 0
-1883 -1916 0
-1883 -1917 0
-1883 -1918 0
-1883 -1919 0
-1883 -1920 0
-1883 -1921 0
-1883 -1922 0
-1883 -1923 0
-1883 -1924 0
-1883 -1925 0
-1883 -1926 0
-1883 -1927 0
-1883 -1928 0
-1883 -1929 0
-1883 -1930 0
-1883 -1931 0
-1883 -1932 0
-1883 -1933 0
-1883 -1934 0
-1883 -1935 0
-1883 -1936 0
-1883 -1937 0
-1883 -1938 0
-1883 -1939 0
-1883 -1940 0
-1883 -1941 0
-1883 -1942 0
-1883 -1943 0
-1883 -1944 0
-1883 -1945 0
-1883 -1946 0
-1883 -1947 0
-1883 -1948 0
-1883 -1949 0
-1883 -1950 0
-1883 -1951 0
-1883 -1952 0
-1883 -1953 0
-1883 -1954 0
-1883 -1955 0
-1883 -1956 0
-1883 -1957 0
-1883 -1958 0
-1883 -1959 0
-1883 -1960 0
-1883 -1961 0
-1883 -1962 0
-1884 -1885 0
-1884 -1886 0
-1884 -1887 0
-1884 -1888 0
-1884 -1889 0
-1884 -1890 0
-1884 -1891 0
-1884 -1892 0
-1884 -1893 0
-1884 -1894 0
-1884 -1895 0
-1884 -1896 0
-1884 -1897 0
-1884 -1898 0
-1884 -1899 0
-1884 -1900 0
-1884 -1901 0
-1884 -1902 0
-1884 -1903 0
-1884 -1904 0
-1884 -1905 0
-1884 -1906 0
-1884 -1907 0
-1884 -1908 0
-1884 -1909 0
-1884 -1910 0
-1884 -1911 0
-1884 -1912 0
-1884 -1913 0
-1884 -1914 0
-1884 -1915 0
-1884 -1916 0
-1884 -1917 0
-1884 -1918 0
-1884 -1919 0
-1884 -1920 0
-1884 -1921 0
-1884 -1922 0
-1884 -1923 0
-1884 -1924 0
-1884 -1925 0
-1884 -1926 0
-1884 -1927 0
-1884 -1928 0
-1884 -1929 0
-1884 -1930 0
-1884 -1931 0
-1884 -1932 0
-1884 -1933 0
-1884 -1934 0
-1884 -1935 0
-1884 -1936 0
-1884 -1937 0
-1884 -1938 0
-1884 -1939 0
-1884 -1940 0
-1884 -1941 0
-1884 -1942 0
-1884 -1943 0
-1884 -1944 0
-1884 -1945 0
-1884 -1946 0
-1884 -1947 0
-1884 -1948 0
-1884 -1949 0
-1884 -1950 0
-1884 -1951 0
-1884 -1952 0
-1884 -1953 0
-1884 -1954 0
-1884 -1955 0
-1884 -1956 0
-1884 -1957 0
-1884 -1958 0
-1884 -1959 0
-1884 -1960 0
-1884 -1961 0
-1884 -1962 0
-1885 -1886 0
-1885 -1887 0
-1885 -1888 0
-1885 -1889 0
-1885 -1890 0
-1885 -1891 0
-1885 -1892 0
-1885 -1893 0
-1885 -1894 0
-1885 -1895 0
-1885 -1896 0
-1885 -1897 0
-1885 -1898 0
-1885 -1899 0
-1885 -1900 0
-1885 -1901 0
-1885 -1902 0
-1885 -1903 0
-1885 -1904 0
-1885 -1905 0
-1885 -1906 0
-1885 -1907 0
-1885 -1908 0
-1885 -1909 0
-1885 -1910 0
-1885 -1911 0
-1885 -1912 0
-1885 -1913 0
-1885 -1914 0
-1885 -1915 0
-1885 -1916 0
-1885 -1917 0
-1885 -1918 0
-1885 -1919 0
-1885 -1920 0
-1885 -1921 0
-1885 -1922 0
-1885 -1923 0
-1885 -1924 0
-1885 -1925 0
-1885 -1926 0
-1885 -1927 0
-1885 -1928 0
-1885 -1929 0
-1885 -1930 0
-1885 -1931 0
-1885 -1932 0
-1885 -1933 0
-1885 -1934 0
-1885 -1935 0
-1885 -1936 0
-1885 -1937 0
-1885 -1938 0
-1885 -1939 0
-1885 -1940 0
-1885 -1941 0
-1885 -1942 0
-1885 -1943 0
-1885 -1944 0
-1885 -1945 0
-1885 -1946 0
-1885 -1947 0
-1885 -1948 0
-1885 -1949 0
-1885 -1950 0
-1885 -1951 0
-1885 -1952 0
-1885 -1953 0
-1885 -1954 0
-1885 -1955 0
-1885 -1956 0
-1885 -1957 0
-1885 -1958 0
-1885 -1959 0
-1885 -1960 0
-1885 -1961 0
-1885 -1962 0
-1886 -1887 0
-1886 -1888 0
-1886 -1889 0
-1886 -1890 0
-1886 -1891 0
-1886 -1892 0
-1886 -1893 0
-1886 -1894 0
-1886 -1895 0
-1886 -1896 0
-1886 -1897 0
-1886 -1898 0
-1886 -1899 0
-1886 -1900 0
-1886 -1901 0
-1886 -1902 0
-1886 -1903 0
-1886 -1904 0
-1886 -1905 0
-1886 -1906 0
-1886 -1907 0
-1886 -1908 0
-1886 -1909 0
-1886 -1910 0
-1886 -1911 0
-1886 -1912 0
-1886 -1913 0
-1886 -1914 0
-1886 -1915 0
-1886 -1916 0
-1886 -1917 0
-1886 -1918 0
-1886 -1919 0
-1886 -1920 0
-1886 -1921 0
-1886 -1922 0
-1886 -1923 0
-1886 -1924 0
-1886 -1925 0
-1886 -1926 0
-1886 -1927 0
-1886 -1928 0
-1886 -1929 0
-1886 -1930 0
-1886 -1931 0
-1886 -1932 0
-1886 -1933 0
-1886 -1934 0
-1886 -1935 0
-1886 -1936 0
-1886 -1937 0
-1886 -1938 0
-1886 -1939 0
-1886 -1940 0
-1886 -1941 0
-1886 -1942 0
-1886 -1943 0
-1886 -1944 0
-1886 -1945 0
-1886 -1946 0
-1886 -1947 0
-1886 -1948 0
-1886 -1949 0
-1886 -1950 0
-1886 -1951 0
-1886 -1952 0
-1886 -1953 0
-1886 -1954 0
-1886 -1955 0
-1886 -1956 0
-1886 -1957 0
-1886 -1958 0
-1886 -1959 0
-1886 -1960 0
-1886 -1961 0
-1886 -1962 0
-1887 -1888 0
-1887 -1889 0
-1887 -1890 0
-1887 -1891 0
-1887 -1892 0
-1887 -1893 0
-1887 -1894 0
-1887 -1895 0
-1887 -1896 0
-1887 -1897 0
-1887 -1898 0
-1887 -1899 0
-1887 -1900 0
-1887 -1901 0
-1887 -1902 0
-1887 -1903 0
-1887 -1904 0
-1887 -1905 0
-1887 -1906 0
-1887 -1907 0
-1887 -1908 0
-1887 -1909 0
-1887 -1910 0
-1887 -1911 0
-1887 -1912 0
-1887 -1913 0
-1887 -1914 0
-1887 -1915 0
-1887 -1916 0
-1887 -1917 0
-1887 -1918 0
-1887 -1919 0
-1887 -1920 0
-1887 -1921 0
-1887 -1922 0
-1887 -1923 0
-1887 -1924 0
-1887 -1925 0
-1887 -1926 0
-1887 -1927 0
-1887 -1928 0
-1887 -1929 0
-1887 -1930 0
-1887 -1931 0
-1887 -1932 0
-1887 -1933 0
-1887 -1934 0
-1887 -1935 0
-1887 -1936 0
-1887 -1937 0
-1887 -1938 0
-1887 -1939 0
-1887 -1940 0
-1887 -1941 0
-1887 -1942 0
-1887 -1943 0
-1887 -1944 0
-1887 -1945 0
-1887 -1946 0
-1887 -1947 0
-1887 -1948 0
-1887 -1949 0
-1887 -1950 0
-1887 -1951 0
-1887 -1952 0
-1887 -1953 0
-1887 -1954 0
-1887 -1955 0
-1887 -1956 0
-1887 -1957 0
-1887 -1958 0
-1887 -1959 0
-1887 -1960 0
-1887 -1961 0
-1887 -1962 0
-1888 -1889 0
-1888 -1890 0
-1888 -1891 0
-1888 -1892 0
-1888 -1893 0
-1888 -1894 0
-1888 -1895 0
-1888 -1896 0
-1888 -1897 0
-1888 -1898 0
-1888 -1899 0
-1888 -1900 0
-1888 -1901 0
-1888 -1902 0
-1888 -1903 0
-1888 -1904 0
-1888 -1905 0
-1888 -1906 0
-1888 -1907 0
-1888 -1908 0
-1888 -1909 0
-1888 -1910 0
-1888 -1911 0
-1888 -1912 0
-1888 -1913 0
-1888 -1914 0
-1888 -1915 0
-1888 -1916 0
-1888 -1917 0
-1888 -1918 0
-1888 -1919 0
-1888 -1920 0
-1888 -1921 0
-1888 -1922 0
-1888 -1923 0
-1888 -1924 0
-1888 -1925 0
-1888 -1926 0
-1888 -1927 0
-1888 -1928 0
-1888 -1929 0
-1888 -1930 0
-1888 -1931 0
-1888 -1932 0
-1888 -1933 0
-1888 -1934 0
-1888 -1935 0
-1888 -1936 0
-1888 -1937 0
-1888 -1938 0
-1888 -1939 0
-1888 -1940 0
-1888 -1941 0
-1888 -1942 0
-1888 -1943 0
-1888 -1944 0
-1888 -1945 0
-1888 -1946 0
-1888 -1947 0
-1888 -1948 0
-1888 -1949 0
-1888 -1950 0
-1888 -1951 0
-1888 -1952 0
-1888 -1953 0
-1888 -1954 0
-1888 -1955 0
-1888 -1956 0
-1888 -1957 0
-1888 -1958 0
-1888 -1959 0
-1888 -1960 0
-1888 -1961 0
-1888 -1962 0
-1889 -1890 0
-1889 -1891 0
-1889 -1892 0
-1889 -1893 0
-1889 -1894 0
-1889 -1895 0
-1889 -1896 0
-1889 -1897 0
-1889 -1898 0
-1889 -1899 0
-1889 -1900 0
-1889 -1901 0
-1889 -1902 0
-1889 -1903 0
-1889 -1904 0
-1889 -1905 0
-1889 -1906 0
-1889 -1907 0
-1889 -1908 0
-1889 -1909 0
-1889 -1910 0
-1889 -1911 0
-1889 -1912 0
-1889 -1913 0
-1889 -1914 0
-1889 -1915 0
-1889 -1916 0
-1889 -1917 0
-1889 -1918 0
-1889 -1919 0
-1889 -1920 0
-1889 -1921 0
-1889 -1922 0
-1889 -1923 0
-1889 -1924 0
-1889 -1925 0
-1889 -1926 0
-1889 -1927 0
-1889 -1928 0
-1889 -1929 0
-1889 -1930 0
-1889 -1931 0
-1889 -1932 0
-1889 -1933 0
-1889 -1934 0
-1889 -1935 0
-1889 -1936 0
-1889 -1937 0
-1889 -1938 0
-1889 -1939 0
-1889 -1940 0
-1889 -1941 0
-1889 -1942 0
-1889 -1943 0
-1889 -1944 0
-1889 -1945 0
-1889 -1946 0
-1889 -1947 0
-1889 -1948 0
-1889 -1949 0
-1889 -1950 0
-1889 -1951 0
-1889 -1952 0
-1889 -1953 0
-1889 -1954 0
-1889 -1955 0
-1889 -1956 0
-1889 -1957 0
-1889 -1958 0
-1889 -1959 0
-1889 -1960 0
-1889 -1961 0
-1889 -1962 0
-1890 -1891 0
-1890 -1892 0
-1890 -1893 0
-1890 -1894 0
-1890 -1895 0
-1890 -1896 0
-1890 -1897 0
-1890 -1898 0
-1890 -1899 0
-1890 -1900 0
-1890 -1901 0
-1890 -1902 0
-1890 -1903 0
-1890 -1904 0
-1890 -1905 0
-1890 -1906 0
-1890 -1907 0
-1890 -1908 0
-1890 -1909 0
-1890 -1910 0
-1890 -1911 0
-1890 -1912 0
-1890 -1913 0
-1890 -1914 0
-1890 -1915 0
-1890 -1916 0
-1890 -1917 0
-1890 -1918 0
-1890 -1919 0
-1890 -1920 0
-1890 -1921 0
-1890 -1922 0
-1890 -1923 0
-1890 -1924 0
-1890 -1925 0
-1890 -1926 0
-1890 -1927 0
-1890 -1928 0
-1890 -1929 0
-1890 -1930 0
-1890 -1931 0
-1890 -1932 0
-1890 -1933 0
-1890 -1934 0
-1890 -1935 0
-1890 -1936 0
-1890 -1937 0
-1890 -1938 0
-1890 -1939 0
-1890 -1940 0
-1890 -1941 0
-1890 -1942 0
-1890 -1943 0
-1890 -1944 0
-1890 -1945 0
-1890 -1946 0
-1890 -1947 0
-1890 -1948 0
-1890 -1949 0
-1890 -1950 0
-1890 -1951 0
-1890 -1952 0
-1890 -1953 0
-1890 -1954 0
-1890 -1955 0
-1890 -1956 0
-1890 -1957 0
-1890 -1958 0
-1890 -1959 0
-1890 -1960 0
-1890 -1961 0
-1890 -1962 0
-1891 -1892 0
-1891 -1893 0
-1891 -1894 0
-1891 -1895 0
-1891 -1896 0
-1891 -1897 0
-1891 -1898 0
-1891 -1899 0
-1891 -1900 0
-1891 -1901 0
-1891 -1902 0
-1891 -1903 0
-1891 -1904 0
-1891 -1905 0
-1891 -1906 0
-1891 -1907 0
-1891 -1908 0
-1891 -1909 0
-1891 -1910 0
-1891 -1911 0
-1891 -1912 0
-1891 -1913 0
-1891 -1914 0
-1891 -1915 0
-1891 -1916 0
-1891 -1917 0
-1891 -1918 0
-1891 -1919 0
-1891 -1920 0
-1891 -1921 0
-1891 -1922 0
-1891 -1923 0
-1891 -1924 0
-1891 -1925 0
-1891 -1926 0
-1891 -1927 0
-1891 -1928 0
-1891 -1929 0
-1891 -1930 0
-1891 -1931 0
-1891 -1932 0
-1891 -1933 0
-1891 -1934 0
-1891 -1935 0
-1891 -1936 0
-1891 -1937 0
-1891 -1938 0
-1891 -1939 0
-1891 -1940 0
-1891 -1941 0
-1891 -1942 0
-1891 -1943 0
-1891 -1944 0
-1891 -1945 0
-1891 -1946 0
-1891 -1947 0
-1891 -1948 0
-1891 -1949 0
-1891 -1950 0
-1891 -1951 0
-1891 -1952 0
-1891 -1953 0
-1891 -1954 0
-1891 -1955 0
-1891 -1956 0
-1891 -1957 0
-1891 -1958 0
-1891 -1959 0
-1891 -1960 0
-1891 -1961 0
-1891 -1962 0
-1892 -1893 0
-1892 -1894 0
-1892 -1895 0
-1892 -1896 0
-1892 -1897 0
-1892 -1898 0
-1892 -1899 0
-1892 -1900 0
-1892 -1901 0
-1892 -1902 0
-1892 -1903 0
-1892 -1904 0
-1892 -1905 0
-1892 -1906 0
-1892 -1907 0
-1892 -1908 0
-1892 -1909 0
-1892 -1910 0
-1892 -1911 0
-1892 -1912 0
-1892 -1913 0
-1892 -1914 0
-1892 -1915 0
-1892 -1916 0
-1892 -1917 0
-1892 -1918 0
-1892 -1919 0
-1892 -1920 0
-1892 -1921 0
-1892 -1922 0
-1892 -1923 0
-1892 -1924 0
-1892 -1925 0
-1892 -1926 0
-1892 -1927 0
-1892 -1928 0
-1892 -1929 0
-1892 -1930 0
-1892 -1931 0
-1892 -1932 0
-1892 -1933 0
-1892 -1934 0
-1892 -1935 0
-1892 -1936 0
-1892 -1937 0
-1892 -1938 0
-1892 -1939 0
-1892 -1940 0
-1892 -1941 0
-1892 -1942 0
-1892 -1943 0
-1892 -1944 0
-1892 -1945 0
-1892 -1946 0
-1892 -1947 0
-1892 -1948 0
-1892 -1949 0
-1892 -1950 0
-1892 -1951 0
-1892 -1952 0
-1892 -1953 0
-1892 -1954 0
-1892 -1955 0
-1892 -1956 0
-1892 -1957 0
-1892 -1958 0
-1892 -1959 0
-1892 -1960 0
-1892 -1961 0
-1892 -1962 0
-1893 -1894 0
-1893 -1895 0
-1893 -1896 0
-1893 -1897 0
-1893 -1898 0
-1893 -1899 0
-1893 -1900 0
-1893 -1901 0
-1893 -1902 0
-1893 -1903 0
-1893 -1904 0
-1893 -1905 0
-1893 -1906 0
-1893 -1907 0
-1893 -1908 0
-1893 -1909 0
-1893 -1910 0
-1893 -1911 0
-1893 -1912 0
-1893 -1913 0
-1893 -1914 0
-1893 -1915 0
-1893 -1916 0
-1893 -1917 0
-1893 -1918 0
-1893 -1919 0
-1893 -1920 0
-1893 -1921 0
-1893 -1922 0
-1893 -1923 0
-1893 -1924 0
-1893 -1925 0
-1893 -1926 0
-1893 -1927 0
-1893 -1928 0
-1893 -1929 0
-1893 -1930 0
-1893 -1931 0
-1893 -1932 0
-1893 -1933 0
-1893 -1934 0
-1893 -1935 0
-1893 -1936 0
-1893 -1937 0
-1893 -1938 0
-1893 -1939 0
-1893 -1940 0
-1893 -1941 0
-1893 -1942 0
-1893 -1943 0
-1893 -1944 0
-1893 -1945 0
-1893 -1946 0
-1893 -1947 0
-1893 -1948 0
-1893 -1949 0
-1893 -1950 0
-1893 -1951 0
-1893 -1952 0
-1893 -1953 0
-1893 -1954 0
-1893 -1955 0
-1893 -1956 0
-1893 -1957 0
-1893 -1958 0
-1893 -1959 0
-1893 -1960 0
-1893 -1961 0
-1893 -1962 0
-1894 -1895 0
-1894 -1896 0
-1894 -1897 0
-1894 -1898 0
-1894 -1899 0
-1894 -1900 0
-1894 -1901 0
-1894 -1902 0
-1894 -1903 0
-1894 -1904 0
-1894 -1905 0
-1894 -1906 0
-1894 -1907 0
-1894 -1908 0
-1894 -1909 0
-1894 -1910 0
-1894 -1911 0
-1894 -1912 0
-1894 -1913 0
-1894 -1914 0
-1894 -1915 0
-1894 -1916 0
-1894 -1917 0
-1894 -1918 0
-1894 -1919 0
-1894 -1920 0
-1894 -1921 0
-1894 -1922 0
-1894 -1923 0
-1894 -1924 0
-1894 -1925 0
-1894 -1926 0
-1894 -1927 0
-1894 -1928 0
-1894 -1929 0
-1894 -1930 0
-1894 -1931 0
-1894 -1932 0
-1894 -1933 0
-1894 -1934 0
-1894 -1935 0
-1894 -1936 0
-1894 -1937 0
-1894 -1938 0
-1894 -1939 0
-1894 -1940 0
-1894 -1941 0
-1894 -1942 0
-1894 -1943 0
-1894 -1944 0
-1894 -1945 0
-1894 -1946 0
-1894 -1947 0
-1894 -1948 0
-1894 -1949 0
-1894 -1950 0
-1894 -1951 0
-1894 -1952 0
-1894 -1953 0
-1894 -1954 0
-1894 -1955 0
-1894 -1956 0
-1894 -1957 0
-1894 -1958 0
-1894 -1959 0
-1894 -1960 0
-1894 -1961 0
-1894 -1962 0
-1895 -1896 0
-1895 -1897 0
-1895 -1898 0
-1895 -1899 0
-1895 -1900 0
-1895 -1901 0
-1895 -1902 0
-1895 -1903 0
-1895 -1904 0
-1895 -1905 0
-1895 -1906 0
-1895 -1907 0
-1895 -1908 0
-1895 -1909 0
-1895 -1910 0
-1895 -1911 0
-1895 -1912 0
-1895 -1913 0
-1895 -1914 0
-1895 -1915 0
-1895 -1916 0
-1895 -1917 0
-1895 -1918 0
-1895 -1919 0
-1895 -1920 0
-1895 -1921 0
-1895 -1922 0
-1895 -1923 0
-1895 -1924 0
-1895 -1925 0
-1895 -1926 0
-1895 -1927 0
-1895 -1928 0
-1895 -1929 0
-1895 -1930 0
-1895 -1931 0
-1895 -1932 0
-1895 -1933 0
-1895 -1934 0
-1895 -1935 0
-1895 -1936 0
-1895 -1937 0
-1895 -1938 0
-1895 -1939 0
-1895 -1940 0
-1895 -1941 0
-1895 -1942 0
-1895 -1943 0
-1895 -1944 0
-1895 -1945 0
-1895 -1946 0
-1895 -1947 0
-1895 -1948 0
-1895 -1949 0
-1895 -1950 0
-1895 -1951 0
-1895 -1952 0
-1895 -1953 0
-1895 -1954 0
-1895 -1955 0
-1895 -1956 0
-1895 -1957 0
-1895 -1958 0
-1895 -1959 0
-1895 -1960 0
-1895 -1961 0
-1895 -1962 0
-1896 -1897 0
-1896 -1898 0
-1896 -1899 0
-1896 -1900 0
-1896 -1901 0
-1896 -1902 0
-1896 -1903 0
-1896 -1904 0
-1896 -1905 0
-1896 -1906 0
-1896 -1907 0
-1896 -1908 0
-1896 -1909 0
-1896 -1910 0
-1896 -1911 0
-1896 -1912 0
-1896 -1913 0
-1896 -1914 0
-1896 -1915 0
-1896 -1916 0
-1896 -1917 0
-1896 -1918 0
-1896 -1919 0
-1896 -1920 0
-1896 -1921 0
-1896 -1922 0
-1896 -1923 0
-1896 -1924 0
-1896 -1925 0
-1896 -1926 0
-1896 -1927 0
-1896 -1928 0
-1896 -1929 0
-1896 -1930 0
-1896 -1931 0
-1896 -1932 0
-1896 -1933 0
-1896 -1934 0
-1896 -1935 0
-1896 -1936 0
-1896 -1937 0
-1896 -1938 0
-1896 -1939 0
-1896 -1940 0
-1896 -1941 0
-1896 -1942 0
-1896 -1943 0
-1896 -1944 0
-1896 -1945 0
-1896 -1946 0
-1896 -1947 0
-1896 -1948 0
-1896 -1949 0
-1896 -1950 0
-1896 -1951 0
-1896 -1952 0
-1896 -1953 0
-1896 -1954 0
-1896 -1955 0
-1896 -1956 0
-1896 -1957 0
-1896 -1958 0
-1896 -1959 0
-1896 -1960 0
-1896 -1961 0
-1896 -1962 0
-1897 -1898 0
-1897 -1899 0
-1897 -1900 0
-1897 -1901 0
-1897 -1902 0
-1897 -1903 0
-1897 -1904 0
-1897 -1905 0
-1897 -1906 0
-1897 -1907 0
-1897 -1908 0
-1897 -1909 0
-1897 -1910 0
-1897 -1911 0
-1897 -1912 0
-1897 -1913 0
-1897 -1914 0
-1897 -1915 0
-1897 -1916 0
-1897 -1917 0
-1897 -1918 0
-1897 -1919 0
-1897 -1920 0
-1897 -1921 0
-1897 -1922 0
-1897 -1923 0
-1897 -1924 0
-1897 -1925 0
-1897 -1926 0
-1897 -1927 0
-1897 -1928 0
-1897 -1929 0
-1897 -1930 0
-1897 -1931 0
-1897 -1932 0
-1897 -1933 0
-1897 -1934 0
-1897 -1935 0
-1897 -1936 0
-1897 -1937 0
-1897 -1938 0
-1897 -1939 0
-1897 -1940 0
-1897 -1941 0
-1897 -1942 0
-1897 -1943 0
-1897 -1944 0
-1897 -1945 0
-1897 -1946 0
-1897 -1947 0
-1897 -1948 0
-1897 -1949 0
-1897 -1950 0
-1897 -1951 0
-1897 -1952 0
-1897 -1953 0
-1897 -1954 0
-1897 -1955 0
-1897 -1956 0
-1897 -1957 0
-1897 -1958 0
-1897 -1959 0
-1897 -1960 0
-1897 -1961 0
-1897 -1962 0
-1898 -1899 0
-1898 -1900 0
-1898 -1901 0
-1898 -1902 0
-1898 -1903 0
-1898 -1904 0
-1898 -1905 0
-1898 -1906 0
-1898 -1907 0
-1898 -1908 0
-1898 -1909 0
-1898 -1910 0
-1898 -1911 0
-1898 -1912 0
-1898 -1913 0
-1898 -1914 0
-1898 -1915 0
-1898 -1916 0
-1898 -1917 0
-1898 -1918 0
-1898 -1919 0
-1898 -1920 0
-1898 -1921 0
-1898 -1922 0
-1898 -1923 0
-1898 -1924 0
-1898 -1925 0
-1898 -1926 0
-1898 -1927 0
-1898 -1928 0
-1898 -1929 0
-1898 -1930 0
-1898 -1931 0
-1898 -1932 0
-1898 -1933 0
-1898 -1934 0
-1898 -1935 0
-1898 -1936 0
-1898 -1937 0
-1898 -1938 0
-1898 -1939 0
-1898 -1940 0
-1898 -1941 0
-1898 -1942 0
-1898 -1943 0
-1898 -1944 0
-1898 -1945 0
-1898 -1946 0
-1898 -1947 0
-1898 -1948 0
-1898 -1949 0
-1898 -1950 0
-1898 -1951 0
-1898 -1952 0
-1898 -1953 0
-1898 -1954 0
-1898 -1955 0
-1898 -1956 0
-1898 -1957 0
-1898 -1958 0
-1898 -1959 0
-1898 -1960 0
-1898 -1961 0
-1898 -1962 0
-1899 -1900 0
-1899 -1901 0
-1899 -1902 0
-1899 -1903 0
-1899 -1904 0
-1899 -1905 0
-1899 -1906 0
-1899 -1907 0
-1899 -1908 0
-1899 -1909 0
-1899 -1910 0
-1899 -1911 0
-1899 -1912 0
-1899 -1913 0
-1899 -1914 0
-1899 -1915 0
-1899 -1916 0
-1899 -1917 0
-1899 -1918 0
-1899 -1919 0
-1899 -1920 0
-1899 -1921 0
-1899 -1922 0
-1899 -1923 0
-1899 -1924 0
-1899 -1925 0
-1899 -1926 0
-1899 -1927 0
-1899 -1928 0
-1899 -1929 0
-1899 -1930 0
-1899 -1931 0
-1899 -1932 0
-1899 -1933 0
-1899 -1934 0
-1899 -1935 0
-1899 -1936 0
-1899 -1937 0
-1899 -1938 0
-1899 -1939 0
-1899 -1940 0
-1899 -1941 0
-1899 -1942 0
-1899 -1943 0
-1899 -1944 0
-1899 -1945 0
-1899 -1946 0
-1899 -1947 0
-1899 -1948 0
-1899 -1949 0
-1899 -1950 0
-1899 -1951 0
-1899 -1952 0
-1899 -1953 0
-1899 -1954 0
-1899 -1955 0
-1899 -1956 0
-1899 -1957 0
-1899 -1958 0
-1899 -1959 0
-1899 -1960 0
-1899 -1961 0
-1899 -1962 0
-1900 -1901 0
-1900 -1902 0
-1900 -1903 0
-1900 -1904 0
-1900 -1905 0
-1900 -1906 0
-1900 -1907 0
-1900 -1908 0
-1900 -1909 0
-1900 -1910 0
-1900 -1911 0
-1900 -1912 0
-1900 -1913 0
-1900 -1914 0
-1900 -1915 0
-1900 -1916 0
-1900 -1917 0
-1900 -1918 0
-1900 -1919 0
-1900 -1920 0
-1900 -1921 0
-1900 -1922 0
-1900 -1923 0
-1900 -1924 0
-1900 -1925 0
-1900 -1926 0
-1900 -1927 0
-1900 -1928 0
-1900 -1929 0
-1900 -1930 0
-1900 -1931 0
-1900 -1932 0
-1900 -1933 0
-1900 -1934 0
-1900 -1935 0
-1900 -1936 0
-1900 -1937 0
-1900 -1938 0
-1900 -1939 0
-1900 -1940 0
-1900 -1941 0
-1900 -1942 0
-1900 -1943 0
-1900 -1944 0
-1900 -1945 0
-1900 -1946 0
-1900 -1947 0
-1900 -1948 0
-1900 -1949 0
-1900 -1950 0
-1900 -1951 0
-1900 -1952 0
-1900 -1953 0
-1900 -1954 0
-1900 -1955 0
-1900 -1956 0
-1900 -1957 0
-1900 -1958 0
-1900 -1959 0
-1900 -1960 0
-1900 -1961 0
-1900 -1962 0
-1901 -1902 0
-1901 -1903 0
-1901 -1904 0
-1901 -1905 0
-1901 -1906 0
-1901 -1907 0
-1901 -1908 0
-1901 -1909 0
-1901 -1910 0
-1901 -1911 0
-1901 -1912 0
-1901 -1913 0
-1901 -1914 0
-1901 -1915 0
-1901 -1916 0
-1901 -1917 0
-1901 -1918 0
-1901 -1919 0
-1901 -1920 0
-1901 -1921 0
-1901 -1922 0
-1901 -1923 0
-1901 -1924 0
-1901 -1925 0
-1901 -1926 0
-1901 -1927 0
-1901 -1928 0
-1901 -1929 0
-1901 -1930 0
-1901 -1931 0
-1901 -1932 0
-1901 -1933 0
-1901 -1934 0
-1901 -1935 0
-1901 -1936 0
-1901 -1937 0
-1901 -1938 0
-1901 -1939 0
-1901 -1940 0
-1901 -1941 0
-1901 -1942 0
-1901 -1943 0
-1901 -1944 0
-1901 -1945 0
-1901 -1946 0
-1901 -1947 0
-1901 -1948 0
-1901 -1949 0
-1901 -1950 0
-1901 -1951 0
-1901 -1952 0
-1901 -1953 0
-1901 -1954 0
-1901 -1955 0
-1901 -1956 0
-1901 -1957 0
-1901 -1958 0
-1901 -1959 0
-1901 -1960 0
-1901 -1961 0
-1901 -1962 0
-1902 -1903 0
-1902 -1904 0
-1902 -1905 0
-1902 -1906 0
-1902 -1907 0
-1902 -1908 0
-1902 -1909 0
-1902 -1910 0
-1902 -1911 0
-1902 -1912 0
-1902 -1913 0
-1902 -1914 0
-1902 -1915 0
-1902 -1916 0
-1902 -1917 0
-1902 -1918 0
-1902 -1919 0
-1902 -1920 0
-1902 -1921 0
-1902 -1922 0
-1902 -1923 0
-1902 -1924 0
-1902 -1925 0
-1902 -1926 0
-1902 -1927 0
-1902 -1928 0
-1902 -1929 0
-1902 -1930 0
-1902 -1931 0
-1902 -1932 0
-1902 -1933 0
-1902 -1934 0
-1902 -1935 0
-1902 -1936 0
-1902 -1937 0
-1902 -1938 0
-1902 -1939 0
-1902 -1940 0
-1902 -1941 0
-1902 -1942 0
-1902 -1943 0
-1902 -1944 0
-1902 -1945 0
-1902 -1946 0
-1902 -1947 0
-1902 -1948 0
-1902 -1949 0
-1902 -1950 0
-1902 -1951 0
-1902 -1952 0
-1902 -1953 0
-1902 -1954 0
-1902 -1955 0
-1902 -1956 0
-1902 -1957 0
-1902 -1958 0
-1902 -1959 0
-1902 -1960 0
-1902 -1961 0
-1902 -1962 0
-1903 -1904 0
-1903 -1905 0
-1903 -1906 0
-1903 -1907 0
-1903 -1908 0
-1903 -1909 0
-1903 -1910 0
-1903 -1911 0
-1903 -1912 0
-1903 -1913 0
-1903 -1914 0
-1903 -1915 0
-1903 -1916 0
-1903 -1917 0
-1903 -1918 0
-1903 -1919 0
-1903 -1920 0
-1903 -1921 0
-1903 -1922 0
-1903 -1923 0
-1903 -1924 0
-1903 -1925 0
-1903 -1926 0
-1903 -1927 0
-1903 -1928 0
-1903 -1929 0
-1903 -1930 0
-1903 -1931 0
-1903 -1932 0
-1903 -1933 0
-1903 -1934 0
-1903 -1935 0
-1903 -1936 0
-1903 -1937 0
-1903 -1938 0
-1903 -1939 0
-1903 -1940 0
-1903 -1941 0
-1903 -1942 0
-1903 -1943 0
-1903 -1944 0
-1903 -1945 0
-1903 -1946 0
-1903 -1947 0
-1903 -1948 0
-1903 -1949 0
-1903 -1950 0
-1903 -1951 0
-1903 -1952 0
-1903 -1953 0
-1903 -1954 0
-1903 -1955 0
-1903 -1956 0
-1903 -1957 0
-1903 -1958 0
-1903 -1959 0
-1903 -1960 0
-1903 -1961 0
-1903 -1962 0
-1904 -1905 0
-1904 -1906 0
-1904 -1907 0
-1904 -1908 0
-1904 -1909 0
-1904 -1910 0
-1904 -1911 0
-1904 -1912 0
-1904 -1913 0
-1904 -1914 0
-1904 -1915 0
-1904 -1916 0
-1904 -1917 0
-1904 -1918 0
-1904 -1919 0
-1904 -1920 0
-1904 -1921 0
-1904 -1922 0
-1904 -1923 0
-1904 -1924 0
-1904 -1925 0
-1904 -1926 0
-1904 -1927 0
-1904 -1928 0
-1904 -1929 0
-1904 -1930 0
-1904 -1931 0
-1904 -1932 0
-1904 -1933 0
-1904 -1934 0
-1904 -1935 0
-1904 -1936 0
-1904 -1937 0
-1904 -1938 0
-1904 -1939 0
-1904 -1940 0
-1904 -1941 0
-1904 -1942 0
-1904 -1943 0
-1904 -1944 0
-1904 -1945 0
-1904 -1946 0
-1904 -1947 0
-1904 -1948 0
-1904 -1949 0
-1904 -1950 0
-1904 -1951 0
-1904 -1952 0
-1904 -1953 0
-1904 -1954 0
-1904 -1955 0
-1904 -1956 0
-1904 -1957 0
-1904 -1958 0
-1904 -1959 0
-1904 -1960 0
-1904 -1961 0
-1904 -1962 0
-1905 -1906 0
-1905 -1907 0
-1905 -1908 0
-1905 -1909 0
-1905 -1910 0
-1905 -1911 0
-1905 -1912 0
-1905 -1913 0
-1905 -1914 0
-1905 -1915 0
-1905 -1916 0
-1905 -1917 0
-1905 -1918 0
-1905 -1919 0
-1905 -1920 0
-1905 -1921 0
-1905 -1922 0
-1905 -1923 0
-1905 -1924 0
-1905 -1925 0
-1905 -1926 0
-1905 -1927 0
-1905 -1928 0
-1905 -1929 0
-1905 -1930 0
-1905 -1931 0
-1905 -1932 0
-1905 -1933 0
-1905 -1934 0
-1905 -1935 0
-1905 -1936 0
-1905 -1937 0
-1905 -1938 0
-1905 -1939 0
-1905 -1940 0
-1905 -1941 0
-1905 -1942 0
-1905 -1943 0
-1905 -1944 0
-1905 -1945 0
-1905 -1946 0
-1905 -1947 0
-1905 -1948 0
-1905 -1949 0
-1905 -1950 0
-1905 -1951 0
-1905 -1952 0
-1905 -1953 0
-1905 -1954 0
-1905 -1955 0
-1905 -1956 0
-1905 -1957 0
-1905 -1958 0
-1905 -1959 0
-1905 -1960 0
-1905 -1961 0
-1905 -1962 0
-1906 -1907 0
-1906 -1908 0
-1906 -1909 0
-1906 -1910 0
-1906 -1911 0
-1906 -1912 0
-1906 -1913 0
-1906 -1914 0
-1906 -1915 0
-1906 -1916 0
-1906 -1917 0
-1906 -1918 0
-1906 -1919 0
-1906 -1920 0
-1906 -1921 0
-1906 -1922 0
-1906 -1923 0
-1906 -1924 0
-1906 -1925 0
-1906 -1926 0
-1906 -1927 0
-1906 -1928 0
-1906 -1929 0
-1906 -1930 0
-1906 -1931 0
-1906 -1932 0
-1906 -1933 0
-1906 -1934 0
-1906 -1935 0
-1906 -1936 0
-1906 -1937 0
-1906 -1938 0
-1906 -1939 0
-1906 -1940 0
-1906 -1941 0
-1906 -1942 0
-1906 -1943 0
-1906 -1944 0
-1906 -1945 0
-1906 -1946 0
-1906 -1947 0
-1906 -1948 0
-1906 -1949 0
-1906 -1950 0
-1906 -1951 0
-1906 -1952 0
-1906 -1953 0
-1906 -1954 0
-1906 -1955 0
-1906 -1956 0
-1906 -1957 0
-1906 -1958 0
-1906 -1959 0
-1906 -1960 0
-1906 -1961 0
-1906 -1962 0
-1907 -1908 0
-1907 -1909 0
-1907 -1910 0
-1907 -1911 0
-1907 -1912 0
-1907 -1913 0
-1907 -1914 0
-1907 -1915 0
-1907 -1916 0
-1907 -1917 0
-1907 -1918 0
-1907 -1919 0
-1907 -1920 0
-1907 -1921 0
-1907 -1922 0
-1907 -1923 0
-1907 -1924 0
-1907 -1925 0
-1907 -1926 0
-1907 -1927 0
-1907 -1928 0
-1907 -1929 0
-1907 -1930 0
-1907 -1931 0
-1907 -1932 0
-1907 -1933 0
-1907 -1934 0
-1907 -1935 0
-1907 -1936 0
-1907 -1937 0
-1907 -1938 0
-1907 -1939 0
-1907 -1940 0
-1907 -1941 0
-1907 -1942 0
-1907 -1943 0
-1907 -1944 0
-1907 -1945 0
-1907 -1946 0
-1907 -1947 0
-1907 -1948 0
-1907 -1949 0
-1907 -1950 0
-1907 -1951 0
-1907 -1952 0
-1907 -1953 0
-1907 -1954 0
-1907 -1955 0
-1907 -1956 0
-1907 -1957 0
-1907 -1958 0
-1907 -1959 0
-1907 -1960 0
-1907 -1961 0
-1907 -1962 0
-1908 -1909 0
-1908 -1910 0
-1908 -1911 0
-1908 -1912 0
-1908 -1913 0
-1908 -1914 0
-1908 -1915 0
-1908 -1916 0
-1908 -1917 0
-1908 -1918 0
-1908 -1919 0
-1908 -1920 0
-1908 -1921 0
-1908 -1922 0
-1908 -1923 0
-1908 -1924 0
-1908 -1925 0
-1908 -1926 0
-1908 -1927 0
-1908 -1928 0
-1908 -1929 0
-1908 -1930 0
-1908 -1931 0
-1908 -1932 0
-1908 -1933 0
-1908 -1934 0
-1908 -1935 0
-1908 -1936 0
-1908 -1937 0
-1908 -1938 0
-1908 -1939 0
-1908 -1940 0
-1908 -1941 0
-1908 -1942 0
-1908 -1943 0
-1908 -1944 0
-1908 -1945 0
-1908 -1946 0
-1908 -1947 0
-1908 -1948 0
-1908 -1949 0
-1908 -1950 0
-1908 -1951 0
-1908 -1952 0
-1908 -1953 0
-1908 -1954 0
-1908 -1955 0
-1908 -1956 0
-1908 -1957 0
-1908 -1958 0
-1908 -1959 0
-1908 -1960 0
-1908 -1961 0
-1908 -1962 0
-1909 -1910 0
-1909 -1911 0
-1909 -1912 0
-1909 -1913 0
-1909 -1914 0
-1909 -1915 0
-1909 -1916 0
-1909 -1917 0
-1909 -1918 0
-1909 -1919 0
-1909 -1920 0
-1909 -1921 0
-1909 -1922 0
-1909 -1923 0
-1909 -1924 0
-1909 -1925 0
-1909 -1926 0
-1909 -1927 0
-1909 -1928 0
-1909 -1929 0
-1909 -1930 0
-1909 -1931 0
-1909 -1932 0
-1909 -1933 0
-1909 -1934 0
-1909 -1935 0
-1909 -1936 0
-1909 -1937 0
-1909 -1938 0
-1909 -1939 0
-1909 -1940 0
-1909 -1941 0
-1909 -1942 0
-1909 -1943 0
-1909 -1944 0
-1909 -1945 0
-1909 -1946 0
-1909 -1947 0
-1909 -1948 0
-1909 -1949 0
-1909 -1950 0
-1909 -1951 0
-1909 -1952 0
-1909 -1953 0
-1909 -1954 0
-1909 -1955 0
-1909 -1956 0
-1909 -1957 0
-1909 -1958 0
-1909 -1959 0
-1909 -1960 0
-1909 -1961 0
-1909 -1962 0
-1910 -1911 0
-1910 -1912 0
-1910 -1913 0
-1910 -1914 0
-1910 -1915 0
-1910 -1916 0
-1910 -1917 0
-1910 -1918 0
-1910 -1919 0
-1910 -1920 0
-1910 -1921 0
-1910 -1922 0
-1910 -1923 0
-1910 -1924 0
-1910 -1925 0
-1910 -1926 0
-1910 -1927 0
-1910 -1928 0
-1910 -1929 0
-1910 -1930 0
-1910 -1931 0
-1910 -1932 0
-1910 -1933 0
-1910 -1934 0
-1910 -1935 0
-1910 -1936 0
-1910 -1937 0
-1910 -1938 0
-1910 -1939 0
-1910 -1940 0
-1910 -1941 0
-1910 -1942 0
-1910 -1943 0
-1910 -1944 0
-1910 -1945 0
-1910 -1946 0
-1910 -1947 0
-1910 -1948 0
-1910 -1949 0
-1910 -1950 0
-1910 -1951 0
-1910 -1952 0
-1910 -1953 0
-1910 -1954 0
-1910 -1955 0
-1910 -1956 0
-1910 -1957 0
-1910 -1958 0
-1910 -1959 0
-1910 -1960 0
-1910 -1961 0
-1910 -1962 0
-1911 -1912 0
-1911 -1913 0
-1911 -1914 0
-1911 -1915 0
-1911 -1916 0
-1911 -1917 0
-1911 -1918 0
-1911 -1919 0
-1911 -1920 0
-1911 -1921 0
-1911 -1922 0
-1911 -1923 0
-1911 -1924 0
-1911 -1925 0
-1911 -1926 0
-1911 -1927 0
-1911 -1928 0
-1911 -1929 0
-1911 -1930 0
-1911 -1931 0
-1911 -1932 0
-1911 -1933 0
-1911 -1934 0
-1911 -1935 0
-1911 -1936 0
-1911 -1937 0
-1911 -1938 0
-1911 -1939 0
-1911 -1940 0
-1911 -1941 0
-1911 -1942 0
-1911 -1943 0
-1911 -1944 0
-1911 -1945 0
-1911 -1946 0
-1911 -1947 0
-1911 -1948 0
-1911 -1949 0
-1911 -1950 0
-1911 -1951 0
-1911 -1952 0
-1911 -1953 0
-1911 -1954 0
-1911 -1955 0
-1911 -1956 0
-1911 -1957 0
-1911 -1958 0
-1911 -1959 0
-1911 -1960 0
-1911 -1961 0
-1911 -1962 0
-1912 -1913 0
-1912 -1914 0
-1912 -1915 0
-1912 -1916 0
-1912 -1917 0
-1912 -1918 0
-1912 -1919 0
-1912 -1920 0
-1912 -1921 0
-1912 -1922 0
-1912 -1923 0
-1912 -1924 0
-1912 -1925 0
-1912 -1926 0
-1912 -1927 0
-1912 -1928 0
-1912 -1929 0
-1912 -1930 0
-1912 -1931 0
-1912 -1932 0
-1912 -1933 0
-1912 -1934 0
-1912 -1935 0
-1912 -1936 0
-1912 -1937 0
-1912 -1938 0
-1912 -1939 0
-1912 -1940 0
-1912 -1941 0
-1912 -1942 0
-1912 -1943 0
-1912 -1944 0
-1912 -1945 0
-1912 -1946 0
-1912 -1947 0
-1912 -1948 0
-1912 -1949 0
-1912 -1950 0
-1912 -1951 0
-1912 -1952 0
-1912 -1953 0
-1912 -1954 0
-1912 -1955 0
-1912 -1956 0
-1912 -1957 0
-1912 -1958 0
-1912 -1959 0
-1912 -1960 0
-1912 -1961 0
-1912 -1962 0
-1913 -1914 0
-1913 -1915 0
-1913 -1916 0
-1913 -1917 0
-1913 -1918 0
-1913 -1919 0
-1913 -1920 0
-1913 -1921 0
-1913 -1922 0
-1913 -1923 0
-1913 -1924 0
-1913 -1925 0
-1913 -1926 0
-1913 -1927 0
-1913 -1928 0
-1913 -1929 0
-1913 -1930 0
-1913 -1931 0
-1913 -1932 0
-1913 -1933 0
-1913 -1934 0
-1913 -1935 0
-1913 -1936 0
-1913 -1937 0
-1913 -1938 0
-1913 -1939 0
-1913 -1940 0
-1913 -1941 0
-1913 -1942 0
-1913 -1943 0
-1913 -1944 0
-1913 -1945 0
-1913 -1946 0
-1913 -1947 0
-1913 -1948 0
-1913 -1949 0
-1913 -1950 0
-1913 -1951 0
-1913 -1952 0
-1913 -1953 0
-1913 -1954 0
-1913 -1955 0
-1913 -1956 0
-1913 -1957 0
-1913 -1958 0
-1913 -1959 0
-1913 -1960 0
-1913 -1961 0
-1913 -1962 0
-1914 -1915 0
-1914 -1916 0
-1914 -1917 0
-1914 -1918 0
-1914 -1919 0
-1914 -1920 0
-1914 -1921 0
-1914 -1922 0
-1914 -1923 0
-1914 -1924 0
-1914 -1925 0
-1914 -1926 0
-1914 -1927 0
-1914 -1928 0
-1914 -1929 0
-1914 -1930 0
-1914 -1931 0
-1914 -1932 0
-1914 -1933 0
-1914 -1934 0
-1914 -1935 0
-1914 -1936 0
-1914 -1937 0
-1914 -1938 0
-1914 -1939 0
-1914 -1940 0
-1914 -1941 0
-1914 -1942 0
-1914 -1943 0
-1914 -1944 0
-1914 -1945 0
-1914 -1946 0
-1914 -1947 0
-1914 -1948 0
-1914 -1949 0
-1914 -1950 0
-1914 -1951 0
-1914 -1952 0
-1914 -1953 0
-1914 -1954 0
-1914 -1955 0
-1914 -1956 0
-1914 -1957 0
-1914 -1958 0
-1914 -1959 0
-1914 -1960 0
-1914 -1961 0
-1914 -1962 0
-1915 -1916 0
-1915 -1917 0
-1915 -1918 0
-1915 -1919 0
-1915 -1920 0
-1915 -1921 0
-1915 -1922 0
-1915 -1923 0
-1915 -1924 0
-1915 -1925 0
-1915 -1926 0
-1915 -1927 0
-1915 -1928 0
-1915 -1929 0
-1915 -1930 0
-1915 -1931 0
-1915 -1932 0
-1915 -1933 0
-1915 -1934 0
-1915 -1935 0
-1915 -1936 0
-1915 -1937 0
-1915 -1938 0
-1915 -1939 0
-1915 -1940 0
-1915 -1941 0
-1915 -1942 0
-1915 -1943 0
-1915 -1944 0
-1915 -1945 0
-1915 -1946 0
-1915 -1947 0
-1915 -1948 0
-1915 -1949 0
-1915 -1950 0
-1915 -1951 0
-1915 -1952 0
-1915 -1953 0
-1915 -1954 0
-1915 -1955 0
-1915 -1956 0
-1915 -1957 0
-1915 -1958 0
-1915 -1959 0
-1915 -1960 0
-1915 -1961 0
-1915 -1962 0
-1916 -1917 0
-1916 -1918 0
-1916 -1919 0
-1916 -1920 0
-1916 -1921 0
-1916 -1922 0
-1916 -1923 0
-1916 -1924 0
-1916 -1925 0
-1916 -1926 0
-1916 -1927 0
-1916 -1928 0
-1916 -1929 0
-1916 -1930 0
-1916 -1931 0
-1916 -1932 0
-1916 -1933 0
-1916 -1934 0
-1916 -1935 0
-1916 -1936 0
-1916 -1937 0
-1916 -1938 0
-1916 -1939 0
-1916 -1940 0
-1916 -1941 0
-1916 -1942 0
-1916 -1943 0
-1916 -1944 0
-1916 -1945 0
-1916 -1946 0
-1916 -1947 0
-1916 -1948 0
-1916 -1949 0
-1916 -1950 0
-1916 -1951 0
-1916 -1952 0
-1916 -1953 0
-1916 -1954 0
-1916 -1955 0
-1916 -1956 0
-1916 -1957 0
-1916 -1958 0
-1916 -1959 0
-1916 -1960 0
-1916 -1961 0
-1916 -1962 0
-1917 -1918 0
-1917 -1919 0
-1917 -1920 0
-1917 -1921 0
-1917 -1922 0
-1917 -1923 0
-1917 -1924 0
-1917 -1925 0
-1917 -1926 0
-1917 -1927 0
-1917 -1928 0
-1917 -1929 0
-1917 -1930 0
-1917 -1931 0
-1917 -1932 0
-1917 -1933 0
-1917 -1934 0
-1917 -1935 0
-1917 -1936 0
-1917 -1937 0
-1917 -1938 0
-1917 -1939 0
-1917 -1940 0
-1917 -1941 0
-1917 -1942 0
-1917 -1943 0
-1917 -1944 0
-1917 -1945 0
-1917 -1946 0
-1917 -1947 0
-1917 -1948 0
-1917 -1949 0
-1917 -1950 0
-1917 -1951 0
-1917 -1952 0
-1917 -1953 0
-1917 -1954 0
-1917 -1955 0
-1917 -1956 0
-1917 -1957 0
-1917 -1958 0
-1917 -1959 0
-1917 -1960 0
-1917 -1961 0
-1917 -1962 0
-1918 -1919 0
-1918 -1920 0
-1918 -1921 0
-1918 -1922 0
-1918 -1923 0
-1918 -1924 0
-1918 -1925 0
-1918 -1926 0
-1918 -1927 0
-1918 -1928 0
-1918 -1929 0
-1918 -1930 0
-1918 -1931 0
-1918 -1932 0
-1918 -1933 0
-1918 -1934 0
-1918 -1935 0
-1918 -1936 0
-1918 -1937 0
-1918 -1938 0
-1918 -1939 0
-1918 -1940 0
-1918 -1941 0
-1918 -1942 0
-1918 -1943 0
-1918 -1944 0
-1918 -1945 0
-1918 -1946 0
-1918 -1947 0
-1918 -1948 0
-1918 -1949 0
-1918 -1950 0
-1918 -1951 0
-1918 -1952 0
-1918 -1953 0
-1918 -1954 0
-1918 -1955 0
-1918 -1956 0
-1918 -1957 0
-1918 -1958 0
-1918 -1959 0
-1918 -1960 0
-1918 -1961 0
-1918 -1962 0
-1919 -1920 0
-1919 -1921 0
-1919 -1922 0
-1919 -1923 0
-1919 -1924 0
-1919 -1925 0
-1919 -1926 0
-1919 -1927 0
-1919 -1928 0
-1919 -1929 0
-1919 -1930 0
-1919 -1931 0
-1919 -1932 0
-1919 -1933 0
-1919 -1934 0
-1919 -1935 0
-1919 -1936 0
-1919 -1937 0
-1919 -1938 0
-1919 -1939 0
-1919 -1940 0
-1919 -1941 0
-1919 -1942 0
-1919 -1943 0
-1919 -1944 0
-1919 -1945 0
-1919 -1946 0
-1919 -1947 0
-1919 -1948 0
-1919 -1949 0
-1919 -1950 0
-1919 -1951 0
-1919 -1952 0
-1919 -1953 0
-1919 -1954 0
-1919 -1955 0
-1919 -1956 0
-1919 -1957 0
-1919 -1958 0
-1919 -1959 0
-1919 -1960 0
-1919 -1961 0
-1919 -1962 0
-1920 -1921 0
-1920 -1922 0
-1920 -1923 0
-1920 -1924 0
-1920 -1925 0
-1920 -1926 0
-1920 -1927 0
-1920 -1928 0
-1920 -1929 0
-1920 -1930 0
-1920 -1931 0
-1920 -1932 0
-1920 -1933 0
-1920 -1934 0
-1920 -1935 0
-1920 -1936 0
-1920 -1937 0
-1920 -1938 0
-1920 -1939 0
-1920 -1940 0
-1920 -1941 0
-1920 -1942 0
-1920 -1943 0
-1920 -1944 0
-1920 -1945 0
-1920 -1946 0
-1920 -1947 0
-1920 -1948 0
-1920 -1949 0
-1920 -1950 0
-1920 -1951 0
-1920 -1952 0
-1920 -1953 0
-1920 -1954 0
-1920 -1955 0
-1920 -1956 0
-1920 -1957 0
-1920 -1958 0
-1920 -1959 0
-1920 -1960 0
-1920 -1961 0
-1920 -1962 0
-1921 -1922 0
-1921 -1923 0
-1921 -1924 0
-1921 -1925 0
-1921 -1926 0
-1921 -1927 0
-1921 -1928 0
-1921 -1929 0
-1921 -1930 0
-1921 -1931 0
-1921 -1932 0
-1921 -1933 0
-1921 -1934 0
-1921 -1935 0
-1921 -1936 0
-1921 -1937 0
-1921 -1938 0
-1921 -1939 0
-1921 -1940 0
-1921 -1941 0
-1921 -1942 0
-1921 -1943 0
-1921 -1944 0
-1921 -1945 0
-1921 -1946 0
-1921 -1947 0
-1921 -1948 0
-1921 -1949 0
-1921 -1950 0
-1921 -1951 0
-1921 -1952 0
-1921 -1953 0
-1921 -1954 0
-1921 -1955 0
-1921 -1956 0
-1921 -1957 0
-1921 -1958 0
-1921 -1959 0
-1921 -1960 0
-1921 -1961 0
-1921 -1962 0
-1922 -1923 0
-1922 -1924 0
-1922 -1925 0
-1922 -1926 0
-1922 -1927 0
-1922 -1928 0
-1922 -1929 0
-1922 -1930 0
-1922 -1931 0
-1922 -1932 0
-1922 -1933 0
-1922 -1934 0
-1922 -1935 0
-1922 -1936 0
-1922 -1937 0
-1922 -1938 0
-1922 -1939 0
-1922 -1940 0
-1922 -1941 0
-1922 -1942 0
-1922 -1943 0
-1922 -1944 0
-1922 -1945 0
-1922 -1946 0
-1922 -1947 0
-1922 -1948 0
-1922 -1949 0
-1922 -1950 0
-1922 -1951 0
-1922 -1952 0
-1922 -1953 0
-1922 -1954 0
-1922 -1955 0
-1922 -1956 0
-1922 -1957 0
-1922 -1958 0
-1922 -1959 0
-1922 -1960 0
-1922 -1961 0
-1922 -1962 0
-1923 -1924 0
-1923 -1925 0
-1923 -1926 0
-1923 -1927 0
-1923 -1928 0
-1923 -1929 0
-1923 -1930 0
-1923 -1931 0
-1923 -1932 0
-1923 -1933 0
-1923 -1934 0
-1923 -1935 0
-1923 -1936 0
-1923 -1937 0
-1923 -1938 0
-1923 -1939 0
-1923 -1940 0
-1923 -1941 0
-1923 -1942 0
-1923 -1943 0
-1923 -1944 0
-1923 -1945 0
-1923 -1946 0
-1923 -1947 0
-1923 -1948 0
-1923 -1949 0
-1923 -1950 0
-1923 -1951 0
-1923 -1952 0
-1923 -1953 0
-1923 -1954 0
-1923 -1955 0
-1923 -1956 0
-1923 -1957 0
-1923 -1958 0
-1923 -1959 0
-1923 -1960 0
-1923 -1961 0
-1923 -1962 0
-1924 -1925 0
-1924 -1926 0
-1924 -1927 0
-1924 -1928 0
-1924 -1929 0
-1924 -1930 0
-1924 -1931 0
-1924 -1932 0
-1924 -1933 0
-1924 -1934 0
-1924 -1935 0
-1924 -1936 0
-1924 -1937 0
-1924 -1938 0
-1924 -1939 0
-1924 -1940 0
-1924 -1941 0
-1924 -1942 0
-1924 -1943 0
-1924 -1944 0
-1924 -1945 0
-1924 -1946 0
-1924 -1947 0
-1924 -1948 0
-1924 -1949 0
-1924 -1950 0
-1924 -1951 0
-1924 -1952 0
-1924 -1953 0
-1924 -1954 0
-1924 -1955 0
-1924 -1956 0
-1924 -1957 0
-1924 -1958 0
-1924 -1959 0
-1924 -1960 0
-1924 -1961 0
-1924 -1962 0
-1925 -1926 0
-1925 -1927 0
-1925 -1928 0
-1925 -1929 0
-1925 -1930 0
-1925 -1931 0
-1925 -1932 0
-1925 -1933 0
-1925 -1934 0
-1925 -1935 0
-1925 -1936 0
-1925 -1937 0
-1925 -1938 0
-1925 -1939 0
-1925 -1940 0
-1925 -1941 0
-1925 -1942 0
-1925 -1943 0
-1925 -1944 0
-1925 -1945 0
-1925 -1946 0
-1925 -1947 0
-1925 -1948 0
-1925 -1949 0
-1925 -1950 0
-1925 -1951 0
-1925 -1952 0
-1925 -1953 0
-1925 -1954 0
-1925 -1955 0
-1925 -1956 0
-1925 -1957 0
-1925 -1958 0
-1925 -1959 0
-1925 -1960 0
-1925 -1961 0
-1925 -1962 0
-1926 -1927 0
-1926 -1928 0
-1926 -1929 0
-1926 -1930 0
-1926 -1931 0
-1926 -1932 0
-1926 -1933 0
-1926 -1934 0
-1926 -1935 0
-1926 -1936 0
-1926 -1937 0
-1926 -1938 0
-1926 -1939 0
-1926 -1940 0
-1926 -1941 0
-1926 -1942 0
-1926 -1943 0
-1926 -1944 0
-1926 -1945 0
-1926 -1946 0
-1926 -1947 0
-1926 -1948 0
-1926 -1949 0
-1926 -1950 0
-1926 -1951 0
-1926 -1952 0
-1926 -1953 0
-1926 -1954 0
-1926 -1955 0
-1926 -1956 0
-1926 -1957 0
-1926 -1958 0
-1926 -1959 0
-1926 -1960 0
-1926 -1961 0
-1926 -1962 0
-1927 -1928 0
-1927 -1929 0
-1927 -1930 0
-1927 -1931 0
-1927 -1932 0
-1927 -1933 0
-1927 -1934 0
-1927 -1935 0
-1927 -1936 0
-1927 -1937 0
-1927 -1938 0
-1927 -1939 0
-1927 -1940 0
-1927 -1941 0
-1927 -1942 0
-1927 -1943 0
-1927 -1944 0
-1927 -1945 0
-1927 -1946 0
-1927 -1947 0
-1927 -1948 0
-1927 -1949 0
-1927 -1950 0
-1927 -1951 0
-1927 -1952 0
-1927 -1953 0
-1927 -1954 0
-1927 -1955 0
-1927 -1956 0
-1927 -1957 0
-1927 -1958 0
-1927 -1959 0
-1927 -1960 0
-1927 -1961 0
-1927 -1962 0
-1928 -1929 0
-1928 -1930 0
-1928 -1931 0
-1928 -1932 0
-1928 -1933 0
-1928 -1934 0
-1928 -1935 0
-1928 -1936 0
-1928 -1937 0
-1928 -1938 0
-1928 -1939 0
-1928 -1940 0
-1928 -1941 0
-1928 -1942 0
-1928 -1943 0
-1928 -1944 0
-1928 -1945 0
-1928 -1946 0
-1928 -1947 0
-1928 -1948 0
-1928 -1949 0
-1928 -1950 0
-1928 -1951 0
-1928 -1952 0
-1928 -1953 0
-1928 -1954 0
-1928 -1955 0
-1928 -1956 0
-1928 -1957 0
-1928 -1958 0
-1928 -1959 0
-1928 -1960 0
-1928 -1961 0
-1928 -1962 0
-1929 -1930 0
-1929 -1931 0
-1929 -1932 0
-1929 -1933 0
-1929 -1934 0
-1929 -1935 0
-1929 -1936 0
-1929 -1937 0
-1929 -1938 0
-1929 -1939 0
-1929 -1940 0
-1929 -1941 0
-1929 -1942 0
-1929 -1943 0
-1929 -1944 0
-1929 -1945 0
-1929 -1946 0
-1929 -1947 0
-1929 -1948 0
-1929 -1949 0
-1929 -1950 0
-1929 -1951 0
-1929 -1952 0
-1929 -1953 0
-1929 -1954 0
-1929 -1955 0
-1929 -1956 0
-1929 -1957 0
-1929 -1958 0
-1929 -1959 0
-1929 -1960 0
-1929 -1961 0
-1929 -1962 0
-1930 -1931 0
-1930 -1932 0
-1930 -1933 0
-1930 -1934 0
-1930 -1935 0
-1930 -1936 0
-1930 -1937 0
-1930 -1938 0
-1930 -1939 0
-1930 -1940 0
-1930 -1941 0
-1930 -1942 0
-1930 -1943 0
-1930 -1944 0
-1930 -1945 0
-1930 -1946 0
-1930 -1947 0
-1930 -1948 0
-1930 -1949 0
-1930 -1950 0
-1930 -1951 0
-1930 -1952 0
-1930 -1953 0
-1930 -1954 0
-1930 -1955 0
-1930 -1956 0
-1930 -1957 0
-1930 -1958 0
-1930 -1959 0
-1930 -1960 0
-1930 -1961 0
-1930 -1962 0
-1931 -1932 0
-1931 -1933 0
-1931 -1934 0
-1931 -1935 0
-1931 -1936 0
-1931 -1937 0
-1931 -1938 0
-1931 -1939 0
-1931 -1940 0
-1931 -1941 0
-1931 -1942 0
-1931 -1943 0
-1931 -1944 0
-1931 -1945 0
-1931 -1946 0
-1931 -1947 0
-1931 -1948 0
-1931 -1949 0
-1931 -1950 0
-1931 -1951 0
-1931 -1952 0
-1931 -1953 0
-1931 -1954 0
-1931 -1955 0
-1931 -1956 0
-1931 -1957 0
-1931 -1958 0
-1931 -1959 0
-1931 -1960 0
-1931 -1961 0
-1931 -1962 0
-1932 -1933 0
-1932 -1934 0
-1932 -1935 0
-1932 -1936 0
-1932 -1937 0
-1932 -1938 0
-1932 -1939 0
-1932 -1940 0
-1932 -1941 0
-1932 -1942 0
-1932 -1943 0
-1932 -1944 0
-1932 -1945 0
-1932 -1946 0
-1932 -1947 0
-1932 -1948 0
-1932 -1949 0
-1932 -1950 0
-1932 -1951 0
-1932 -1952 0
-1932 -1953 0
-1932 -1954 0
-1932 -1955 0
-1932 -1956 0
-1932 -1957 0
-1932 -1958 0
-1932 -1959 0
-1932 -1960 0
-1932 -1961 0
-1932 -1962 0
-1933 -1934 0
-1933 -1935 0
-1933 -1936 0
-1933 -1937 0
-1933 -1938 0
-1933 -1939 0
-1933 -1940 0
-1933 -1941 0
-1933 -1942 0
-1933 -1943 0
-1933 -1944 0
-1933 -1945 0
-1933 -1946 0
-1933 -1947 0
-1933 -1948 0
-1933 -1949 0
-1933 -1950 0
-1933 -1951 0
-1933 -1952 0
-1933 -1953 0
-1933 -1954 0
-1933 -1955 0
-1933 -1956 0
-1933 -1957 0
-1933 -1958 0
-1933 -1959 0
-1933 -1960 0
-1933 -1961 0
-1933 -1962 0
-1934 -1935 0
-1934 -1936 0
-1934 -1937 0
-1934 -1938 0
-1934 -1939 0
-1934 -1940 0
-1934 -1941 0
-1934 -1942 0
-1934 -1943 0
-1934 -1944 0
-1934 -1945 0
-1934 -1946 0
-1934 -1947 0
-1934 -1948 0
-1934 -1949 0
-1934 -1950 0
-1934 -1951 0
-1934 -1952 0
-1934 -1953 0
-1934 -1954 0
-1934 -1955 0
-1934 -1956 0
-1934 -1957 0
-1934 -1958 0
-1934 -1959 0
-1934 -1960 0
-1934 -1961 0
-1934 -1962 0
-1935 -1936 0
-1935 -1937 0
-1935 -1938 0
-1935 -1939 0
-1935 -1940 0
-1935 -1941 0
-1935 -1942 0
-1935 -1943 0
-1935 -1944 0
-1935 -1945 0
-1935 -1946 0
-1935 -1947 0
-1935 -1948 0
-1935 -1949 0
-1935 -1950 0
-1935 -1951 0
-1935 -1952 0
-1935 -1953 0
-1935 -1954 0
-1935 -1955 0
-1935 -1956 0
-1935 -1957 0
-1935 -1958 0
-1935 -1959 0
-1935 -1960 0
-1935 -1961 0
-1935 -1962 0
-1936 -1937 0
-1936 -1938 0
-1936 -1939 0
-1936 -1940 0
-1936 -1941 0
-1936 -1942 0
-1936 -1943 0
-1936 -1944 0
-1936 -1945 0
-1936 -1946 0
-1936 -1947 0
-1936 -1948 0
-1936 -1949 0
-1936 -1950 0
-1936 -1951 0
-1936 -1952 0
-1936 -1953 0
-1936 -1954 0
-1936 -1955 0
-1936 -1956 0
-1936 -1957 0
-1936 -1958 0
-1936 -1959 0
-1936 -1960 0
-1936 -1961 0
-1936 -1962 0
-1937 -1938 0
-1937 -1939 0
-1937 -1940 0
-1937 -1941 0
-1937 -1942 0
-1937 -1943 0
-1937 -1944 0
-1937 -1945 0
-1937 -1946 0
-1937 -1947 0
-1937 -1948 0
-1937 -1949 0
-1937 -1950 0
-1937 -1951 0
-1937 -1952 0
-1937 -1953 0
-1937 -1954 0
-1937 -1955 0
-1937 -1956 0
-1937 -1957 0
-1937 -1958 0
-1937 -1959 0
-1937 -1960 0
-1937 -1961 0
-1937 -1962 0
-1938 -1939 0
-1938 -1940 0
-1938 -1941 0
-1938 -1942 0
-1938 -1943 0
-1938 -1944 0
-1938 -1945 0
-1938 -1946 0
-1938 -1947 0
-1938 -1948 0
-1938 -1949 0
-1938 -1950 0
-1938 -1951 0
-1938 -1952 0
-1938 -1953 0
-1938 -1954 0
-1938 -1955 0
-1938 -1956 0
-1938 -1957 0
-1938 -1958 0
-1938 -1959 0
-1938 -1960 0
-1938 -1961 0
-1938 -1962 0
-1939 -1940 0
-1939 -1941 0
-1939 -1942 0
-1939 -1943 0
-1939 -1944 0
-1939 -1945 0
-1939 -1946 0
-1939 -1947 0
-1939 -1948 0
-1939 -1949 0
-1939 -1950 0
-1939 -1951 0
-1939 -1952 0
-1939 -1953 0
-1939 -1954 0
-1939 -1955 0
-1939 -1956 0
-1939 -1957 0
-1939 -1958 0
-1939 -1959 0
-1939 -1960 0
-1939 -1961 0
-1939 -1962 0
-1940 -1941 0
-1940 -1942 0
-1940 -1943 0
-1940 -1944 0
-1940 -1945 0
-1940 -1946 0
-1940 -1947 0
-1940 -1948 0
-1940 -1949 0
-1940 -1950 0
-1940 -1951 0
-1940 -1952 0
-1940 -1953 0
-1940 -1954 0
-1940 -1955 0
-1940 -1956 0
-1940 -1957 0
-1940 -1958 0
-1940 -1959 0
-1940 -1960 0
-1940 -1961 0
-1940 -1962 0
-1941 -1942 0
-1941 -1943 0
-1941 -1944 0
-1941 -1945 0
-1941 -1946 0
-1941 -1947 0
-1941 -1948 0
-1941 -1949 0
-1941 -1950 0
-1941 -1951 0
-1941 -1952 0
-1941 -1953 0
-1941 -1954 0
-1941 -1955 0
-1941 -1956 0
-1941 -1957 0
-1941 -1958 0
-1941 -1959 0
-1941 -1960 0
-1941 -1961 0
-1941 -1962 0
-1942 -1943 0
-1942 -1944 0
-1942 -1945 0
-1942 -1946 0
-1942 -1947 0
-1942 -1948 0
-1942 -1949 0
-1942 -1950 0
-1942 -1951 0
-1942 -1952 0
-1942 -1953 0
-1942 -1954 0
-1942 -1955 0
-1942 -1956 0
-1942 -1957 0
-1942 -1958 0
-1942 -1959 0
-1942 -1960 0
-1942 -1961 0
-1942 -1962 0
-1943 -1944 0
-1943 -1945 0
-1943 -1946 0
-1943 -1947 0
-1943 -1948 0
-1943 -1949 0
-1943 -1950 0
-1943 -1951 0
-1943 -1952 0
-1943 -1953 0
-1943 -1954 0
-1943 -1955 0
-1943 -1956 0
-1943 -1957 0
-1943 -1958 0
-1943 -1959 0
-1943 -1960 0
-1943 -1961 0
-1943 -1962 0
-1944 -1945 0
-1944 -1946 0
-1944 -1947 0
-1944 -1948 0
-1944 -1949 0
-1944 -1950 0
-1944 -1951 0
-1944 -1952 0
-1944 -1953 0
-1944 -1954 0
-1944 -1955 0
-1944 -1956 0
-1944 -1957 0
-1944 -1958 0
-1944 -1959 0
-1944 -1960 0
-1944 -1961 0
-1944 -1962 0
-1945 -1946 0
-1945 -1947 0
-1945 -1948 0
-1945 -1949 0
-1945 -1950 0
-1945 -1951 0
-1945 -1952 0
-1945 -1953 0
-1945 -1954 0
-1945 -1955 0
-1945 -1956 0
-1945 -1957 0
-1945 -1958 0
-1945 -1959 0
-1945 -1960 0
-1945 -1961 0
-1945 -1962 0
-1946 -1947 0
-1946 -1948 0
-1946 -1949 0
-1946 -1950 0
-1946 -1951 0
-1946 -1952 0
-1946 -1953 0
-1946 -1954 0
-1946 -1955 0
-1946 -1956 0
-1946 -1957 0
-1946 -1958 0
-1946 -1959 0
-1946 -1960 0
-1946 -1961 0
-1946 -1962 0
-1947 -1948 0
-1947 -1949 0
-1947 -1950 0
-1947 -1951 0
-1947 -1952 0
-1947 -1953 0
-1947 -1954 0
-1947 -1955 0
-1947 -1956 0
-1947 -1957 0
-1947 -1958 0
-1947 -1959 0
-1947 -1960 0
-1947 -1961 0
-1947 -1962 0
-1948 -1949 0
-1948 -1950 0
-1948 -1951 0
-1948 -1952 0
-1948 -1953 0
-1948 -1954 0
-1948 -1955 0
-1948 -1956 0
-1948 -1957 0
-1948 -1958 0
-1948 -1959 0
-1948 -1960 0
-1948 -1961 0
-1948 -1962 0
-1949 -1950 0
-1949 -1951 0
-1949 -1952 0
-1949 -1953 0
-1949 -1954 0
-1949 -1955 0
-1949 -1956 0
-1949 -1957 0
-1949 -1958 0
-1949 -1959 0
-1949 -1960 0
-1949 -1961 0
-1949 -1962 0
-1950 -1951 0
-1950 -1952 0
-1950 -1953 0
-1950 -1954 0
-1950 -1955 0
-1950 -1956 0
-1950 -1957 0
-1950 -1958 0
-1950 -1959 0
-1950 -1960 0
-1950 -1961 0
-1950 -1962 0
-1951 -1952 0
-1951 -1953 0
-1951 -1954 0
-1951 -1955 0
-1951 -1956 0
-1951 -1957 0
-1951 -1958 0
-1951 -1959 0
-1951 -1960 0
-1951 -1961 0
-1951 -1962 0
-1952 -1953 0
-1952 -1954 0
-1952 -1955 0
-1952 -1956 0
-1952 -1957 0
-1952 -1958 0
-1952 -1959 0
-1952 -1960 0
-1952 -1961 0
-1952 -1962 0
-1953 -1954 0
-1953 -1955 0
-1953 -1956 0
-1953 -1957 0
-1953 -1958 0
-1953 -1959 0
-1953 -1960 0
-1953 -1961 0
-1953 -1962 0
-1954 -1955 0
-1954 -1956 0
-1954 -1957 0
-1954 -1958 0
-1954 -1959 0
-1954 -1960 0
-1954 -1961 0
-1954 -1962 0
-1955 -1956 0
-1955 -1957 0
-1955 -1958 0
-1955 -1959 0
-1955 -1960 0
-1955 -1961 0
-1955 -1962 0
-1956 -1957 0
-1956 -1958 0
-1956 -1959 0
-1956 -1960 0
-1956 -1961 0
-1956 -1962 0
-1957 -1958 0
-1957 -1959 0
-1957 -1960 0
-1957 -1961 0
-1957 -1962 0
-1958 -1959 0
-1958 -1960 0
-1958 -1961 0
-1958 -1962 0
-1959 -1960 0
-1959 -1961 0
-1959 -1962 0
-1960 -1961 0
-1960 -1962 0
-1961 -1962 0
-1879 1039 0
-1879 1286 0
-1879 -1089 0
-1879 -1090 0
-1879 -1091 0
-1879 -1092 0
-1879 -1093 0
-1879 -1094 1293 0
-1879 -1094 -1029 -1036 0
-1879 -1094 -1101 0
-1879 -1094 -1159 0
-1879 -1094 -1216 0
-1879 -1095 1294 0
-1879 -1095 -1029 -1037 0
-1879 -1095 -1103 0
-1879 -1095 -1161 0
-1879 -1095 -1218 0
-1879 -1096 1295 0
-1879 -1096 -1029 -1038 0
-1879 -1096 -1105 0
-1879 -1096 -1163 0
-1879 -1096 -1220 0
-1879 -1097 0
-1880 1039 0
-1880 1287 0
-1880 -1088 0
-1880 -1090 0
-1880 -1091 0
-1880 -1092 0
-1880 -1093 0
-1880 -1094 1293 0
-1880 -1094 -1030 -1036 0
-1880 -1094 -1109 0
-1880 -1094 -1167 0
-1880 -1094 -1224 0
-1880 -1095 1294 0
-1880 -1095 -1030 -1037 0
-1880 -1095 -1111 0
-1880 -1095 -1169 0
-1880 -1095 -1226 0
-1880 -1096 1295 0
-1880 -1096 -1030 -1038 0
-1880 -1096 -1113 0
-1880 -1096 -1171 0
-1880 -1096 -1228 0
-1880 -1097 0
-1881 1039 0
-1881 1288 0
-1881 -1088 0
-1881 -1089 0
-1881 -1091 0
-1881 -1092 0
-1881 -1093 0
-1881 -1094 1293 0
-1881 -1094 -1031 -1036 0
-1881 -1094 -1117 0
-1881 -1094 -1175 0
-1881 -1094 -1232 0
-1881 -1095 1294 0
-1881 -1095 -1031 -1037 0
-1881 -1095 -1119 0
-1881 -1095 -1177 0
-1881 -1095 -1234 0
-1881 -1096 1295 0
-1881 -1096 -1031 -1038 0
-1881 -1096 -1121 0
-1881 -1096 -1179 0
-1881 -1096 -1236 0
-1881 -1097 0
-1882 1039 0
-1882 1289 0
-1882 -1088 0
-1882 -1089 0
-1882 -1090 0
-1882 -1092 0
-1882 -1093 0
-1882 -1094 1293 0
-1882 -1094 -1032 -1036 0
-1882 -1094 -1125 0
-1882 -1094 -1183 0
-1882 -1094 -1240 0
-1882 -1095 1294 0
-1882 -1095 -1032 -1037 0
-1882 -1095 -1127 0
-1882 -1095 -1185 0
-1882 -1095 -1242 0
-1882 -1096 1295 0
-1882 -1096 -1032 -1038 0
-1882 -1096 -1129 0
-1882 -1096 -1187 0
-1882 -1096 -1244 0
-1882 -1097 0
-1883 1039 0
-1883 1290 0
-1883 -1088 0
-1883 -1089 0
-1883 -1090 0
-1883 -1091 0
-1883 -1093 0
-1883 -1094 1293 0
-1883 -1094 -1033 -1036 0
-1883 -1094 -1133 0
-1883 -1094 -1191 0
-1883 -1094 -1248 0
-1883 -1095 1294 0
-1883 -1095 -1033 -1037 0
-1883 -1095 -1135 0
-1883 -1095 -1193 0
-1883 -1095 -1250 0
-1883 -1096 1295 0
-1883 -1096 -1033 -1038 0
-1883 -1096 -1137 0
-1883 -1096 -1195 0
-1883 -1096 -1252 0
-1883 -1097 0
-1884 1039 0
-1884 1291 0
-1884 -1088 0
-1884 -1089 0
-1884 -1090 0
-1884 -1091 0
-1884 -1092 0
-1884 -1094 1293 0
-1884 -1094 -1034 -1036 0
-1884 -1094 -1141 0
-1884 -1094 -1199 0
-1884 -1094 -1256 0
-1884 -1095 1294 0
-1884 -1095 -1034 -1037 0
-1884 -1095 -1143 0
-1884 -1095 -1201 0
-1884 -1095 -1258 0
-1884 -1096 1295 0
-1884 -1096 -1034 -1038 0
-1884 -1096 -1145 0
-1884 -1096 -1203 0
-1884 -1096 -1260 0
-1884 -1097 0
-1885 1039 0
-1885 1286 0
-1885 -1148 0
-1885 -1149 0
-1885 -1150 0
-1885 -1151 0
-1885 -1152 1293 0
-1885 -1152 -1029 -1036 0
-1885 -1152 -1101 0
-1885 -1152 -1159 0
-1885 -1152 -1216 0
-1885 -1153 1294 0
-1885 -1153 -1029 -1037 0
-1885 -1153 -1103 0
-1885 -1153 -1161 0
-1885 -1153 -1218 0
-1885 -1154 1295 0
-1885 -1154 -1029 -1038 0
-1885 -1154 -1105 0
-1885 -1154 -1163 0
-1885 -1154 -1220 0
-1885 -1155 0
-1886 1039 0
-1886 1287 0
-1886 -1149 0
-1886 -1150 0
-1886 -1151 0
-1886 -1152 1293 0
-1886 -1152 -1030 -1036 0
-1886 -1152 -1109 0
-1886 -1152 -1167 0
-1886 -1152 -1224 0
-1886 -1153 1294 0
-1886 -1153 -1030 -1037 0
-1886 -1153 -1111 0
-1886 -1153 -1169 0
-1886 -1153 -1226 0
-1886 -1154 1295 0
-1886 -1154 -1030 -1038 0
-1886 -1154 -1113 0
-1886 -1154 -1171 0
-1886 -1154 -1228 0
-1886 -1155 0
-1887 1039 0
-1887 1288 0
-1887 -1147 0
-1887 -1150 0
-1887 -1151 0
-1887 -1152 1293 0
-1887 -1152 -1031 -1036 0
-1887 -1152 -1117 0
-1887 -1152 -1175 0
-1887 -1152 -1232 0
-1887 -1153 1294 0
-1887 -1153 -1031 -1037 0
-1887 -1153 -1119 0
-1887 -1153 -1177 0
-1887 -1153 -1234 0
-1887 -1154 1295 0
-1887 -1154 -1031 -1038 0
-1887 -1154 -1121 0
-1887 -1154 -1179 0
-1887 -1154 -1236 0
-1887 -1155 0
-1888 1039 0
-1888 1289 0
-1888 -1147 0
-1888 -1148 0
-1888 -1151 0
-1888 -1152 1293 0
-1888 -1152 -1032 -1036 0
-1888 -1152 -1125 0
-1888 -1152 -1183 0
-1888 -1152 -1240 0
-1888 -1153 1294 0
-1888 -1153 -1032 -1037 0
-1888 -1153 -1127 0
-1888 -1153 -1185 0
-1888 -1153 -1242 0
-1888 -1154 1295 0
-1888 -1154 -1032 -1038 0
-1888 -1154 -1129 0
-1888 -1154 -1187 0
-1888 -1154 -1244 0
-1888 -1155 0
-1889 1039 0
-1889 1290 0
-1889 -1147 0
-1889 -1148 0
-1889 -1149 0
-1889 -1152 1293 0
-1889 -1152 -1033 -1036 0
-1889 -1152 -1133 0
-1889 -1152 -1191 0
-1889 -1152 -1248 0
-1889 -1153 1294 0
-1889 -1153 -1033 -1037 0
-1889 -1153 -1135 0
-1889 -1153 -1193 0
-1889 -1153 -1250 0
-1889 -1154 1295 0
-1889 -1154 -1033 -1038 0
-1889 -1154 -1137 0
-1889 -1154 -1195 0
-1889 -1154 -1252 0
-1889 -1155 0
-1890 1039 0
-1890 1291 0
-1890 -1147 0
-1890 -1148 0
-1890 -1149 0
-1890 -1150 0
-1890 -1152 1293 0
-1890 -1152 -1034 -1036 0
-1890 -1152 -1141 0
-1890 -1152 -1199 0
-1890 -1152 -1256 0
-1890 -1153 1294 0
-1890 -1153 -1034 -1037 0
-1890 -1153 -1143 0
-1890 -1153 -1201 0
-1890 -1153 -1258 0
-1890 -1154 1295 0
-1890 -1154 -1034 -1038 0
-1890 -1154 -1145 0
-1890 -1154 -1203 0
-1890 -1154 -1260 0
-1890 -1155 0
-1891 1039 0
-1891 1286 0
-1891 -1206 0
-1891 -1207 0
-1891 -1208 0
-1891 -1209 1293 0
-1891 -1209 -1029 -1036 0
-1891 -1209 -1101 0
-1891 -1209 -1159 0
-1891 -1209 -1216 0
-1891 -1210 1294 0
-1891 -1210 -1029 -1037 0
-1891 -1210 -1103 0
-1891 -1210 -1161 0
-1891 -1210 -1218 0
-1891 -1211 1295 0
-1891 -1211 -1029 -1038 0
-1891 -1211 -1105 0
-1891 -1211 -1163 0
-1891 -1211 -1220 0
-1891 -1212 0
-1892 1039 0
-1892 1287 0
-1892 -1207 0
-1892 -1208 0
-1892 -1209 1293 0
-1892 -1209 -1030 -1036 0
-1892 -1209 -1109 0
-1892 -1209 -1167 0
-1892 -1209 -1224 0
-1892 -1210 1294 0
-1892 -1210 -1030 -1037 0
-1892 -1210 -1111 0
-1892 -1210 -1169 0
-1892 -1210 -1226 0
-1892 -1211 1295 0
-1892 -1211 -1030 -1038 0
-1892 -1211 -1113 0
-1892 -1211 -1171 0
-1892 -1211 -1228 0
-1892 -1212 0
-1893 1039 0
-1893 1288 0
-1893 -1208 0
-1893 -1209 1293 0
-1893 -1209 -1031 -1036 0
-1893 -1209 -1117 0
-1893 -1209 -1175 0
-1893 -1209 -1232 0
-1893 -1210 1294 0
-1893 -1210 -1031 -1037 0
-1893 -1210 -1119 0
-1893 -1210 -1177 0
-1893 -1210 -1234 0
-1893 -1211 1295 0
-1893 -1211 -1031 -1038 0
-1893 -1211 -1121 0
-1893 -1211 -1179 0
-1893 -1211 -1236 0
-1893 -1212 0
-1894 1039 0
-1894 1289 0
-1894 -1205 0
-1894 -1209 1293 0
-1894 -1209 -1032 -1036 0
-1894 -1209 -1125 0
-1894 -1209 -1183 0
-1894 -1209 -1240 0
-1894 -1210 1294 0
-1894 -1210 -1032 -1037 0
-1894 -1210 -1127 0
-1894 -1210 -1185 0
-1894 -1210 -1242 0
-1894 -1211 1295 0
-1894 -1211 -1032 -1038 0
-1894 -1211 -1129 0
-1894 -1211 -1187 0
-1894 -1211 -1244 0
-1894 -1212 0
-1895 1039 0
-1895 1290 0
-1895 -1205 0
-1895 -1206 0
-1895 -1209 1293 0
-1895 -1209 -1033 -1036 0
-1895 -1209 -1133 0
-1895 -1209 -1191 0
-1895 -1209 -1248 0
-1895 -1210 1294 0
-1895 -1210 -1033 -1037 0
-1895 -1210 -1135 0
-1895 -1210 -1193 0
-1895 -1210 -1250 0
-1895 -1211 1295 0
-1895 -1211 -1033 -1038 0
-1895 -1211 -1137 0
-1895 -1211 -1195 0
-1895 -1211 -1252 0
-1895 -1212 0
-1896 1039 0
-1896 1291 0
-1896 -1205 0
-1896 -1206 0
-1896 -1207 0
-1896 -1209 1293 0
-1896 -1209 -1034 -1036 0
-1896 -1209 -1141 0
-1896 -1209 -1199 0
-1896 -1209 -1256 0
-1896 -1210 1294 0
-1896 -1210 -1034 -1037 0
-1896 -1210 -1143 0
-1896 -1210 -1201 0
-1896 -1210 -1258 0
-1896 -1211 1295 0
-1896 -1211 -1034 -1038 0
-1896 -1211 -1145 0
-1896 -1211 -1203 0
-1896 -1211 -1260 0
-1896 -1212 0
-1897 1039 0
-1897 1286 0
-1897 1292 0
-1897 -1029 -1035 0
-1897 -1099 0
-1897 -1157 0
-1897 -1214 0
-1898 1039 0
-1898 1287 0
-1898 1292 0
-1898 -1030 -1035 0
-1898 -1107 0
-1898 -1165 0
-1898 -1222 0
-1899 1039 0
-1899 1288 0
-1899 1292 0
-1899 -1031 -1035 0
-1899 -1115 0
-1899 -1173 0
-1899 -1230 0
-1900 1039 0
-1900 1289 0
-1900 1292 0
-1900 -1032 -1035 0
-1900 -1123 0
-1900 -1181 0
-1900 -1238 0
-1901 1039 0
-1901 1290 0
-1901 1292 0
-1901 -1033 -1035 0
-1901 -1131 0
-1901 -1189 0
-1901 -1246 0
-1902 1039 0
-1902 1291 0
-1902 1292 0
-1902 -1034 -1035 0
-1902 -1139 0
-1902 -1197 0
-1902 -1254 0
-1903 1098 0
-1903 1345 0
-1903 -1030 0
-1903 -1031 0
-1903 -1032 0
-1903 -1033 0
-1903 -1034 0
-1903 -1035 1352 0
-1903 -1035 -1088 -1095 0
-1903 -1035 -1042 0
-1903 -1035 -1159 0
-1903 -1035 -1216 0
-1903 -1036 1353 0
-1903 -1036 -1088 -1096 0
-1903 -1036 -1044 0
-1903 -1036 -1161 0
-1903 -1036 -1218 0
-1903 -1037 1354 0
-1903 -1037 -1088 -1097 0
-1903 -1037 -1046 0
-1903 -1037 -1163 0
-1903 -1037 -1220 0
-1903 -1038 0
-1904 1098 0
-1904 1346 0
-1904 -1029 0
-1904 -1031 0
-1904 -1032 0
-1904 -1033 0
-1904 -1034 0
-1904 -1035 1352 0
-1904 -1035 -1089 -1095 0
-1904 -1035 -1050 0
-1904 -1035 -1167 0
-1904 -1035 -1224 0
-1904 -1036 1353 0
-1904 -1036 -1089 -1096 0
-1904 -1036 -1052 0
-1904 -1036 -1169 0
-1904 -1036 -1226 0
-1904 -1037 1354 0
-1904 -1037 -1089 -1097 0
-1904 -1037 -1054 0
-1904 -1037 -1171 0
-1904 -1037 -1228 0
-1904 -1038 0
-1905 1098 0
-1905 1347 0
-1905 -1029 0
-1905 -1030 0
-1905 -1032 0
-1905 -1033 0
-1905 -1034 0
-1905 -1035 1352 0
-1905 -1035 -1090 -1095 0
-1905 -1035 -1058 0
-1905 -1035 -1175 0
-1905 -1035 -1232 0
-1905 -1036 1353 0
-1905 -1036 -1090 -1096 0
-1905 -1036 -1060 0
-1905 -1036 -1177 0
-1905 -1036 -1234 0
-1905 -1037 1354 0
-1905 -1037 -1090 -1097 0
-1905 -1037 -1062 0
-1905 -1037 -1179 0
-1905 -1037 -1236 0
-1905 -1038 0
-1906 1098 0
-1906 1348 0
-1906 -1029 0
-1906 -1030 0
-1906 -1031 0
-1906 -1033 0
-1906 -1034 0
-1906 -1035 1352 0
-1906 -1035 -1091 -1095 0
-1906 -1035 -1066 0
-1906 -1035 -1183 0
-1906 -1035 -1240 0
-1906 -1036 1353 0
-1906 -1036 -1091 -1096 0
-1906 -1036 -1068 0
-1906 -1036 -1185 0
-1906 -1036 -1242 0
-1906 -1037 1354 0
-1906 -1037 -1091 -1097 0
-1906 -1037 -1070 0
-1906 -1037 -1187 0
-1906 -1037 -1244 0
-1906 -1038 0
-1907 1098 0
-1907 1349 0
-1907 -1029 0
-1907 -1030 0
-1907 -1031 0
-1907 -1032 0
-1907 -1034 0
-1907 -1035 1352 0
-1907 -1035 -1092 -1095 0
-1907 -1035 -1074 0
-1907 -1035 -1191 0
-1907 -1035 -1248 0
-1907 -1036 1353 0
-1907 -1036 -1092 -1096 0
-1907 -1036 -1076 0
-1907 -1036 -1193 0
-1907 -1036 -1250 0
-1907 -1037 1354 0
-1907 -1037 -1092 -1097 0
-1907 -1037 -1078 0
-1907 -1037 -1195 0
-1907 -1037 -1252 0
-1907 -1038 0
-1908 1098 0
-1908 1350 0
-1908 -1029 0
-1908 -1030 0
-1908 -1031 0
-1908 -1032 0
-1908 -1033 0
-1908 -1035 1352 0
-1908 -1035 -1093 -1095 0
-1908 -1035 -1082 0
-1908 -1035 -1199 0
-1908 -1035 -1256 0
-1908 -1036 1353 0
-1908 -1036 -1093 -1096 0
-1908 -1036 -1084 0
-1908 -1036 -1201 0
-1908 -1036 -1258 0
-1908 -1037 1354 0
-1908 -1037 -1093 -1097 0
-1908 -1037 -1086 0
-1908 -1037 -1203 0
-1908 -1037 -1260 0
-1908 -1038 0
-1909 1098 0
-1909 1345 0
-1909 -1148 0
-1909 -1149 0
-1909 -1150 0
-1909 -1151 0
-1909 -1152 1352 0
-1909 -1152 -1088 -1095 0
-1909 -1152 -1042 0
-1909 -1152 -1159 0
-1909 -1152 -1216 0
-1909 -1153 1353 0
-1909 -1153 -1088 -1096 0
-1909 -1153 -1044 0
-1909 -1153 -1161 0
-1909 -1153 -1218 0
-1909 -1154 1354 0
-1909 -1154 -1088 -1097 0
-1909 -1154 -1046 0
-1909 -1154 -1163 0
-1909 -1154 -1220 0
-1909 -1155 0
-1910 1098 0
-1910 1346 0
-1910 -1149 0
-1910 -1150 0
-1910 -1151 0
-1910 -1152 1352 0
-1910 -1152 -1089 -1095 0
-1910 -1152 -1050 0
-1910 -1152 -1167 0
-1910 -1152 -1224 0
-1910 -1153 1353 0
-1910 -1153 -1089 -1096 0
-1910 -1153 -1052 0
-1910 -1153 -1169 0
-1910 -1153 -1226 0
-1910 -1154 1354 0
-1910 -1154 -1089 -1097 0
-1910 -1154 -1054 0
-1910 -1154 -1171 0
-1910 -1154 -1228 0
-1910 -1155 0
-1911 1098 0
-1911 1347 0
-1911 -1147 0
-1911 -1150 0
-1911 -1151 0
-1911 -1152 1352 0
-1911 -1152 -1090 -1095 0
-1911 -1152 -1058 0
-1911 -1152 -1175 0
-1911 -1152 -1232 0
-1911 -1153 1353 0
-1911 -1153 -1090 -1096 0
-1911 -1153 -1060 0
-1911 -1153 -1177 0
-1911 -1153 -1234 0
-1911 -1154 1354 0
-1911 -1154 -1090 -1097 0
-1911 -1154 -1062 0
-1911 -1154 -1179 0
-1911 -1154 -1236 0
-1911 -1155 0
-1912 1098 0
-1912 1348 0
-1912 -1147 0
-1912 -1148 0
-1912 -1151 0
-1912 -1152 1352 0
-1912 -1152 -1091 -1095 0
-1912 -1152 -1066 0
-1912 -1152 -1183 0
-1912 -1152 -1240 0
-1912 -1153 1353 0
-1912 -1153 -1091 -1096 0
-1912 -1153 -1068 0
-1912 -1153 -1185 0
-1912 -1153 -1242 0
-1912 -1154 1354 0
-1912 -1154 -1091 -1097 0
-1912 -1154 -1070 0
-1912 -1154 -1187 0
-1912 -1154 -1244 0
-1912 -1155 0
-1913 1098 0
-1913 1349 0
-1913 -1147 0
-1913 -1148 0
-1913 -1149 0
-1913 -1152 1352 0
-1913 -1152 -1092 -1095 0
-1913 -1152 -1074 0
-1913 -1152 -1191 0
-1913 -1152 -1248 0
-1913 -1153 1353 0
-1913 -1153 -1092 -1096 0
-1913 -1153 -1076 0
-1913 -1153 -1193 0
-1913 -1153 -1250 0
-1913 -1154 1354 0
-1913 -1154 -1092 -1097 0
-1913 -1154 -1078 0
-1913 -1154 -1195 0
-1913 -1154 -1252 0
-1913 -1155 0
-1914 1098 0
-1914 1350 0
-1914 -1147 0
-1914 -1148 0
-1914 -1149 0
-1914 -1150 0
-1914 -1152 1352 0
-1914 -1152 -1093 -1095 0
-1914 -1152 -1082 0
-1914 -1152 -1199 0
-1914 -1152 -1256 0
-1914 -1153 1353 0
-1914 -1153 -1093 -1096 0
-1914 -1153 -1084 0
-1914 -1153 -1201 0
-1914 -1153 -1258 0
-1914 -1154 1354 0
-1914 -1154 -1093 -1097 0
-1914 -1154 -1086 0
-1914 -1154 -1203 0
-1914 -1154 -1260 0
-1914 -1155 0
-1915 1098 0
-1915 1345 0
-1915 -1206 0
-1915 -1207 0
-1915 -1208 0
-1915 -1209 1352 0
-1915 -1209 -1088 -1095 0
-1915 -1209 -1042 0
-1915 -1209 -1159 0
-1915 -1209 -1216 0
-1915 -1210 1353 0
-1915 -1210 -1088 -1096 0
-1915 -1210 -1044 0
-1915 -1210 -1161 0
-1915 -1210 -1218 0
-1915 -1211 1354 0
-1915 -1211 -1088 -1097 0
-1915 -1211 -1046 0
-1915 -1211 -1163 0
-1915 -1211 -1220 0
-1915 -1212 0
-1916 1098 0
-1916 1346 0
-1916 -1207 0
-1916 -1208 0
-1916 -1209 1352 0
-1916 -1209 -1089 -1095 0
-1916 -1209 -1050 0
-1916 -1209 -1167 0
-1916 -1209 -1224 0
-1916 -1210 1353 0
-1916 -1210 -1089 -1096 0
-1916 -1210 -1052 0
-1916 -1210 -1169 0
-1916 -1210 -1226 0
-1916 -1211 1354 0
-1916 -1211 -1089 -1097 0
-1916 -1211 -1054 0
-1916 -1211 -1171 0
-1916 -1211 -1228 0
-1916 -1212 0
-1917 1098 0
-1917 1347 0
-1917 -1208 0
-1917 -1209 1352 0
-1917 -1209 -1090 -1095 0
-1917 -1209 -1058 0
-1917 -1209 -1175 0
-1917 -1209 -1232 0
-1917 -1210 1353 0
-1917 -1210 -1090 -1096 0
-1917 -1210 -1060 0
-1917 -1210 -1177 0
-1917 -1210 -1234 0
-1917 -1211 1354 0
-1917 -1211 -1090 -1097 0
-1917 -1211 -1062 0
-1917 -1211 -1179 0
-1917 -1211 -1236 0
-1917 -1212 0
-1918 1098 0
-1918 1348 0
-1918 -1205 0
-1918 -1209 1352 0
-1918 -1209 -1091 -1095 0
-1918 -1209 -1066 0
-1918 -1209 -1183 0
-1918 -1209 -1240 0
-1918 -1210 1353 0
-1918 -1210 -1091 -1096 0
-1918 -1210 -1068 0
-1918 -1210 -1185 0
-1918 -1210 -1242 0
-1918 -1211 1354 0
-1918 -1211 -1091 -1097 0
-1918 -1211 -1070 0
-1918 -1211 -1187 0
-1918 -1211 -1244 0
-1918 -1212 0
-1919 1098 0
-1919 1349 0
-1919 -1205 0
-1919 -1206 0
-1919 -1209 1352 0
-1919 -1209 -1092 -1095 0
-1919 -1209 -1074 0
-1919 -1209 -1191 0
-1919 -1209 -1248 0
-1919 -1210 1353 0
-1919 -1210 -1092 -1096 0
-1919 -1210 -1076 0
-1919 -1210 -1193 0
-1919 -1210 -1250 0
-1919 -1211 1354 0
-1919 -1211 -1092 -1097 0
-1919 -1211 -1078 0
-1919 -1211 -1195 0
-1919 -1211 -1252 0
-1919 -1212 0
-1920 1098 0
-1920 1350 0
-1920 -1205 0
-1920 -1206 0
-1920 -1207 0
-1920 -1209 1352 0
-1920 -1209 -1093 -1095 0
-1920 -1209 -1082 0
-1920 -1209 -1199 0
-1920 -1209 -1256 0
-1920 -1210 1353 0
-1920 -1210 -1093 -1096 0
-1920 -1210 -1084 0
-1920 -1210 -1201 0
-1920 -1210 -1258 0
-1920 -1211 1354 0
-1920 -1211 -1093 -1097 0
-1920 -1211 -1086 0
-1920 -1211 -1203 0
-1920 -1211 -1260 0
-1920 -1212 0
-1921 1098 0
-1921 1345 0
-1921 1351 0
-1921 -1088 -1094 0
-1921 -1040 0
-1921 -1157 0
-1921 -1214 0
-1922 1098 0
-1922 1346 0
-1922 1351 0
-1922 -1089 -1094 0
-1922 -1048 0
-1922 -1165 0
-1922 -1222 0
-1923 1098 0
-1923 1347 0
-1923 1351 0
-1923 -1090 -1094 0
-1923 -1056 0
-1923 -1173 0
-1923 -1230 0
-1924 1098 0
-1924 1348 0
-1924 1351 0
-1924 -1091 -1094 0
-1924 -1064 0
-1924 -1181 0
-1924 -1238 0
-1925 1098 0
-1925 1349 0
-1925 1351 0
-1925 -1092 -1094 0
-1925 -1072 0
-1925 -1189 0
-1925 -1246 0
-1926 1098 0
-1926 1350 0
-1926 1351 0
-1926 -1093 -1094 0
-1926 -1080 0
-1926 -1197 0
-1926 -1254 0
-1927 1156 0
-1927 1404 0
-1927 -1031 0
-1927 -1032 0
-1927 -1033 0
-1927 -1034 0
-1927 -1035 1410 0
-1927 -1035 -1147 -1153 0
-1927 -1035 -1042 0
-1927 -1035 -1050 0
-1927 -1035 -1101 0
-1927 -1035 -1109 0
-1927 -1035 -1216 0
-1927 -1035 -1224 0
-1927 -1036 1411 0
-1927 -1036 -1147 -1154 0
-1927 -1036 -1044 0
-1927 -1036 -1052 0
-1927 -1036 -1103 0
-1927 -1036 -1111 0
-1927 -1036 -1218 0
-1927 -1036 -1226 0
-1927 -1037 1412 0
-1927 -1037 -1147 -1155 0
-1927 -1037 -1046 0
-1927 -1037 -1054 0
-1927 -1037 -1105 0
-1927 -1037 -1113 0
-1927 -1037 -1220 0
-1927 -1037 -1228 0
-1927 -1038 0
-1928 1156 0
-1928 1405 0
-1928 -1029 0
-1928 -1032 0
-1928 -1033 0
-1928 -1034 0
-1928 -1035 1410 0
-1928 -1035 -1148 -1153 0
-1928 -1035 -1050 0
-1928 -1035 -1058 0
-1928 -1035 -1109 0
-1928 -1035 -1117 0
-1928 -1035 -1224 0
-1928 -1035 -1232 0
-1928 -1036 1411 0
-1928 -1036 -1148 -1154 0
-1928 -1036 -1052 0
-1928 -1036 -1060 0
-1928 -1036 -1111 0
-1928 -1036 -1119 0
-1928 -1036 -1226 0
-1928 -1036 -1234 0
-1928 -1037 1412 0
-1928 -1037 -1148 -1155 0
-1928 -1037 -1054 0
-1928 -1037 -1062 0
-1928 -1037 -1113 0
-1928 -1037 -1121 0
-1928 -1037 -1228 0
-1928 -1037 -1236 0
-1928 -1038 0
-1929 1156 0
-1929 1406 0
-1929 -1029 0
-1929 -1030 0
-1929 -1033 0
-1929 -1034 0
-1929 -1035 1410 0
-1929 -1035 -1149 -1153 0
-1929 -1035 -1058 0
-1929 -1035 -1066 0
-1929 -1035 -1117 0
-1929 -1035 -1125 0
-1929 -1035 -1232 0
-1929 -1035 -1240 0
-1929 -1036 1411 0
-1929 -1036 -1149 -1154 0
-1929 -1036 -1060 0
-1929 -1036 -1068 0
-1929 -1036 -1119 0
-1929 -1036 -1127 0
-1929 -1036 -1234 0
-1929 -1036 -1242 0
-1929 -1037 1412 0
-1929 -1037 -1149 -1155 0
-1929 -1037 -1062 0
-1929 -1037 -1070 0
-1929 -1037 -1121 0
-1929 -1037 -1129 0
-1929 -1037 -1236 0
-1929 -1037 -1244 0
-1929 -1038 0
-1930 1156 0
-1930 1407 0
-1930 -1029 0
-1930 -1030 0
-1930 -1031 0
-1930 -1034 0
-1930 -1035 1410 0
-1930 -1035 -1150 -1153 0
-1930 -1035 -1066 0
-1930 -1035 -1074 0
-1930 -1035 -1125 0
-1930 -1035 -1133 0
-1930 -1035 -1240 0
-1930 -1035 -1248 0
-1930 -1036 1411 0
-1930 -1036 -1150 -1154 0
-1930 -1036 -1068 0
-1930 -1036 -1076 0
-1930 -1036 -1127 0
-1930 -1036 -1135 0
-1930 -1036 -1242 0
-1930 -1036 -1250 0
-1930 -1037 1412 0
-1930 -1037 -1150 -1155 0
-1930 -1037 -1070 0
-1930 -1037 -1078 0
-1930 -1037 -1129 0
-1930 -1037 -1137 0
-1930 -1037 -1244 0
-1930 -1037 -1252 0
-1930 -1038 0
-1931 1156 0
-1931 1408 0
-1931 -1029 0
-1931 -1030 0
-1931 -1031 0
-1931 -1032 0
-1931 -1035 1410 0
-1931 -1035 -1151 -1153 0
-1931 -1035 -1074 0
-1931 -1035 -1082 0
-1931 -1035 -1133 0
-1931 -1035 -1141 0
-1931 -1035 -1248 0
-1931 -1035 -1256 0
-1931 -1036 1411 0
-1931 -1036 -1151 -1154 0
-1931 -1036 -1076 0
-1931 -1036 -1084 0
-1931 -1036 -1135 0
-1931 -1036 -1143 0
-1931 -1036 -1250 0
-1931 -1036 -1258 0
-1931 -1037 1412 0
-1931 -1037 -1151 -1155 0
-1931 -1037 -1078 0
-1931 -1037 -1086 0
-1931 -1037 -1137 0
-1931 -1037 -1145 0
-1931 -1037 -1252 0
-1931 -1037 -1260 0
-1931 -1038 0
-1932 1156 0
-1932 1404 0
-1932 -1090 0
-1932 -1091 0
-1932 -1092 0
-1932 -1093 0
-1932 -1094 1410 0
-1932 -1094 -1147 -1153 0
-1932 -1094 -1042 0
-1932 -1094 -1050 0
-1932 -1094 -1101 0
-1932 -1094 -1109 0
-1932 -1094 -1216 0
-1932 -1094 -1224 0
-1932 -1095 1411 0
-1932 -1095 -1147 -1154 0
-1932 -1095 -1044 0
-1932 -1095 -1052 0
-1932 -1095 -1103 0
-1932 -1095 -1111 0
-1932 -1095 -1218 0
-1932 -1095 -1226 0
-1932 -1096 1412 0
-1932 -1096 -1147 -1155 0
-1932 -1096 -1046 0
-1932 -1096 -1054 0
-1932 -1096 -1105 0
-1932 -1096 -1113 0
-1932 -1096 -1220 0
-1932 -1096 -1228 0
-1932 -1097 0
-1933 1156 0
-1933 1405 0
-1933 -1088 0
-1933 -1091 0
-1933 -1092 0
-1933 -1093 0
-1933 -1094 1410 0
-1933 -1094 -1148 -1153 0
-1933 -1094 -1050 0
-1933 -1094 -1058 0
-1933 -1094 -1109 0
-1933 -1094 -1117 0
-1933 -1094 -1224 0
-1933 -1094 -1232 0
-1933 -1095 1411 0
-1933 -1095 -1148 -1154 0
-1933 -1095 -1052 0
-1933 -1095 -1060 0
-1933 -1095 -1111 0
-1933 -1095 -1119 0
-1933 -1095 -1226 0
-1933 -1095 -1234 0
-1933 -1096 1412 0
-1933 -1096 -1148 -1155 0
-1933 -1096 -1054 0
-1933 -1096 -1062 0
-1933 -1096 -1113 0
-1933 -1096 -1121 0
-1933 -1096 -1228 0
-1933 -1096 -1236 0
-1933 -1097 0
-1934 1156 0
-1934 1406 0
-1934 -1088 0
-1934 -1089 0
-1934 -1092 0
-1934 -1093 0
-1934 -1094 1410 0
-1934 -1094 -1149 -1153 0
-1934 -1094 -1058 0
-1934 -1094 -1066 0
-1934 -1094 -1117 0
-1934 -1094 -1125 0
-1934 -1094 -1232 0
-1934 -1094 -1240 0
-1934 -1095 1411 0
-1934 -1095 -1149 -1154 0
-1934 -1095 -1060 0
-1934 -1095 -1068 0
-1934 -1095 -1119 0
-1934 -1095 -1127 0
-1934 -1095 -1234 0
-1934 -1095 -1242 0
-1934 -1096 1412 0
-1934 -1096 -1149 -1155 0
-1934 -1096 -1062 0
-1934 -1096 -1070 0
-1934 -1096 -1121 0
-1934 -1096 -1129 0
-1934 -1096 -1236 0
-1934 -1096 -1244 0
-1934 -1097 0
-1935 1156 0
-1935 1407 0
-1935 -1088 0
-1935 -1089 0
-1935 -1090 0
-1935 -1093 0
-1935 -1094 1410 0
-1935 -1094 -1150 -1153 0
-1935 -1094 -1066 0
-1935 -1094 -1074 0
-1935 -1094 -1125 0
-1935 -1094 -1133 0
-1935 -1094 -1240 0
-1935 -1094 -1248 0
-1935 -1095 1411 0
-1935 -1095 -1150 -1154 0
-1935 -1095 -1068 0
-1935 -1095 -1076 0
-1935 -1095 -1127 0
-1935 -1095 -1135 0
-1935 -1095 -1242 0
-1935 -1095 -1250 0
-1935 -1096 1412 0
-1935 -1096 -1150 -1155 0
-1935 -1096 -1070 0
-1935 -1096 -1078 0
-1935 -1096 -1129 0
-1935 -1096 -1137 0
-1935 -1096 -1244 0
-1935 -1096 -1252 0
-1935 -1097 0
-1936 1156 0
-1936 1408 0
-1936 -1088 0
-1936 -1089 0
-1936 -1090 0
-1936 -1091 0
-1936 -1094 1410 0
-1936 -1094 -1151 -1153 0
-1936 -1094 -1074 0
-1936 -1094 -1082 0
-1936 -1094 -1133 0
-1936 -1094 -1141 0
-1936 -1094 -1248 0
-1936 -1094 -1256 0
-1936 -1095 1411 0
-1936 -1095 -1151 -1154 0
-1936 -1095 -1076 0
-1936 -1095 -1084 0
-1936 -1095 -1135 0
-1936 -1095 -1143 0
-1936 -1095 -1250 0
-1936 -1095 -1258 0
-1936 -1096 1412 0
-1936 -1096 -1151 -1155 0
-1936 -1096 -1078 0
-1936 -1096 -1086 0
-1936 -1096 -1137 0
-1936 -1096 -1145 0
-1936 -1096 -1252 0
-1936 -1096 -1260 0
-1936 -1097 0
-1937 1156 0
-1937 1404 0
-1937 -1207 0
-1937 -1208 0
-1937 -1209 1410 0
-1937 -1209 -1147 -1153 0
-1937 -1209 -1042 0
-1937 -1209 -1050 0
-1937 -1209 -1101 0
-1937 -1209 -1109 0
-1937 -1209 -1216 0
-1937 -1209 -1224 0
-1937 -1210 1411 0
-1937 -1210 -1147 -1154 0
-1937 -1210 -1044 0
-1937 -1210 -1052 0
-1937 -1210 -1103 0
-1937 -1210 -1111 0
-1937 -1210 -1218 0
-1937 -1210 -1226 0
-1937 -1211 1412 0
-1937 -1211 -1147 -1155 0
-1937 -1211 -1046 0
-1937 -1211 -1054 0
-1937 -1211 -1105 0
-1937 -1211 -1113 0
-1937 -1211 -1220 0
-1937 -1211 -1228 0
-1937 -1212 0
-1938 1156 0
-1938 1405 0
-1938 -1208 0
-1938 -1209 1410 0
-1938 -1209 -1148 -1153 0
-1938 -1209 -1050 0
-1938 -1209 -1058 0
-1938 -1209 -1109 0
-1938 -1209 -1117 0
-1938 -1209 -1224 0
-1938 -1209 -1232 0
-1938 -1210 1411 0
-1938 -1210 -1148 -1154 0
-1938 -1210 -1052 0
-1938 -1210 -1060 0
-1938 -1210 -1111 0
-1938 -1210 -1119 0
-1938 -1210 -1226 0
-1938 -1210 -1234 0
-1938 -1211 1412 0
-1938 -1211 -1148 -1155 0
-1938 -1211 -1054 0
-1938 -1211 -1062 0
-1938 -1211 -1113 0
-1938 -1211 -1121 0
-1938 -1211 -1228 0
-1938 -1211 -1236 0
-1938 -1212 0
-1939 1156 0
-1939 1406 0
-1939 -1209 1410 0
-1939 -1209 -1149 -1153 0
-1939 -1209 -1058 0
-1939 -1209 -1066 0
-1939 -1209 -1117 0
-1939 -1209 -1125 0
-1939 -1209 -1232 0
-1939 -1209 -1240 0
-1939 -1210 1411 0
-1939 -1210 -1149 -1154 0
-1939 -1210 -1060 0
-1939 -1210 -1068 0
-1939 -1210 -1119 0
-1939 -1210 -1127 0
-1939 -1210 -1234 0
-1939 -1210 -1242 0
-1939 -1211 1412 0
-1939 -1211 -1149 -1155 0
-1939 -1211 -1062 0
-1939 -1211 -1070 0
-1939 -1211 -1121 0
-1939 -1211 -1129 0
-1939 -1211 -1236 0
-1939 -1211 -1244 0
-1939 -1212 0
-1940 1156 0
-1940 1407 0
-1940 -1205 0
-1940 -1209 1410 0
-1940 -1209 -1150 -1153 0
-1940 -1209 -1066 0
-1940 -1209 -1074 0
-1940 -1209 -1125 0
-1940 -1209 -1133 0
-1940 -1209 -1240 0
-1940 -1209 -1248 0
-1940 -1210 1411 0
-1940 -1210 -1150 -1154 0
-1940 -1210 -1068 0
-1940 -1210 -1076 0
-1940 -1210 -1127 0
-1940 -1210 -1135 0
-1940 -1210 -1242 0
-1940 -1210 -1250 0
-1940 -1211 1412 0
-1940 -1211 -1150 -1155 0
-1940 -1211 -1070 0
-1940 -1211 -1078 0
-1940 -1211 -1129 0
-1940 -1211 -1137 0
-1940 -1211 -1244 0
-1940 -1211 -1252 0
-1940 -1212 0
-1941 1156 0
-1941 1408 0
-1941 -1205 0
-1941 -1206 0
-1941 -1209 1410 0
-1941 -1209 -1151 -1153 0
-1941 -1209 -1074 0
-1941 -1209 -1082 0
-1941 -1209 -1133 0
-1941 -1209 -1141 0
-1941 -1209 -1248 0
-1941 -1209 -1256 0
-1941 -1210 1411 0
-1941 -1210 -1151 -1154 0
-1941 -1210 -1076 0
-1941 -1210 -1084 0
-1941 -1210 -1135 0
-1941 -1210 -1143 0
-1941 -1210 -1250 0
-1941 -1210 -1258 0
-1941 -1211 1412 0
-1941 -1211 -1151 -1155 0
-1941 -1211 -1078 0
-1941 -1211 -1086 0
-1941 -1211 -1137 0
-1941 -1211 -1145 0
-1941 -1211 -1252 0
-1941 -1211 -1260 0
-1941 -1212 0
-1942 1156 0
-1942 1404 0
-1942 1409 0
-1942 -1147 -1152 0
-1942 -1040 0
-1942 -1048 0
-1942 -1099 0
-1942 -1107 0
-1942 -1214 0
-1942 -1222 0
-1943 1156 0
-1943 1405 0
-1943 1409 0
-1943 -1148 -1152 0
-1943 -1048 0
-1943 -1056 0
-1943 -1107 0
-1943 -1115 0
-1943 -1222 0
-1943 -1230 0
-1944 1156 0
-1944 1406 0
-1944 1409 0
-1944 -1149 -1152 0
-1944 -1056 0
-1944 -1064 0
-1944 -1115 0
-1944 -1123 0
-1944 -1230 0
-1944 -1238 0
-1945 1156 0
-1945 1407 0
-1945 1409 0
-1945 -1150 -1152 0
-1945 -1064 0
-1945 -1072 0
-1945 -1123 0
-1945 -1131 0
-1945 -1238 0
-1945 -1246 0
-1946 1156 0
-1946 1408 0
-1946 1409 0
-1946 -1151 -1152 0
-1946 -1072 0
-1946 -1080 0
-1946 -1131 0
-1946 -1139 0
-1946 -1246 0
-1946 -1254 0
-1947 1213 0
-1947 1462 0
-1947 -1032 0
-1947 -1033 0
-1947 -1034 0
-1947 -1035 1467 0
-1947 -1035 -1205 -1210 0
-1947 -1035 -1042 0
-1947 -1035 -1050 0
-1947 -1035 -1058 0
-1947 -1035 -1101 0
-1947 -1035 -1109 0
-1947 -1035 -1117 0
-1947 -1035 -1159 0
-1947 -1035 -1167 0
-1947 -1035 -1175 0
-1947 -1036 1468 0
-1947 -1036 -1205 -1211 0
-1947 -1036 -1044 0
-1947 -1036 -1052 0
-1947 -1036 -1060 0
-1947 -1036 -1103 0
-1947 -1036 -1111 0
-1947 -1036 -1119 0
-1947 -1036 -1161 0
-1947 -1036 -1169 0
-1947 -1036 -1177 0
-1947 -1037 1469 0
-1947 -1037 -1205 -1212 0
-1947 -1037 -1046 0
-1947 -1037 -1054 0
-1947 -1037 -1062 0
-1947 -1037 -1105 0
-1947 -1037 -1113 0
-1947 -1037 -1121 0
-1947 -1037 -1163 0
-1947 -1037 -1171 0
-1947 -1037 -1179 0
-1947 -1038 0
-1948 1213 0
-1948 1463 0
-1948 -1029 0
-1948 -1033 0
-1948 -1034 0
-1948 -1035 1467 0
-1948 -1035 -1206 -1210 0
-1948 -1035 -1050 0
-1948 -1035 -1058 0
-1948 -1035 -1066 0
-1948 -1035 -1109 0
-1948 -1035 -1117 0
-1948 -1035 -1125 0
-1948 -1035 -1167 0
-1948 -1035 -1175 0
-1948 -1035 -1183 0
-1948 -1036 1468 0
-1948 -1036 -1206 -1211 0
-1948 -1036 -1052 0
-1948 -1036 -1060 0
-1948 -1036 -1068 0
-1948 -1036 -1111 0
-1948 -1036 -1119 0
-1948 -1036 -1127 0
-1948 -1036 -1169 0
-1948 -1036 -1177 0
-1948 -1036 -1185 0
-1948 -1037 1469 0
-1948 -1037 -1206 -1212 0
-1948 -1037 -1054 0
-1948 -1037 -1062 0
-1948 -1037 -1070 0
-1948 -1037 -1113 0
-1948 -1037 -1121 0
-1948 -1037 -1129 0
-1948 -1037 -1171 0
-1948 -1037 -1179 0
-1948 -1037 -1187 0
-1948 -1038 0
-1949 1213 0
-1949 1464 0
-1949 -1029 0
-1949 -1030 0
-1949 -1034 0
-1949 -1035 1467 0
-1949 -1035 -1207 -1210 0
-1949 -1035 -1058 0
-1949 -1035 -1066 0
-1949 -1035 -1074 0
-1949 -1035 -1117 0
-1949 -1035 -1125 0
-1949 -1035 -1133 0
-1949 -1035 -1175 0
-1949 -1035 -1183 0
-1949 -1035 -1191 0
-1949 -1036 1468 0
-1949 -1036 -1207 -1211 0
-1949 -1036 -1060 0
-1949 -1036 -1068 0
-1949 -1036 -1076 0
-1949 -1036 -1119 0
-1949 -1036 -1127 0
-1949 -1036 -1135 0
-1949 -1036 -1177 0
-1949 -1036 -1185 0
-1949 -1036 -1193 0
-1949 -1037 1469 0
-1949 -1037 -1207 -1212 0
-1949 -1037 -1062 0
-1949 -1037 -1070 0
-1949 -1037 -1078 0
-1949 -1037 -1121 0
-1949 -1037 -1129 0
-1949 -1037 -1137 0
-1949 -1037 -1179 0
-1949 -1037 -1187 0
-1949 -1037 -1195 0
-1949 -1038 0
-1950 1213 0
-1950 1465 0
-1950 -1029 0
-1950 -1030 0
-1950 -1031 0
-1950 -1035 1467 0
-1950 -1035 -1208 -1210 0
-1950 -1035 -1066 0
-1950 -1035 -1074 0
-1950 -1035 -1082 0
-1950 -1035 -1125 0
-1950 -1035 -1133 0
-1950 -1035 -1141 0
-1950 -1035 -1183 0
-1950 -1035 -1191 0
-1950 -1035 -1199 0
-1950 -1036 1468 0
-1950 -1036 -1208 -1211 0
-1950 -1036 -1068 0
-1950 -1036 -1076 0
-1950 -1036 -1084 0
-1950 -1036 -1127 0
-1950 -1036 -1135 0
-1950 -1036 -1143 0
-1950 -1036 -1185 0
-1950 -1036 -1193 0
-1950 -1036 -1201 0
-1950 -1037 1469 0
-1950 -1037 -1208 -1212 0
-1950 -1037 -1070 0
-1950 -1037 -1078 0
-1950 -1037 -1086 0
-1950 -1037 -1129 0
-1950 -1037 -1137 0
-1950 -1037 -1145 0
-1950 -1037 -1187 0
-1950 -1037 -1195 0
-1950 -1037 -1203 0
-1950 -1038 0
-1951 1213 0
-1951 1462 0
-1951 -1091 0
-1951 -1092 0
-1951 -1093 0
-1951 -1094 1467 0
-1951 -1094 -1205 -1210 0
-1951 -1094 -1042 0
-1951 -1094 -1050 0
-1951 -1094 -1058 0
-1951 -1094 -1101 0
-1951 -1094 -1109 0
-1951 -1094 -1117 0
-1951 -1094 -1159 0
-1951 -1094 -1167 0
-1951 -1094 -1175 0
-1951 -1095 1468 0
-1951 -1095 -1205 -1211 0
-1951 -1095 -1044 0
-1951 -1095 -1052 0
-1951 -1095 -1060 0
-1951 -1095 -1103 0
-1951 -1095 -1111 0
-1951 -1095 -1119 0
-1951 -1095 -1161 0
-1951 -1095 -1169 0
-1951 -1095 -1177 0
-1951 -1096 1469 0
-1951 -1096 -1205 -1212 0
-1951 -1096 -1046 0
-1951 -1096 -1054 0
-1951 -1096 -1062 0
-1951 -1096 -1105 0
-1951 -1096 -1113 0
-1951 -1096 -1121 0
-1951 -1096 -1163 0
-1951 -1096 -1171 0
-1951 -1096 -1179 0
-1951 -1097 0
-1952 1213 0
-1952 1463 0
-1952 -1088 0
-1952 -1092 0
-1952 -1093 0
-1952 -1094 1467 0
-1952 -1094 -1206 -1210 0
-1952 -1094 -1050 0
-1952 -1094 -1058 0
-1952 -1094 -1066 0
-1952 -1094 -1109 0
-1952 -1094 -1117 0
-1952 -1094 -1125 0
-1952 -1094 -1167 0
-1952 -1094 -1175 0
-1952 -1094 -1183 0
-1952 -1095 1468 0
-1952 -1095 -1206 -1211 0
-1952 -1095 -1052 0
-1952 -1095 -1060 0
-1952 -1095 -1068 0
-1952 -1095 -1111 0
-1952 -1095 -1119 0
-1952 -1095 -1127 0
-1952 -1095 -1169 0
-1952 -1095 -1177 0
-1952 -1095 -1185 0
-1952 -1096 1469 0
-1952 -1096 -1206 -1212 0
-1952 -1096 -1054 0
-1952 -1096 -1062 0
-1952 -1096 -1070 0
-1952 -1096 -1113 0
-1952 -1096 -1121 0
-1952 -1096 -1129 0
-1952 -1096 -1171 0
-1952 -1096 -1179 0
-1952 -1096 -1187 0
-1952 -1097 0
-1953 1213 0
-1953 1464 0
-1953 -1088 0
-1953 -1089 0
-1953 -1093 0
-1953 -1094 1467 0
-1953 -1094 -1207 -1210 0
-1953 -1094 -1058 0
-1953 -1094 -1066 0
-1953 -1094 -1074 0
-1953 -1094 -1117 0
-1953 -1094 -1125 0
-1953 -1094 -1133 0
-1953 -1094 -1175 0
-1953 -1094 -1183 0
-1953 -1094 -1191 0
-1953 -1095 1468 0
-1953 -1095 -1207 -1211 0
-1953 -1095 -1060 0
-1953 -1095 -1068 0
-1953 -1095 -1076 0
-1953 -1095 -1119 0
-1953 -1095 -1127 0
-1953 -1095 -1135 0
-1953 -1095 -1177 0
-1953 -1095 -1185 0
-1953 -1095 -1193 0
-1953 -1096 1469 0
-1953 -1096 -1207 -1212 0
-1953 -1096 -1062 0
-1953 -1096 -1070 0
-1953 -1096 -1078 0
-1953 -1096 -1121 0
-1953 -1096 -1129 0
-1953 -1096 -1137 0
-1953 -1096 -1179 0
-1953 -1096 -1187 0
-1953 -1096 -1195 0
-1953 -1097 0
-1954 1213 0
-1954 1465 0
-1954 -1088 0
-1954 -1089 0
-1954 -1090 0
-1954 -1094 1467 0
-1954 -1094 -1208 -1210 0
-1954 -1094 -1066 0
-1954 -1094 -1074 0
-1954 -1094 -1082 0
-1954 -1094 -1125 0
-1954 -1094 -1133 0
-1954 -1094 -1141 0
-1954 -1094 -1183 0
-1954 -1094 -1191 0
-1954 -1094 -1199 0
-1954 -1095 1468 0
-1954 -1095 -1208 -1211 0
-1954 -1095 -1068 0
-1954 -1095 -1076 0
-1954 -1095 -1084 0
-1954 -1095 -1127 0
-1954 -1095 -1135 0
-1954 -1095 -1143 0
-1954 -1095 -1185 0
-1954 -1095 -1193 0
-1954 -1095 -1201 0
-1954 -1096 1469 0
-1954 -1096 -1208 -1212 0
-1954 -1096 -1070 0
-1954 -1096 -1078 0
-1954 -1096 -1086 0
-1954 -1096 -1129 0
-1954 -1096 -1137 0
-1954 -1096 -1145 0
-1954 -1096 -1187 0
-1954 -1096 -1195 0
-1954 -1096 -1203 0
-1954 -1097 0
-1955 1213 0
-1955 1462 0
-1955 -1150 0
-1955 -1151 0
-1955 -1152 1467 0
-1955 -1152 -1205 -1210 0
-1955 -1152 -1042 0
-1955 -1152 -1050 0
-1955 -1152 -1058 0
-1955 -1152 -1101 0
-1955 -1152 -1109 0
-1955 -1152 -1117 0
-1955 -1152 -1159 0
-1955 -1152 -1167 0
-1955 -1152 -1175 0
-1955 -1153 1468 0
-1955 -1153 -1205 -1211 0
-1955 -1153 -1044 0
-1955 -1153 -1052 0
-1955 -1153 -1060 0
-1955 -1153 -1103 0
-1955 -1153 -1111 0
-1955 -1153 -1119 0
-1955 -1153 -1161 0
-1955 -1153 -1169 0
-1955 -1153 -1177 0
-1955 -1154 1469 0
-1955 -1154 -1205 -1212 0
-1955 -1154 -1046 0
-1955 -1154 -1054 0
-1955 -1154 -1062 0
-1955 -1154 -1105 0
-1955 -1154 -1113 0
-1955 -1154 -1121 0
-1955 -1154 -1163 0
-1955 -1154 -1171 0
-1955 -1154 -1179 0
-1955 -1155 0
-1956 1213 0
-1956 1463 0
-1956 -1151 0
-1956 -1152 1467 0
-1956 -1152 -1206 -1210 0
-1956 -1152 -1050 0
-1956 -1152 -1058 0
-1956 -1152 -1066 0
-1956 -1152 -1109 0
-1956 -1152 -1117 0
-1956 -1152 -1125 0
-1956 -1152 -1167 0
-1956 -1152 -1175 0
-1956 -1152 -1183 0
-1956 -1153 1468 0
-1956 -1153 -1206 -1211 0
-1956 -1153 -1052 0
-1956 -1153 -1060 0
-1956 -1153 -1068 0
-1956 -1153 -1111 0
-1956 -1153 -1119 0
-1956 -1153 -1127 0
-1956 -1153 -1169 0
-1956 -1153 -1177 0
-1956 -1153 -1185 0
-1956 -1154 1469 0
-1956 -1154 -1206 -1212 0
-1956 -1154 -1054 0
-1956 -1154 -1062 0
-1956 -1154 -1070 0
-1956 -1154 -1113 0
-1956 -1154 -1121 0
-1956 -1154 -1129 0
-1956 -1154 -1171 0
-1956 -1154 -1179 0
-1956 -1154 -1187 0
-1956 -1155 0
-1957 1213 0
-1957 1464 0
-1957 -1147 0
-1957 -1152 1467 0
-1957 -1152 -1207 -1210 0
-1957 -1152 -1058 0
-1957 -1152 -1066 0
-1957 -1152 -1074 0
-1957 -1152 -1117 0
-1957 -1152 -1125 0
-1957 -1152 -1133 0
-1957 -1152 -1175 0
-1957 -1152 -1183 0
-1957 -1152 -1191 0
-1957 -1153 1468 0
-1957 -1153 -1207 -1211 0
-1957 -1153 -1060 0
-1957 -1153 -1068 0
-1957 -1153 -1076 0
-1957 -1153 -1119 0
-1957 -1153 -1127 0
-1957 -1153 -1135 0
-1957 -1153 -1177 0
-1957 -1153 -1185 0
-1957 -1153 -1193 0
-1957 -1154 1469 0
-1957 -1154 -1207 -1212 0
-1957 -1154 -1062 0
-1957 -1154 -1070 0
-1957 -1154 -1078 0
-1957 -1154 -1121 0
-1957 -1154 -1129 0
-1957 -1154 -1137 0
-1957 -1154 -1179 0
-1957 -1154 -1187 0
-1957 -1154 -1195 0
-1957 -1155 0
-1958 1213 0
-1958 1465 0
-1958 -1147 0
-1958 -1148 0
-1958 -1152 1467 0
-1958 -1152 -1208 -1210 0
-1958 -1152 -1066 0
-1958 -1152 -1074 0
-1958 -1152 -1082 0
-1958 -1152 -1125 0
-1958 -1152 -1133 0
-1958 -1152 -1141 0
-1958 -1152 -1183 0
-1958 -1152 -1191 0
-1958 -1152 -1199 0
-1958 -1153 1468 0
-1958 -1153 -1208 -1211 0
-1958 -1153 -1068 0
-1958 -1153 -1076 0
-1958 -1153 -1084 0
-1958 -1153 -1127 0
-1958 -1153 -1135 0
-1958 -1153 -1143 0
-1958 -1153 -1185 0
-1958 -1153 -1193 0
-1958 -1153 -1201 0
-1958 -1154 1469 0
-1958 -1154 -1208 -1212 0
-1958 -1154 -1070 0
-1958 -1154 -1078 0
-1958 -1154 -1086 0
-1958 -1154 -1129 0
-1958 -1154 -1137 0
-1958 -1154 -1145 0
-1958 -1154 -1187 0
-1958 -1154 -1195 0
-1958 -1154 -1203 0
-1958 -1155 0
-1959 1213 0
-1959 1462 0
-1959 1466 0
-1959 -1205 -1209 0
-1959 -1040 0
-1959 -1048 0
-1959 -1056 0
-1959 -1099 0
-1959 -1107 0
-1959 -1115 0
-1959 -1157 0
-1959 -1165 0
-1959 -1173 0
-1960 1213 0
-1960 1463 0
-1960 1466 0
-1960 -1206 -1209 0
-1960 -1048 0
-1960 -1056 0
-1960 -1064 0
-1960 -1107 0
-1960 -1115 0
-1960 -1123 0
-1960 -1165 0
-1960 -1173 0
-1960 -1181 0
-1961 1213 0
-1961 1464 0
-1961 1466 0
-1961 -1207 -1209 0
-1961 -1056 0
-1961 -1064 0
-1961 -1072 0
-1961 -1115 0
-1961 -1123 0
-1961 -1131 0
-1961 -1173 0
-1961 -1181 0
-1961 -1189 0
-1962 1213 0
-1962 1465 0
-1962 1466 0
-1962 -1208 -1209 0
-1962 -1064 0
-1962 -1072 0
-1962 -1080 0
-1962 -1123 0
-1962 -1131 0
-1962 -1139 0
-1962 -1181 0
-1962 -1189 0
-1962 -1197 0
-1029 1286 1879 1880 1881 1882 1883 1884 1885 1886 1887 1888 1889 1890 1891 1892 1893 1894 1895 1896 1897 1898 1899 1900 1901 1902 0
-1030 1287 1879 1880 1881 1882 1883 1884 1885 1886 1887 1888 1889 1890 1891 1892 1893 1894 1895 1896 1897 1898 1899 1900 1901 1902 0
-1031 1288 1879 1880 1881 1882 1883 1884 1885 1886 1887 1888 1889 1890 1891 1892 1893 1894 1895 1896 1897 1898 1899 1900 1901 1902 0
-1032 1289 1879 1880 1881 1882 1883 1884 1885 1886 1887 1888 1889 1890 1891 1892 1893 1894 1895 1896 1897 1898 1899 1900 1901 1902 0
-1033 1290 1879 1880 1881 1882 1883 1884 1885 1886 1887 1888 1889 1890 1891 1892 1893 1894 1895 1896 1897 1898 1899 1900 1901 1902 0
-1034 1291 1879 1880 1881 1882 1883 1884 1885 1886 1887 1888 1889 1890 1891 1892 1893 1894 1895 1896 1897 1898 1899 1900 1901 1902 0
-1035 1292 1879 1880 1881 1882 1883 1884 1885 1886 1887 1888 1889 1890 1891 1892 1893 1894 1895 1896 1897 1898 1899 1900 1901 1902 0
-1036 1293 1879 1880 1881 1882 1883 1884 1885 1886 1887 1888 1889 1890 1891 1892 1893 1894 1895 1896 1897 1898 1899 1900 1901 1902 0
-1037 1294 1879 1880 1881 1882 1883 1884 1885 1886 1887 1888 1889 1890 1891 1892 1893 1894 1895 1896 1897 1898 1899 1900 1901 1902 0
-1038 1295 1879 1880 1881 1882 1883 1884 1885 1886 1887 1888 1889 1890 1891 1892 1893 1894 1895 1896 1897 1898 1899 1900 1901 1902 0
-1088 1345 1903 1904 1905 1906 1907 1908 1909 1910 1911 1912 1913 1914 1915 1916 1917 1918 1919 1920 1921 1922 1923 1924 1925 1926 0
-1089 1346 1903 1904 1905 1906 1907 1908 1909 1910 1911 1912 1913 1914 1915 1916 1917 1918 1919 1920 1921 1922 1923 1924 1925 1926 0
-1090 1347 1903 1904 1905 1906 1907 1908 1909 1910 1911 1912 1913 1914 1915 1916 1917 1918 1919 1920 1921 1922 1923 1924 1925 1926 0
-1091 1348 1903 1904 1905 1906 1907 1908 1909 1910 1911 1912 1913 1914 1915 1916 1917 1918 1919 1920 1921 1922 1923 1924 1925 1926 0
-1092 1349 1903 1904 1905 1906 1907 1908 1909 1910 1911 1912 1913 1914 1915 1916 1917 1918 1919 1920 1921 1922 1923 1924 1925 1926 0
-1093 1350 1903 1904 1905 1906 1907 1908 1909 1910 1911 1912 1913 1914 1915 1916 1917 1918 1919 1920 1921 1922 1923 1924 1925 1926 0
-1094 1351 1903 1904 1905 1906 1907 1908 1909 1910 1911 1912 1913 1914 1915 1916 1917 1918 1919 1920 1921 1922 1923 1924 1925 1926 0
-1095 1352 1903 1904 1905 1906 1907 1908 1909 1910 1911 1912 1913 1914 1915 1916 1917 1918 1919 1920 1921 1922 1923 1924 1925 1926 0
-1096 1353 1903 1904 1905 1906 1907 1908 1909 1910 1911 1912 1913 1914 1915 1916 1917 1918 1919 1920 1921 1922 1923 1924 1925 1926 0
-1097 1354 1903 1904 1905 1906 1907 1908 1909 1910 1911 1912 1913 1914 1915 1916 1917 1918 1919 1920 1921 1922 1923 1924 1925 1926 0
-1147 1404 1927 1928 1929 1930 1931 1932 1933 1934 1935 1936 1937 1938 1939 1940 1941 1942 1943 1944 1945 1946 0
-1148 1405 1927 1928 1929 1930 1931 1932 1933 1934 1935 1936 1937 1938 1939 1940 1941 1942 1943 1944 1945 1946 0
-1149 1406 1927 1928 1929 1930 1931 1932 1933 1934 1935 1936 1937 1938 1939 1940 1941 1942 1943 1944 1945 1946 0
-1150 1407 1927 1928 1929 1930 1931 1932 1933 1934 1935 1936 1937 1938 1939 1940 1941 1942 1943 1944 1945 1946 0
-1151 1408 1927 1928 1929 1930 1931 1932 1933 1934 1935 1936 1937 1938 1939 1940 1941 1942 1943 1944 1945 1946 0
-1152 1409 1927 1928 1929 1930 1931 1932 1933 1934 1935 1936 1937 1938 1939 1940 1941 1942 1943 1944 1945 1946 0
-1153 1410 1927 1928 1929 1930 1931 1932 1933 1934 1935 1936 1937 1938 1939 1940 1941 1942 1943 1944 1945 1946 0
-1154 1411 1927 1928 1929 1930 1931 1932 1933 1934 1935 1936 1937 1938 1939 1940 1941 1942 1943 1944 1945 1946 0
-1155 1412 1927 1928 1929 1930 1931 1932 1933 1934 1935 1936 1937 1938 1939 1940 1941 1942 1943 1944 1945 1946 0
-1205 1462 1947 1948 1949 1950 1951 1952 1953 1954 1955 1956 1957 1958 1959 1960 1961 1962 0
-1206 1463 1947 1948 1949 1950 1951 1952 1953 1954 1955 1956 1957 1958 1959 1960 1961 1962 0
-1207 1464 1947 1948 1949 1950 1951 1952 1953 1954 1955 1956 1957 1958 1959 1960 1961 1962 0
-1208 1465 1947 1948 1949 1950 1951 1952 1953 1954 1955 1956 1957 1958 1959 1960 1961 1962 0
-1209 1466 1947 1948 1949 1950 1951 1952 1953 1954 1955 1956 1957 1958 1959 1960 1961 1962 0
-1210 1467 1947 1948 1949 1950 1951 1952 1953 1954 1955 1956 1957 1958 1959 1960 1961 1962 0
-1211 1468 1947 1948 1949 1950 1951 1952 1953 1954 1955 1956 1957 1958 1959 1960 1961 1962 0
-1212 1469 1947 1948 1949 1950 1951 1952 1953 1954 1955 1956 1957 1958 1959 1960 1961 1962 0
