p cnf 2303 40059
119 0
124 0
4 0
7 0
65 0
66 0
180 0
182 0
1661 0
1666 0
1722 0
1723 0
1543 0
1550 0
1603 0
1609 0
1 2 3 4 5 6 0
-1 -2 0
-1 -3 0
-1 -4 0
-1 -5 0
-1 -6 0
-2 -3 0
-2 -4 0
-2 -5 0
-2 -6 0
-3 -4 0
-3 -5 0
-3 -6 0
-4 -5 0
-4 -6 0
-5 -6 0
7 8 9 10 0
-7 -8 0
-7 -9 0
-7 -10 0
-8 -9 0
-8 -10 0
-9 -10 0
60 61 62 63 64 65 0
-60 -61 0
-60 -62 0
-60 -63 0
-60 -64 0
-60 -65 0
-61 -62 0
-61 -63 0
-61 -64 0
-61 -65 0
-62 -63 0
-62 -64 0
-62 -65 0
-63 -64 0
-63 -65 0
-64 -65 0
66 67 68 69 0
-66 -67 0
-66 -68 0
-66 -69 0
-67 -68 0
-67 -69 0
-68 -69 0
119 120 121 122 123 0
-119 -120 0
-119 -121 0
-119 -122 0
-119 -123 0
-120 -121 0
-120 -122 0
-120 -123 0
-121 -122 0
-121 -123 0
-122 -123 0
124 125 126 127 0
-124 -125 0
-124 -126 0
-124 -127 0
-125 -126 0
-125 -127 0
-126 -127 0
177 178 179 180 0
-177 -178 0
-177 -179 0
-177 -180 0
-178 -179 0
-178 -180 0
-179 -180 0
181 182 183 184 0
-181 -182 0
-181 -183 0
-181 -184 0
-182 -183 0
-182 -184 0
-183 -184 0
-1 -7 12 0
-12 7 0
-12 1 0
-1 -8 14 0
-14 8 0
-14 1 0
-1 -9 16 0
-16 9 0
-16 1 0
-1 -10 18 0
-18 10 0
-18 1 0
-2 -7 20 0
-20 7 0
-20 2 0
-2 -8 22 0
-22 8 0
-22 2 0
-2 -9 24 0
-24 9 0
-24 2 0
-2 -10 26 0
-26 10 0
-26 2 0
-3 -7 28 0
-28 7 0
-28 3 0
-3 -8 30 0
-30 8 0
-30 3 0
-3 -9 32 0
-32 9 0
-32 3 0
-3 -10 34 0
-34 10 0
-34 3 0
-4 -7 36 0
-36 7 0
-36 4 0
-4 -8 38 0
-38 8 0
-38 4 0
-4 -9 40 0
-40 9 0
-40 4 0
-4 -10 42 0
-42 10 0
-42 4 0
-5 -7 44 0
-44 7 0
-44 5 0
-5 -8 46 0
-46 8 0
-46 5 0
-5 -9 48 0
-48 9 0
-48 5 0
-5 -10 50 0
-50 10 0
-50 5 0
-6 -7 52 0
-52 7 0
-52 6 0
-6 -8 54 0
-54 8 0
-54 6 0
-6 -9 56 0
-56 9 0
-56 6 0
-6 -10 58 0
-58 10 0
-58 6 0
-60 -66 71 0
-71 66 0
-71 60 0
-60 -67 73 0
-73 67 0
-73 60 0
-60 -68 75 0
-75 68 0
-75 60 0
-60 -69 77 0
-77 69 0
-77 60 0
-61 -66 79 0
-79 66 0
-79 61 0
-61 -67 81 0
-81 67 0
-81 61 0
-61 -68 83 0
-83 68 0
-83 61 0
-61 -69 85 0
-85 69 0
-85 61 0
-62 -66 87 0
-87 66 0
-87 62 0
-62 -67 89 0
-89 67 0
-89 62 0
-62 -68 91 0
-91 68 0
-91 62 0
-62 -69 93 0
-93 69 0
-93 62 0
-63 -66 95 0
-95 66 0
-95 63 0
-63 -67 97 0
-97 67 0
-97 63 0
-63 -68 99 0
-99 68 0
-99 63 0
-63 -69 101 0
-101 69 0
-101 63 0
-64 -66 103 0
-103 66 0
-103 64 0
-64 -67 105 0
-105 67 0
-105 64 0
-64 -68 107 0
-107 68 0
-107 64 0
-64 -69 109 0
-109 69 0
-109 64 0
-65 -66 111 0
-111 66 0
-111 65 0
-65 -67 113 0
-113 67 0
-113 65 0
-65 -68 115 0
-115 68 0
-115 65 0
-65 -69 117 0
-117 69 0
-117 65 0
-119 -124 129 0
-129 124 0
-129 119 0
-119 -125 131 0
-131 125 0
-131 119 0
-119 -126 133 0
-133 126 0
-133 119 0
-119 -127 135 0
-135 127 0
-135 119 0
-119 -124 137 0
-120 -124 137 0
-137 124 0
-137 119 120 0
-119 -125 139 0
-120 -125 139 0
-139 125 0
-139 119 120 0
-119 -126 141 0
-120 -126 141 0
-141 126 0
-141 119 120 0
-119 -127 143 0
-120 -127 143 0
-143 127 0
-143 119 120 0
-120 -124 145 0
-121 -124 145 0
-145 124 0
-145 120 121 0
-120 -125 147 0
-121 -125 147 0
-147 125 0
-147 120 121 0
-120 -126 149 0
-121 -126 149 0
-149 126 0
-149 120 121 0
-120 -127 151 0
-121 -127 151 0
-151 127 0
-151 120 121 0
-121 -124 153 0
-122 -124 153 0
-153 124 0
-153 121 122 0
-121 -125 155 0
-122 -125 155 0
-155 125 0
-155 121 122 0
-121 -126 157 0
-122 -126 157 0
-157 126 0
-157 121 122 0
-121 -127 159 0
-122 -127 159 0
-159 127 0
-159 121 122 0
-122 -124 161 0
-123 -124 161 0
-161 124 0
-161 122 123 0
-122 -125 163 0
-123 -125 163 0
-163 125 0
-163 122 123 0
-122 -126 165 0
-123 -126 165 0
-165 126 0
-165 122 123 0
-122 -127 167 0
-123 -127 167 0
-167 127 0
-167 122 123 0
-123 -124 169 0
-169 124 0
-169 123 0
-123 -125 171 0
-171 125 0
-171 123 0
-123 -126 173 0
-173 126 0
-173 123 0
-123 -127 175 0
-175 127 0
-175 123 0
-177 -181 186 0
-186 181 0
-186 177 0
-177 -182 188 0
-188 182 0
-188 177 0
-177 -183 190 0
-190 183 0
-190 177 0
-177 -184 192 0
-192 184 0
-192 177 0
-177 -181 194 0
-178 -181 194 0
-194 181 0
-194 177 178 0
-177 -182 196 0
-178 -182 196 0
-196 182 0
-196 177 178 0
-177 -183 198 0
-178 -183 198 0
-198 183 0
-198 177 178 0
-177 -184 200 0
-178 -184 200 0
-200 184 0
-200 177 178 0
-177 -181 202 0
-178 -181 202 0
-179 -181 202 0
-202 181 0
-202 177 178 179 0
-177 -182 204 0
-178 -182 204 0
-179 -182 204 0
-204 182 0
-204 177 178 179 0
-177 -183 206 0
-178 -183 206 0
-179 -183 206 0
-206 183 0
-206 177 178 179 0
-177 -184 208 0
-178 -184 208 0
-179 -184 208 0
-208 184 0
-208 177 178 179 0
-178 -181 210 0
-179 -181 210 0
-180 -181 210 0
-210 181 0
-210 178 179 180 0
-178 -182 212 0
-179 -182 212 0
-180 -182 212 0
-212 182 0
-212 178 179 180 0
-178 -183 214 0
-179 -183 214 0
-180 -183 214 0
-214 183 0
-214 178 179 180 0
-178 -184 216 0
-179 -184 216 0
-180 -184 216 0
-216 184 0
-216 178 179 180 0
-179 -181 218 0
-180 -181 218 0
-218 181 0
-218 179 180 0
-179 -182 220 0
-180 -182 220 0
-220 182 0
-220 179 180 0
-179 -183 222 0
-180 -183 222 0
-222 183 0
-222 179 180 0
-179 -184 224 0
-180 -184 224 0
-224 184 0
-224 179 180 0
-180 -181 226 0
-226 181 0
-226 180 0
-180 -182 228 0
-228 182 0
-228 180 0
-180 -183 230 0
-230 183 0
-230 180 0
-180 -184 232 0
-232 184 0
-232 180 0
-12 234 0
-71 234 0
-129 234 0
-186 234 0
-234 12 71 129 186 0
-14 235 0
-73 235 0
-131 235 0
-188 235 0
-235 14 73 131 188 0
-16 236 0
-75 236 0
-133 236 0
-190 236 0
-236 16 75 133 190 0
-18 237 0
-77 237 0
-135 237 0
-192 237 0
-237 18 77 135 192 0
-20 238 0
-79 238 0
-137 238 0
-194 238 0
-238 20 79 137 194 0
-22 239 0
-81 239 0
-139 239 0
-196 239 0
-239 22 81 139 196 0
-24 240 0
-83 240 0
-141 240 0
-198 240 0
-240 24 83 141 198 0
-26 241 0
-85 241 0
-143 241 0
-200 241 0
-241 26 85 143 200 0
-28 242 0
-87 242 0
-145 242 0
-202 242 0
-242 28 87 145 202 0
-30 243 0
-89 243 0
-147 243 0
-204 243 0
-243 30 89 147 204 0
-32 244 0
-91 244 0
-149 244 0
-206 244 0
-244 32 91 149 206 0
-34 245 0
-93 245 0
-151 245 0
-208 245 0
-245 34 93 151 208 0
-36 246 0
-95 246 0
-153 246 0
-210 246 0
-246 36 95 153 210 0
-38 247 0
-97 247 0
-155 247 0
-212 247 0
-247 38 97 155 212 0
-40 248 0
-99 248 0
-157 248 0
-214 248 0
-248 40 99 157 214 0
-42 249 0
-101 249 0
-159 249 0
-216 249 0
-249 42 101 159 216 0
-44 250 0
-103 250 0
-161 250 0
-218 250 0
-250 44 103 161 218 0
-46 251 0
-105 251 0
-163 251 0
-220 251 0
-251 46 105 163 220 0
-48 252 0
-107 252 0
-165 252 0
-222 252 0
-252 48 107 165 222 0
-50 253 0
-109 253 0
-167 253 0
-224 253 0
-253 50 109 167 224 0
-52 254 0
-111 254 0
-169 254 0
-226 254 0
-254 52 111 169 226 0
-54 255 0
-113 255 0
-171 255 0
-228 255 0
-255 54 113 171 228 0
-56 256 0
-115 256 0
-173 256 0
-230 256 0
-256 56 115 173 230 0
-58 257 0
-117 257 0
-175 257 0
-232 257 0
-257 58 117 175 232 0
-12 -71 0
-14 -73 0
-16 -75 0
-18 -77 0
-20 -79 0
-22 -81 0
-24 -83 0
-26 -85 0
-28 -87 0
-30 -89 0
-32 -91 0
-34 -93 0
-36 -95 0
-38 -97 0
-40 -99 0
-42 -101 0
-44 -103 0
-46 -105 0
-48 -107 0
-50 -109 0
-52 -111 0
-54 -113 0
-56 -115 0
-58 -117 0
-12 -129 0
-14 -131 0
-16 -133 0
-18 -135 0
-20 -137 0
-22 -139 0
-24 -141 0
-26 -143 0
-28 -145 0
-30 -147 0
-32 -149 0
-34 -151 0
-36 -153 0
-38 -155 0
-40 -157 0
-42 -159 0
-44 -161 0
-46 -163 0
-48 -165 0
-50 -167 0
-52 -169 0
-54 -171 0
-56 -173 0
-58 -175 0
-12 -186 0
-14 -188 0
-16 -190 0
-18 -192 0
-20 -194 0
-22 -196 0
-24 -198 0
-26 -200 0
-28 -202 0
-30 -204 0
-32 -206 0
-34 -208 0
-36 -210 0
-38 -212 0
-40 -214 0
-42 -216 0
-44 -218 0
-46 -220 0
-48 -222 0
-50 -224 0
-52 -226 0
-54 -228 0
-56 -230 0
-58 -232 0
-71 -129 0
-73 -131 0
-75 -133 0
-77 -135 0
-79 -137 0
-81 -139 0
-83 -141 0
-85 -143 0
-87 -145 0
-89 -147 0
-91 -149 0
-93 -151 0
-95 -153 0
-97 -155 0
-99 -157 0
-101 -159 0
-103 -161 0
-105 -163 0
-107 -165 0
-109 -167 0
-111 -169 0
-113 -171 0
-115 -173 0
-117 -175 0
-71 -186 0
-73 -188 0
-75 -190 0
-77 -192 0
-79 -194 0
-81 -196 0
-83 -198 0
-85 -200 0
-87 -202 0
-89 -204 0
-91 -206 0
-93 -208 0
-95 -210 0
-97 -212 0
-99 -214 0
-101 -216 0
-103 -218 0
-105 -220 0
-107 -222 0
-109 -224 0
-111 -226 0
-113 -228 0
-115 -230 0
-117 -232 0
-129 -186 0
-131 -188 0
-133 -190 0
-135 -192 0
-137 -194 0
-139 -196 0
-141 -198 0
-143 -200 0
-145 -202 0
-147 -204 0
-149 -206 0
-151 -208 0
-153 -210 0
-155 -212 0
-157 -214 0
-159 -216 0
-161 -218 0
-163 -220 0
-165 -222 0
-167 -224 0
-169 -226 0
-171 -228 0
-173 -230 0
-175 -232 0
-1 -8 234 0
-1 -9 235 0
-1 -10 236 0
-2 -8 238 0
-2 -9 239 0
-2 -10 240 0
-3 -8 242 0
-3 -9 243 0
-3 -10 244 0
-4 -8 246 0
-4 -9 247 0
-4 -10 248 0
-5 -8 250 0
-5 -9 251 0
-5 -10 252 0
-6 -8 254 0
-6 -9 255 0
-6 -10 256 0
-60 -67 234 0
-60 -68 235 0
-60 -69 236 0
-61 -67 238 0
-61 -68 239 0
-61 -69 240 0
-62 -67 242 0
-62 -68 243 0
-62 -69 244 0
-63 -67 246 0
-63 -68 247 0
-63 -69 248 0
-64 -67 250 0
-64 -68 251 0
-64 -69 252 0
-65 -67 254 0
-65 -68 255 0
-65 -69 256 0
-119 -125 234 238 0
-119 -126 235 239 0
-119 -127 236 240 0
-120 -125 238 242 0
-120 -126 239 243 0
-120 -127 240 244 0
-121 -125 242 246 0
-121 -126 243 247 0
-121 -127 244 248 0
-122 -125 246 250 0
-122 -126 247 251 0
-122 -127 248 252 0
-123 -125 250 254 0
-123 -126 251 255 0
-123 -127 252 256 0
-177 -182 234 238 0
-177 -182 234 242 0
-177 -182 238 242 0
-177 -183 235 239 0
-177 -183 235 243 0
-177 -183 239 243 0
-177 -184 236 240 0
-177 -184 236 244 0
-177 -184 240 244 0
-178 -182 238 242 0
-178 -182 238 246 0
-178 -182 242 246 0
-178 -183 239 243 0
-178 -183 239 247 0
-178 -183 243 247 0
-178 -184 240 244 0
-178 -184 240 248 0
-178 -184 244 248 0
-179 -182 242 246 0
-179 -182 242 250 0
-179 -182 246 250 0
-179 -183 243 247 0
-179 -183 243 251 0
-179 -183 247 251 0
-179 -184 244 248 0
-179 -184 244 252 0
-179 -184 248 252 0
-180 -182 246 250 0
-180 -182 246 254 0
-180 -182 250 254 0
-180 -183 247 251 0
-180 -183 247 255 0
-180 -183 251 255 0
-180 -184 248 252 0
-180 -184 248 256 0
-180 -184 252 256 0
-12 -235 13 0
-13 12 0
-13 235 0
-14 -236 15 0
-15 14 0
-15 236 0
-16 -237 17 0
-17 16 0
-17 237 0
-19 0
-20 -239 21 0
-21 20 0
-21 239 0
-22 -240 23 0
-23 22 0
-23 240 0
-24 -241 25 0
-25 24 0
-25 241 0
-27 0
-28 -243 29 0
-29 28 0
-29 243 0
-30 -244 31 0
-31 30 0
-31 244 0
-32 -245 33 0
-33 32 0
-33 245 0
-35 0
-36 -247 37 0
-37 36 0
-37 247 0
-38 -248 39 0
-39 38 0
-39 248 0
-40 -249 41 0
-41 40 0
-41 249 0
-43 0
-44 -251 45 0
-45 44 0
-45 251 0
-46 -252 47 0
-47 46 0
-47 252 0
-48 -253 49 0
-49 48 0
-49 253 0
-51 0
-52 -255 53 0
-53 52 0
-53 255 0
-54 -256 55 0
-55 54 0
-55 256 0
-56 -257 57 0
-57 56 0
-57 257 0
-59 0
-11 -13 0
-11 -15 0
-11 -17 0
-11 -19 0
-11 -21 0
-11 -23 0
-11 -25 0
-11 -27 0
-11 -29 0
-11 -31 0
-11 -33 0
-11 -35 0
-11 -37 0
-11 -39 0
-11 -41 0
-11 -43 0
-11 -45 0
-11 -47 0
-11 -49 0
-11 -51 0
-11 -53 0
-11 -55 0
-11 -57 0
-11 -59 0
11 13 15 17 19 21 23 25 27 29 31 33 35 37 39 41 43 45 47 49 51 53 55 57 59 0
-71 -235 72 0
-72 71 0
-72 235 0
-73 -236 74 0
-74 73 0
-74 236 0
-75 -237 76 0
-76 75 0
-76 237 0
-78 0
-79 -239 80 0
-80 79 0
-80 239 0
-81 -240 82 0
-82 81 0
-82 240 0
-83 -241 84 0
-84 83 0
-84 241 0
-86 0
-87 -243 88 0
-88 87 0
-88 243 0
-89 -244 90 0
-90 89 0
-90 244 0
-91 -245 92 0
-92 91 0
-92 245 0
-94 0
-95 -247 96 0
-96 95 0
-96 247 0
-97 -248 98 0
-98 97 0
-98 248 0
-99 -249 100 0
-100 99 0
-100 249 0
-102 0
-103 -251 104 0
-104 103 0
-104 251 0
-105 -252 106 0
-106 105 0
-106 252 0
-107 -253 108 0
-108 107 0
-108 253 0
-110 0
-111 -255 112 0
-112 111 0
-112 255 0
-113 -256 114 0
-114 113 0
-114 256 0
-115 -257 116 0
-116 115 0
-116 257 0
-118 0
-70 -72 0
-70 -74 0
-70 -76 0
-70 -78 0
-70 -80 0
-70 -82 0
-70 -84 0
-70 -86 0
-70 -88 0
-70 -90 0
-70 -92 0
-70 -94 0
-70 -96 0
-70 -98 0
-70 -100 0
-70 -102 0
-70 -104 0
-70 -106 0
-70 -108 0
-70 -110 0
-70 -112 0
-70 -114 0
-70 -116 0
-70 -118 0
70 72 74 76 78 80 82 84 86 88 90 92 94 96 98 100 102 104 106 108 110 112 114 116 118 0
-129 -235 130 0
-130 129 0
-130 235 0
-131 -236 132 0
-132 131 0
-132 236 0
-133 -237 134 0
-134 133 0
-134 237 0
-136 0
-137 -239 138 0
-138 137 0
-138 239 0
-139 -240 140 0
-140 139 0
-140 240 0
-141 -241 142 0
-142 141 0
-142 241 0
-144 0
-145 -243 146 0
-146 145 0
-146 243 0
-147 -244 148 0
-148 147 0
-148 244 0
-149 -245 150 0
-150 149 0
-150 245 0
-152 0
-153 -247 154 0
-154 153 0
-154 247 0
-155 -248 156 0
-156 155 0
-156 248 0
-157 -249 158 0
-158 157 0
-158 249 0
-160 0
-161 -251 162 0
-162 161 0
-162 251 0
-163 -252 164 0
-164 163 0
-164 252 0
-165 -253 166 0
-166 165 0
-166 253 0
-168 0
-169 -255 170 0
-170 169 0
-170 255 0
-171 -256 172 0
-172 171 0
-172 256 0
-173 -257 174 0
-174 173 0
-174 257 0
-176 0
-128 -130 0
-128 -132 0
-128 -134 0
-128 -136 0
-128 -138 0
-128 -140 0
-128 -142 0
-128 -144 0
-128 -146 0
-128 -148 0
-128 -150 0
-128 -152 0
-128 -154 0
-128 -156 0
-128 -158 0
-128 -160 0
-128 -162 0
-128 -164 0
-128 -166 0
-128 -168 0
-128 -170 0
-128 -172 0
-128 -174 0
-128 -176 0
128 130 132 134 136 138 140 142 144 146 148 150 152 154 156 158 160 162 164 166 168 170 172 174 176 0
-186 -235 187 0
-187 186 0
-187 235 0
-188 -236 189 0
-189 188 0
-189 236 0
-190 -237 191 0
-191 190 0
-191 237 0
-193 0
-194 -239 195 0
-195 194 0
-195 239 0
-196 -240 197 0
-197 196 0
-197 240 0
-198 -241 199 0
-199 198 0
-199 241 0
-201 0
-202 -243 203 0
-203 202 0
-203 243 0
-204 -244 205 0
-205 204 0
-205 244 0
-206 -245 207 0
-207 206 0
-207 245 0
-209 0
-210 -247 211 0
-211 210 0
-211 247 0
-212 -248 213 0
-213 212 0
-213 248 0
-214 -249 215 0
-215 214 0
-215 249 0
-217 0
-218 -251 219 0
-219 218 0
-219 251 0
-220 -252 221 0
-221 220 0
-221 252 0
-222 -253 223 0
-223 222 0
-223 253 0
-225 0
-226 -255 227 0
-227 226 0
-227 255 0
-228 -256 229 0
-229 228 0
-229 256 0
-230 -257 231 0
-231 230 0
-231 257 0
-233 0
-185 -187 0
-185 -189 0
-185 -191 0
-185 -193 0
-185 -195 0
-185 -197 0
-185 -199 0
-185 -201 0
-185 -203 0
-185 -205 0
-185 -207 0
-185 -209 0
-185 -211 0
-185 -213 0
-185 -215 0
-185 -217 0
-185 -219 0
-185 -221 0
-185 -223 0
-185 -225 0
-185 -227 0
-185 -229 0
-185 -231 0
-185 -233 0
185 187 189 191 193 195 197 199 201 203 205 207 209 211 213 215 217 219 221 223 225 227 229 231 233 0
258 259 260 261 262 263 0
-258 -259 0
-258 -260 0
-258 -261 0
-258 -262 0
-258 -263 0
-259 -260 0
-259 -261 0
-259 -262 0
-259 -263 0
-260 -261 0
-260 -262 0
-260 -263 0
-261 -262 0
-261 -263 0
-262 -263 0
264 265 266 267 0
-264 -265 0
-264 -266 0
-264 -267 0
-265 -266 0
-265 -267 0
-266 -267 0
317 318 319 320 321 322 0
-317 -318 0
-317 -319 0
-317 -320 0
-317 -321 0
-317 -322 0
-318 -319 0
-318 -320 0
-318 -321 0
-318 -322 0
-319 -320 0
-319 -321 0
-319 -322 0
-320 -321 0
-320 -322 0
-321 -322 0
323 324 325 326 0
-323 -324 0
-323 -325 0
-323 -326 0
-324 -325 0
-324 -326 0
-325 -326 0
376 377 378 379 380 0
-376 -377 0
-376 -378 0
-376 -379 0
-376 -380 0
-377 -378 0
-377 -379 0
-377 -380 0
-378 -379 0
-378 -380 0
-379 -380 0
381 382 383 384 0
-381 -382 0
-381 -383 0
-381 -384 0
-382 -383 0
-382 -384 0
-383 -384 0
434 435 436 437 0
-434 -435 0
-434 -436 0
-434 -437 0
-435 -436 0
-435 -437 0
-436 -437 0
438 439 440 441 0
-438 -439 0
-438 -440 0
-438 -441 0
-439 -440 0
-439 -441 0
-440 -441 0
-258 -264 269 0
-269 264 0
-269 258 0
-258 -265 271 0
-271 265 0
-271 258 0
-258 -266 273 0
-273 266 0
-273 258 0
-258 -267 275 0
-275 267 0
-275 258 0
-259 -264 277 0
-277 264 0
-277 259 0
-259 -265 279 0
-279 265 0
-279 259 0
-259 -266 281 0
-281 266 0
-281 259 0
-259 -267 283 0
-283 267 0
-283 259 0
-260 -264 285 0
-285 264 0
-285 260 0
-260 -265 287 0
-287 265 0
-287 260 0
-260 -266 289 0
-289 266 0
-289 260 0
-260 -267 291 0
-291 267 0
-291 260 0
-261 -264 293 0
-293 264 0
-293 261 0
-261 -265 295 0
-295 265 0
-295 261 0
-261 -266 297 0
-297 266 0
-297 261 0
-261 -267 299 0
-299 267 0
-299 261 0
-262 -264 301 0
-301 264 0
-301 262 0
-262 -265 303 0
-303 265 0
-303 262 0
-262 -266 305 0
-305 266 0
-305 262 0
-262 -267 307 0
-307 267 0
-307 262 0
-263 -264 309 0
-309 264 0
-309 263 0
-263 -265 311 0
-311 265 0
-311 263 0
-263 -266 313 0
-313 266 0
-313 263 0
-263 -267 315 0
-315 267 0
-315 263 0
-317 -323 328 0
-328 323 0
-328 317 0
-317 -324 330 0
-330 324 0
-330 317 0
-317 -325 332 0
-332 325 0
-332 317 0
-317 -326 334 0
-334 326 0
-334 317 0
-318 -323 336 0
-336 323 0
-336 318 0
-318 -324 338 0
-338 324 0
-338 318 0
-318 -325 340 0
-340 325 0
-340 318 0
-318 -326 342 0
-342 326 0
-342 318 0
-319 -323 344 0
-344 323 0
-344 319 0
-319 -324 346 0
-346 324 0
-346 319 0
-319 -325 348 0
-348 325 0
-348 319 0
-319 -326 350 0
-350 326 0
-350 319 0
-320 -323 352 0
-352 323 0
-352 320 0
-320 -324 354 0
-354 324 0
-354 320 0
-320 -325 356 0
-356 325 0
-356 320 0
-320 -326 358 0
-358 326 0
-358 320 0
-321 -323 360 0
-360 323 0
-360 321 0
-321 -324 362 0
-362 324 0
-362 321 0
-321 -325 364 0
-364 325 0
-364 321 0
-321 -326 366 0
-366 326 0
-366 321 0
-322 -323 368 0
-368 323 0
-368 322 0
-322 -324 370 0
-370 324 0
-370 322 0
-322 -325 372 0
-372 325 0
-372 322 0
-322 -326 374 0
-374 326 0
-374 322 0
-376 -381 386 0
-386 381 0
-386 376 0
-376 -382 388 0
-388 382 0
-388 376 0
-376 -383 390 0
-390 383 0
-390 376 0
-376 -384 392 0
-392 384 0
-392 376 0
-376 -381 394 0
-377 -381 394 0
-394 381 0
-394 376 377 0
-376 -382 396 0
-377 -382 396 0
-396 382 0
-396 376 377 0
-376 -383 398 0
-377 -383 398 0
-398 383 0
-398 376 377 0
-376 -384 400 0
-377 -384 400 0
-400 384 0
-400 376 377 0
-377 -381 402 0
-378 -381 402 0
-402 381 0
-402 377 378 0
-377 -382 404 0
-378 -382 404 0
-404 382 0
-404 377 378 0
-377 -383 406 0
-378 -383 406 0
-406 383 0
-406 377 378 0
-377 -384 408 0
-378 -384 408 0
-408 384 0
-408 377 378 0
-378 -381 410 0
-379 -381 410 0
-410 381 0
-410 378 379 0
-378 -382 412 0
-379 -382 412 0
-412 382 0
-412 378 379 0
-378 -383 414 0
-379 -383 414 0
-414 383 0
-414 378 379 0
-378 -384 416 0
-379 -384 416 0
-416 384 0
-416 378 379 0
-379 -381 418 0
-380 -381 418 0
-418 381 0
-418 379 380 0
-379 -382 420 0
-380 -382 420 0
-420 382 0
-420 379 380 0
-379 -383 422 0
-380 -383 422 0
-422 383 0
-422 379 380 0
-379 -384 424 0
-380 -384 424 0
-424 384 0
-424 379 380 0
-380 -381 426 0
-426 381 0
-426 380 0
-380 -382 428 0
-428 382 0
-428 380 0
-380 -383 430 0
-430 383 0
-430 380 0
-380 -384 432 0
-432 384 0
-432 380 0
-434 -438 443 0
-443 438 0
-443 434 0
-434 -439 445 0
-445 439 0
-445 434 0
-434 -440 447 0
-447 440 0
-447 434 0
-434 -441 449 0
-449 441 0
-449 434 0
-434 -438 451 0
-435 -438 451 0
-451 438 0
-451 434 435 0
-434 -439 453 0
-435 -439 453 0
-453 439 0
-453 434 435 0
-434 -440 455 0
-435 -440 455 0
-455 440 0
-455 434 435 0
-434 -441 457 0
-435 -441 457 0
-457 441 0
-457 434 435 0
-434 -438 459 0
-435 -438 459 0
-436 -438 459 0
-459 438 0
-459 434 435 436 0
-434 -439 461 0
-435 -439 461 0
-436 -439 461 0
-461 439 0
-461 434 435 436 0
-434 -440 463 0
-435 -440 463 0
-436 -440 463 0
-463 440 0
-463 434 435 436 0
-434 -441 465 0
-435 -441 465 0
-436 -441 465 0
-465 441 0
-465 434 435 436 0
-435 -438 467 0
-436 -438 467 0
-437 -438 467 0
-467 438 0
-467 435 436 437 0
-435 -439 469 0
-436 -439 469 0
-437 -439 469 0
-469 439 0
-469 435 436 437 0
-435 -440 471 0
-436 -440 471 0
-437 -440 471 0
-471 440 0
-471 435 436 437 0
-435 -441 473 0
-436 -441 473 0
-437 -441 473 0
-473 441 0
-473 435 436 437 0
-436 -438 475 0
-437 -438 475 0
-475 438 0
-475 436 437 0
-436 -439 477 0
-437 -439 477 0
-477 439 0
-477 436 437 0
-436 -440 479 0
-437 -440 479 0
-479 440 0
-479 436 437 0
-436 -441 481 0
-437 -441 481 0
-481 441 0
-481 436 437 0
-437 -438 483 0
-483 438 0
-483 437 0
-437 -439 485 0
-485 439 0
-485 437 0
-437 -440 487 0
-487 440 0
-487 437 0
-437 -441 489 0
-489 441 0
-489 437 0
-269 491 0
-328 491 0
-386 491 0
-443 491 0
-491 269 328 386 443 0
-271 492 0
-330 492 0
-388 492 0
-445 492 0
-492 271 330 388 445 0
-273 493 0
-332 493 0
-390 493 0
-447 493 0
-493 273 332 390 447 0
-275 494 0
-334 494 0
-392 494 0
-449 494 0
-494 275 334 392 449 0
-277 495 0
-336 495 0
-394 495 0
-451 495 0
-495 277 336 394 451 0
-279 496 0
-338 496 0
-396 496 0
-453 496 0
-496 279 338 396 453 0
-281 497 0
-340 497 0
-398 497 0
-455 497 0
-497 281 340 398 455 0
-283 498 0
-342 498 0
-400 498 0
-457 498 0
-498 283 342 400 457 0
-285 499 0
-344 499 0
-402 499 0
-459 499 0
-499 285 344 402 459 0
-287 500 0
-346 500 0
-404 500 0
-461 500 0
-500 287 346 404 461 0
-289 501 0
-348 501 0
-406 501 0
-463 501 0
-501 289 348 406 463 0
-291 502 0
-350 502 0
-408 502 0
-465 502 0
-502 291 350 408 465 0
-293 503 0
-352 503 0
-410 503 0
-467 503 0
-503 293 352 410 467 0
-295 504 0
-354 504 0
-412 504 0
-469 504 0
-504 295 354 412 469 0
-297 505 0
-356 505 0
-414 505 0
-471 505 0
-505 297 356 414 471 0
-299 506 0
-358 506 0
-416 506 0
-473 506 0
-506 299 358 416 473 0
-301 507 0
-360 507 0
-418 507 0
-475 507 0
-507 301 360 418 475 0
-303 508 0
-362 508 0
-420 508 0
-477 508 0
-508 303 362 420 477 0
-305 509 0
-364 509 0
-422 509 0
-479 509 0
-509 305 364 422 479 0
-307 510 0
-366 510 0
-424 510 0
-481 510 0
-510 307 366 424 481 0
-309 511 0
-368 511 0
-426 511 0
-483 511 0
-511 309 368 426 483 0
-311 512 0
-370 512 0
-428 512 0
-485 512 0
-512 311 370 428 485 0
-313 513 0
-372 513 0
-430 513 0
-487 513 0
-513 313 372 430 487 0
-315 514 0
-374 514 0
-432 514 0
-489 514 0
-514 315 374 432 489 0
-269 -328 0
-271 -330 0
-273 -332 0
-275 -334 0
-277 -336 0
-279 -338 0
-281 -340 0
-283 -342 0
-285 -344 0
-287 -346 0
-289 -348 0
-291 -350 0
-293 -352 0
-295 -354 0
-297 -356 0
-299 -358 0
-301 -360 0
-303 -362 0
-305 -364 0
-307 -366 0
-309 -368 0
-311 -370 0
-313 -372 0
-315 -374 0
-269 -386 0
-271 -388 0
-273 -390 0
-275 -392 0
-277 -394 0
-279 -396 0
-281 -398 0
-283 -400 0
-285 -402 0
-287 -404 0
-289 -406 0
-291 -408 0
-293 -410 0
-295 -412 0
-297 -414 0
-299 -416 0
-301 -418 0
-303 -420 0
-305 -422 0
-307 -424 0
-309 -426 0
-311 -428 0
-313 -430 0
-315 -432 0
-269 -443 0
-271 -445 0
-273 -447 0
-275 -449 0
-277 -451 0
-279 -453 0
-281 -455 0
-283 -457 0
-285 -459 0
-287 -461 0
-289 -463 0
-291 -465 0
-293 -467 0
-295 -469 0
-297 -471 0
-299 -473 0
-301 -475 0
-303 -477 0
-305 -479 0
-307 -481 0
-309 -483 0
-311 -485 0
-313 -487 0
-315 -489 0
-328 -386 0
-330 -388 0
-332 -390 0
-334 -392 0
-336 -394 0
-338 -396 0
-340 -398 0
-342 -400 0
-344 -402 0
-346 -404 0
-348 -406 0
-350 -408 0
-352 -410 0
-354 -412 0
-356 -414 0
-358 -416 0
-360 -418 0
-362 -420 0
-364 -422 0
-366 -424 0
-368 -426 0
-370 -428 0
-372 -430 0
-374 -432 0
-328 -443 0
-330 -445 0
-332 -447 0
-334 -449 0
-336 -451 0
-338 -453 0
-340 -455 0
-342 -457 0
-344 -459 0
-346 -461 0
-348 -463 0
-350 -465 0
-352 -467 0
-354 -469 0
-356 -471 0
-358 -473 0
-360 -475 0
-362 -477 0
-364 -479 0
-366 -481 0
-368 -483 0
-370 -485 0
-372 -487 0
-374 -489 0
-386 -443 0
-388 -445 0
-390 -447 0
-392 -449 0
-394 -451 0
-396 -453 0
-398 -455 0
-400 -457 0
-402 -459 0
-404 -461 0
-406 -463 0
-408 -465 0
-410 -467 0
-412 -469 0
-414 -471 0
-416 -473 0
-418 -475 0
-420 -477 0
-422 -479 0
-424 -481 0
-426 -483 0
-428 -485 0
-430 -487 0
-432 -489 0
-258 -265 491 0
-258 -266 492 0
-258 -267 493 0
-259 -265 495 0
-259 -266 496 0
-259 -267 497 0
-260 -265 499 0
-260 -266 500 0
-260 -267 501 0
-261 -265 503 0
-261 -266 504 0
-261 -267 505 0
-262 -265 507 0
-262 -266 508 0
-262 -267 509 0
-263 -265 511 0
-263 -266 512 0
-263 -267 513 0
-317 -324 491 0
-317 -325 492 0
-317 -326 493 0
-318 -324 495 0
-318 -325 496 0
-318 -326 497 0
-319 -324 499 0
-319 -325 500 0
-319 -326 501 0
-320 -324 503 0
-320 -325 504 0
-320 -326 505 0
-321 -324 507 0
-321 -325 508 0
-321 -326 509 0
-322 -324 511 0
-322 -325 512 0
-322 -326 513 0
-376 -382 491 495 0
-376 -383 492 496 0
-376 -384 493 497 0
-377 -382 495 499 0
-377 -383 496 500 0
-377 -384 497 501 0
-378 -382 499 503 0
-378 -383 500 504 0
-378 -384 501 505 0
-379 -382 503 507 0
-379 -383 504 508 0
-379 -384 505 509 0
-380 -382 507 511 0
-380 -383 508 512 0
-380 -384 509 513 0
-434 -439 491 495 0
-434 -439 491 499 0
-434 -439 495 499 0
-434 -440 492 496 0
-434 -440 492 500 0
-434 -440 496 500 0
-434 -441 493 497 0
-434 -441 493 501 0
-434 -441 497 501 0
-435 -439 495 499 0
-435 -439 495 503 0
-435 -439 499 503 0
-435 -440 496 500 0
-435 -440 496 504 0
-435 -440 500 504 0
-435 -441 497 501 0
-435 -441 497 505 0
-435 -441 501 505 0
-436 -439 499 503 0
-436 -439 499 507 0
-436 -439 503 507 0
-436 -440 500 504 0
-436 -440 500 508 0
-436 -440 504 508 0
-436 -441 501 505 0
-436 -441 501 509 0
-436 -441 505 509 0
-437 -439 503 507 0
-437 -439 503 511 0
-437 -439 507 511 0
-437 -440 504 508 0
-437 -440 504 512 0
-437 -440 508 512 0
-437 -441 505 509 0
-437 -441 505 513 0
-437 -441 509 513 0
-269 -492 270 0
-270 269 0
-270 492 0
-271 -493 272 0
-272 271 0
-272 493 0
-273 -494 274 0
-274 273 0
-274 494 0
-276 0
-277 -496 278 0
-278 277 0
-278 496 0
-279 -497 280 0
-280 279 0
-280 497 0
-281 -498 282 0
-282 281 0
-282 498 0
-284 0
-285 -500 286 0
-286 285 0
-286 500 0
-287 -501 288 0
-288 287 0
-288 501 0
-289 -502 290 0
-290 289 0
-290 502 0
-292 0
-293 -504 294 0
-294 293 0
-294 504 0
-295 -505 296 0
-296 295 0
-296 505 0
-297 -506 298 0
-298 297 0
-298 506 0
-300 0
-301 -508 302 0
-302 301 0
-302 508 0
-303 -509 304 0
-304 303 0
-304 509 0
-305 -510 306 0
-306 305 0
-306 510 0
-308 0
-309 -512 310 0
-310 309 0
-310 512 0
-311 -513 312 0
-312 311 0
-312 513 0
-313 -514 314 0
-314 313 0
-314 514 0
-316 0
-268 -270 0
-268 -272 0
-268 -274 0
-268 -276 0
-268 -278 0
-268 -280 0
-268 -282 0
-268 -284 0
-268 -286 0
-268 -288 0
-268 -290 0
-268 -292 0
-268 -294 0
-268 -296 0
-268 -298 0
-268 -300 0
-268 -302 0
-268 -304 0
-268 -306 0
-268 -308 0
-268 -310 0
-268 -312 0
-268 -314 0
-268 -316 0
268 270 272 274 276 278 280 282 284 286 288 290 292 294 296 298 300 302 304 306 308 310 312 314 316 0
-328 -492 329 0
-329 328 0
-329 492 0
-330 -493 331 0
-331 330 0
-331 493 0
-332 -494 333 0
-333 332 0
-333 494 0
-335 0
-336 -496 337 0
-337 336 0
-337 496 0
-338 -497 339 0
-339 338 0
-339 497 0
-340 -498 341 0
-341 340 0
-341 498 0
-343 0
-344 -500 345 0
-345 344 0
-345 500 0
-346 -501 347 0
-347 346 0
-347 501 0
-348 -502 349 0
-349 348 0
-349 502 0
-351 0
-352 -504 353 0
-353 352 0
-353 504 0
-354 -505 355 0
-355 354 0
-355 505 0
-356 -506 357 0
-357 356 0
-357 506 0
-359 0
-360 -508 361 0
-361 360 0
-361 508 0
-362 -509 363 0
-363 362 0
-363 509 0
-364 -510 365 0
-365 364 0
-365 510 0
-367 0
-368 -512 369 0
-369 368 0
-369 512 0
-370 -513 371 0
-371 370 0
-371 513 0
-372 -514 373 0
-373 372 0
-373 514 0
-375 0
-327 -329 0
-327 -331 0
-327 -333 0
-327 -335 0
-327 -337 0
-327 -339 0
-327 -341 0
-327 -343 0
-327 -345 0
-327 -347 0
-327 -349 0
-327 -351 0
-327 -353 0
-327 -355 0
-327 -357 0
-327 -359 0
-327 -361 0
-327 -363 0
-327 -365 0
-327 -367 0
-327 -369 0
-327 -371 0
-327 -373 0
-327 -375 0
327 329 331 333 335 337 339 341 343 345 347 349 351 353 355 357 359 361 363 365 367 369 371 373 375 0
-386 -492 387 0
-387 386 0
-387 492 0
-388 -493 389 0
-389 388 0
-389 493 0
-390 -494 391 0
-391 390 0
-391 494 0
-393 0
-394 -496 395 0
-395 394 0
-395 496 0
-396 -497 397 0
-397 396 0
-397 497 0
-398 -498 399 0
-399 398 0
-399 498 0
-401 0
-402 -500 403 0
-403 402 0
-403 500 0
-404 -501 405 0
-405 404 0
-405 501 0
-406 -502 407 0
-407 406 0
-407 502 0
-409 0
-410 -504 411 0
-411 410 0
-411 504 0
-412 -505 413 0
-413 412 0
-413 505 0
-414 -506 415 0
-415 414 0
-415 506 0
-417 0
-418 -508 419 0
-419 418 0
-419 508 0
-420 -509 421 0
-421 420 0
-421 509 0
-422 -510 423 0
-423 422 0
-423 510 0
-425 0
-426 -512 427 0
-427 426 0
-427 512 0
-428 -513 429 0
-429 428 0
-429 513 0
-430 -514 431 0
-431 430 0
-431 514 0
-433 0
-385 -387 0
-385 -389 0
-385 -391 0
-385 -393 0
-385 -395 0
-385 -397 0
-385 -399 0
-385 -401 0
-385 -403 0
-385 -405 0
-385 -407 0
-385 -409 0
-385 -411 0
-385 -413 0
-385 -415 0
-385 -417 0
-385 -419 0
-385 -421 0
-385 -423 0
-385 -425 0
-385 -427 0
-385 -429 0
-385 -431 0
-385 -433 0
385 387 389 391 393 395 397 399 401 403 405 407 409 411 413 415 417 419 421 423 425 427 429 431 433 0
-443 -492 444 0
-444 443 0
-444 492 0
-445 -493 446 0
-446 445 0
-446 493 0
-447 -494 448 0
-448 447 0
-448 494 0
-450 0
-451 -496 452 0
-452 451 0
-452 496 0
-453 -497 454 0
-454 453 0
-454 497 0
-455 -498 456 0
-456 455 0
-456 498 0
-458 0
-459 -500 460 0
-460 459 0
-460 500 0
-461 -501 462 0
-462 461 0
-462 501 0
-463 -502 464 0
-464 463 0
-464 502 0
-466 0
-467 -504 468 0
-468 467 0
-468 504 0
-469 -505 470 0
-470 469 0
-470 505 0
-471 -506 472 0
-472 471 0
-472 506 0
-474 0
-475 -508 476 0
-476 475 0
-476 508 0
-477 -509 478 0
-478 477 0
-478 509 0
-479 -510 480 0
-480 479 0
-480 510 0
-482 0
-483 -512 484 0
-484 483 0
-484 512 0
-485 -513 486 0
-486 485 0
-486 513 0
-487 -514 488 0
-488 487 0
-488 514 0
-490 0
-442 -444 0
-442 -446 0
-442 -448 0
-442 -450 0
-442 -452 0
-442 -454 0
-442 -456 0
-442 -458 0
-442 -460 0
-442 -462 0
-442 -464 0
-442 -466 0
-442 -468 0
-442 -470 0
-442 -472 0
-442 -474 0
-442 -476 0
-442 -478 0
-442 -480 0
-442 -482 0
-442 -484 0
-442 -486 0
-442 -488 0
-442 -490 0
442 444 446 448 450 452 454 456 458 460 462 464 466 468 470 472 474 476 478 480 482 484 486 488 490 0
515 516 517 518 519 520 0
-515 -516 0
-515 -517 0
-515 -518 0
-515 -519 0
-515 -520 0
-516 -517 0
-516 -518 0
-516 -519 0
-516 -520 0
-517 -518 0
-517 -519 0
-517 -520 0
-518 -519 0
-518 -520 0
-519 -520 0
521 522 523 524 0
-521 -522 0
-521 -523 0
-521 -524 0
-522 -523 0
-522 -524 0
-523 -524 0
574 575 576 577 578 579 0
-574 -575 0
-574 -576 0
-574 -577 0
-574 -578 0
-574 -579 0
-575 -576 0
-575 -577 0
-575 -578 0
-575 -579 0
-576 -577 0
-576 -578 0
-576 -579 0
-577 -578 0
-577 -579 0
-578 -579 0
580 581 582 583 0
-580 -581 0
-580 -582 0
-580 -583 0
-581 -582 0
-581 -583 0
-582 -583 0
633 634 635 636 637 0
-633 -634 0
-633 -635 0
-633 -636 0
-633 -637 0
-634 -635 0
-634 -636 0
-634 -637 0
-635 -636 0
-635 -637 0
-636 -637 0
638 639 640 641 0
-638 -639 0
-638 -640 0
-638 -641 0
-639 -640 0
-639 -641 0
-640 -641 0
691 692 693 694 0
-691 -692 0
-691 -693 0
-691 -694 0
-692 -693 0
-692 -694 0
-693 -694 0
695 696 697 698 0
-695 -696 0
-695 -697 0
-695 -698 0
-696 -697 0
-696 -698 0
-697 -698 0
-515 -521 526 0
-526 521 0
-526 515 0
-515 -522 528 0
-528 522 0
-528 515 0
-515 -523 530 0
-530 523 0
-530 515 0
-515 -524 532 0
-532 524 0
-532 515 0
-516 -521 534 0
-534 521 0
-534 516 0
-516 -522 536 0
-536 522 0
-536 516 0
-516 -523 538 0
-538 523 0
-538 516 0
-516 -524 540 0
-540 524 0
-540 516 0
-517 -521 542 0
-542 521 0
-542 517 0
-517 -522 544 0
-544 522 0
-544 517 0
-517 -523 546 0
-546 523 0
-546 517 0
-517 -524 548 0
-548 524 0
-548 517 0
-518 -521 550 0
-550 521 0
-550 518 0
-518 -522 552 0
-552 522 0
-552 518 0
-518 -523 554 0
-554 523 0
-554 518 0
-518 -524 556 0
-556 524 0
-556 518 0
-519 -521 558 0
-558 521 0
-558 519 0
-519 -522 560 0
-560 522 0
-560 519 0
-519 -523 562 0
-562 523 0
-562 519 0
-519 -524 564 0
-564 524 0
-564 519 0
-520 -521 566 0
-566 521 0
-566 520 0
-520 -522 568 0
-568 522 0
-568 520 0
-520 -523 570 0
-570 523 0
-570 520 0
-520 -524 572 0
-572 524 0
-572 520 0
-574 -580 585 0
-585 580 0
-585 574 0
-574 -581 587 0
-587 581 0
-587 574 0
-574 -582 589 0
-589 582 0
-589 574 0
-574 -583 591 0
-591 583 0
-591 574 0
-575 -580 593 0
-593 580 0
-593 575 0
-575 -581 595 0
-595 581 0
-595 575 0
-575 -582 597 0
-597 582 0
-597 575 0
-575 -583 599 0
-599 583 0
-599 575 0
-576 -580 601 0
-601 580 0
-601 576 0
-576 -581 603 0
-603 581 0
-603 576 0
-576 -582 605 0
-605 582 0
-605 576 0
-576 -583 607 0
-607 583 0
-607 576 0
-577 -580 609 0
-609 580 0
-609 577 0
-577 -581 611 0
-611 581 0
-611 577 0
-577 -582 613 0
-613 582 0
-613 577 0
-577 -583 615 0
-615 583 0
-615 577 0
-578 -580 617 0
-617 580 0
-617 578 0
-578 -581 619 0
-619 581 0
-619 578 0
-578 -582 621 0
-621 582 0
-621 578 0
-578 -583 623 0
-623 583 0
-623 578 0
-579 -580 625 0
-625 580 0
-625 579 0
-579 -581 627 0
-627 581 0
-627 579 0
-579 -582 629 0
-629 582 0
-629 579 0
-579 -583 631 0
-631 583 0
-631 579 0
-633 -638 643 0
-643 638 0
-643 633 0
-633 -639 645 0
-645 639 0
-645 633 0
-633 -640 647 0
-647 640 0
-647 633 0
-633 -641 649 0
-649 641 0
-649 633 0
-633 -638 651 0
-634 -638 651 0
-651 638 0
-651 633 634 0
-633 -639 653 0
-634 -639 653 0
-653 639 0
-653 633 634 0
-633 -640 655 0
-634 -640 655 0
-655 640 0
-655 633 634 0
-633 -641 657 0
-634 -641 657 0
-657 641 0
-657 633 634 0
-634 -638 659 0
-635 -638 659 0
-659 638 0
-659 634 635 0
-634 -639 661 0
-635 -639 661 0
-661 639 0
-661 634 635 0
-634 -640 663 0
-635 -640 663 0
-663 640 0
-663 634 635 0
-634 -641 665 0
-635 -641 665 0
-665 641 0
-665 634 635 0
-635 -638 667 0
-636 -638 667 0
-667 638 0
-667 635 636 0
-635 -639 669 0
-636 -639 669 0
-669 639 0
-669 635 636 0
-635 -640 671 0
-636 -640 671 0
-671 640 0
-671 635 636 0
-635 -641 673 0
-636 -641 673 0
-673 641 0
-673 635 636 0
-636 -638 675 0
-637 -638 675 0
-675 638 0
-675 636 637 0
-636 -639 677 0
-637 -639 677 0
-677 639 0
-677 636 637 0
-636 -640 679 0
-637 -640 679 0
-679 640 0
-679 636 637 0
-636 -641 681 0
-637 -641 681 0
-681 641 0
-681 636 637 0
-637 -638 683 0
-683 638 0
-683 637 0
-637 -639 685 0
-685 639 0
-685 637 0
-637 -640 687 0
-687 640 0
-687 637 0
-637 -641 689 0
-689 641 0
-689 637 0
-691 -695 700 0
-700 695 0
-700 691 0
-691 -696 702 0
-702 696 0
-702 691 0
-691 -697 704 0
-704 697 0
-704 691 0
-691 -698 706 0
-706 698 0
-706 691 0
-691 -695 708 0
-692 -695 708 0
-708 695 0
-708 691 692 0
-691 -696 710 0
-692 -696 710 0
-710 696 0
-710 691 692 0
-691 -697 712 0
-692 -697 712 0
-712 697 0
-712 691 692 0
-691 -698 714 0
-692 -698 714 0
-714 698 0
-714 691 692 0
-691 -695 716 0
-692 -695 716 0
-693 -695 716 0
-716 695 0
-716 691 692 693 0
-691 -696 718 0
-692 -696 718 0
-693 -696 718 0
-718 696 0
-718 691 692 693 0
-691 -697 720 0
-692 -697 720 0
-693 -697 720 0
-720 697 0
-720 691 692 693 0
-691 -698 722 0
-692 -698 722 0
-693 -698 722 0
-722 698 0
-722 691 692 693 0
-692 -695 724 0
-693 -695 724 0
-694 -695 724 0
-724 695 0
-724 692 693 694 0
-692 -696 726 0
-693 -696 726 0
-694 -696 726 0
-726 696 0
-726 692 693 694 0
-692 -697 728 0
-693 -697 728 0
-694 -697 728 0
-728 697 0
-728 692 693 694 0
-692 -698 730 0
-693 -698 730 0
-694 -698 730 0
-730 698 0
-730 692 693 694 0
-693 -695 732 0
-694 -695 732 0
-732 695 0
-732 693 694 0
-693 -696 734 0
-694 -696 734 0
-734 696 0
-734 693 694 0
-693 -697 736 0
-694 -697 736 0
-736 697 0
-736 693 694 0
-693 -698 738 0
-694 -698 738 0
-738 698 0
-738 693 694 0
-694 -695 740 0
-740 695 0
-740 694 0
-694 -696 742 0
-742 696 0
-742 694 0
-694 -697 744 0
-744 697 0
-744 694 0
-694 -698 746 0
-746 698 0
-746 694 0
-526 748 0
-585 748 0
-643 748 0
-700 748 0
-748 526 585 643 700 0
-528 749 0
-587 749 0
-645 749 0
-702 749 0
-749 528 587 645 702 0
-530 750 0
-589 750 0
-647 750 0
-704 750 0
-750 530 589 647 704 0
-532 751 0
-591 751 0
-649 751 0
-706 751 0
-751 532 591 649 706 0
-534 752 0
-593 752 0
-651 752 0
-708 752 0
-752 534 593 651 708 0
-536 753 0
-595 753 0
-653 753 0
-710 753 0
-753 536 595 653 710 0
-538 754 0
-597 754 0
-655 754 0
-712 754 0
-754 538 597 655 712 0
-540 755 0
-599 755 0
-657 755 0
-714 755 0
-755 540 599 657 714 0
-542 756 0
-601 756 0
-659 756 0
-716 756 0
-756 542 601 659 716 0
-544 757 0
-603 757 0
-661 757 0
-718 757 0
-757 544 603 661 718 0
-546 758 0
-605 758 0
-663 758 0
-720 758 0
-758 546 605 663 720 0
-548 759 0
-607 759 0
-665 759 0
-722 759 0
-759 548 607 665 722 0
-550 760 0
-609 760 0
-667 760 0
-724 760 0
-760 550 609 667 724 0
-552 761 0
-611 761 0
-669 761 0
-726 761 0
-761 552 611 669 726 0
-554 762 0
-613 762 0
-671 762 0
-728 762 0
-762 554 613 671 728 0
-556 763 0
-615 763 0
-673 763 0
-730 763 0
-763 556 615 673 730 0
-558 764 0
-617 764 0
-675 764 0
-732 764 0
-764 558 617 675 732 0
-560 765 0
-619 765 0
-677 765 0
-734 765 0
-765 560 619 677 734 0
-562 766 0
-621 766 0
-679 766 0
-736 766 0
-766 562 621 679 736 0
-564 767 0
-623 767 0
-681 767 0
-738 767 0
-767 564 623 681 738 0
-566 768 0
-625 768 0
-683 768 0
-740 768 0
-768 566 625 683 740 0
-568 769 0
-627 769 0
-685 769 0
-742 769 0
-769 568 627 685 742 0
-570 770 0
-629 770 0
-687 770 0
-744 770 0
-770 570 629 687 744 0
-572 771 0
-631 771 0
-689 771 0
-746 771 0
-771 572 631 689 746 0
-526 -585 0
-528 -587 0
-530 -589 0
-532 -591 0
-534 -593 0
-536 -595 0
-538 -597 0
-540 -599 0
-542 -601 0
-544 -603 0
-546 -605 0
-548 -607 0
-550 -609 0
-552 -611 0
-554 -613 0
-556 -615 0
-558 -617 0
-560 -619 0
-562 -621 0
-564 -623 0
-566 -625 0
-568 -627 0
-570 -629 0
-572 -631 0
-526 -643 0
-528 -645 0
-530 -647 0
-532 -649 0
-534 -651 0
-536 -653 0
-538 -655 0
-540 -657 0
-542 -659 0
-544 -661 0
-546 -663 0
-548 -665 0
-550 -667 0
-552 -669 0
-554 -671 0
-556 -673 0
-558 -675 0
-560 -677 0
-562 -679 0
-564 -681 0
-566 -683 0
-568 -685 0
-570 -687 0
-572 -689 0
-526 -700 0
-528 -702 0
-530 -704 0
-532 -706 0
-534 -708 0
-536 -710 0
-538 -712 0
-540 -714 0
-542 -716 0
-544 -718 0
-546 -720 0
-548 -722 0
-550 -724 0
-552 -726 0
-554 -728 0
-556 -730 0
-558 -732 0
-560 -734 0
-562 -736 0
-564 -738 0
-566 -740 0
-568 -742 0
-570 -744 0
-572 -746 0
-585 -643 0
-587 -645 0
-589 -647 0
-591 -649 0
-593 -651 0
-595 -653 0
-597 -655 0
-599 -657 0
-601 -659 0
-603 -661 0
-605 -663 0
-607 -665 0
-609 -667 0
-611 -669 0
-613 -671 0
-615 -673 0
-617 -675 0
-619 -677 0
-621 -679 0
-623 -681 0
-625 -683 0
-627 -685 0
-629 -687 0
-631 -689 0
-585 -700 0
-587 -702 0
-589 -704 0
-591 -706 0
-593 -708 0
-595 -710 0
-597 -712 0
-599 -714 0
-601 -716 0
-603 -718 0
-605 -720 0
-607 -722 0
-609 -724 0
-611 -726 0
-613 -728 0
-615 -730 0
-617 -732 0
-619 -734 0
-621 -736 0
-623 -738 0
-625 -740 0
-627 -742 0
-629 -744 0
-631 -746 0
-643 -700 0
-645 -702 0
-647 -704 0
-649 -706 0
-651 -708 0
-653 -710 0
-655 -712 0
-657 -714 0
-659 -716 0
-661 -718 0
-663 -720 0
-665 -722 0
-667 -724 0
-669 -726 0
-671 -728 0
-673 -730 0
-675 -732 0
-677 -734 0
-679 -736 0
-681 -738 0
-683 -740 0
-685 -742 0
-687 -744 0
-689 -746 0
-515 -522 748 0
-515 -523 749 0
-515 -524 750 0
-516 -522 752 0
-516 -523 753 0
-516 -524 754 0
-517 -522 756 0
-517 -523 757 0
-517 -524 758 0
-518 -522 760 0
-518 -523 761 0
-518 -524 762 0
-519 -522 764 0
-519 -523 765 0
-519 -524 766 0
-520 -522 768 0
-520 -523 769 0
-520 -524 770 0
-574 -581 748 0
-574 -582 749 0
-574 -583 750 0
-575 -581 752 0
-575 -582 753 0
-575 -583 754 0
-576 -581 756 0
-576 -582 757 0
-576 -583 758 0
-577 -581 760 0
-577 -582 761 0
-577 -583 762 0
-578 -581 764 0
-578 -582 765 0
-578 -583 766 0
-579 -581 768 0
-579 -582 769 0
-579 -583 770 0
-633 -639 748 752 0
-633 -640 749 753 0
-633 -641 750 754 0
-634 -639 752 756 0
-634 -640 753 757 0
-634 -641 754 758 0
-635 -639 756 760 0
-635 -640 757 761 0
-635 -641 758 762 0
-636 -639 760 764 0
-636 -640 761 765 0
-636 -641 762 766 0
-637 -639 764 768 0
-637 -640 765 769 0
-637 -641 766 770 0
-691 -696 748 752 0
-691 -696 748 756 0
-691 -696 752 756 0
-691 -697 749 753 0
-691 -697 749 757 0
-691 -697 753 757 0
-691 -698 750 754 0
-691 -698 750 758 0
-691 -698 754 758 0
-692 -696 752 756 0
-692 -696 752 760 0
-692 -696 756 760 0
-692 -697 753 757 0
-692 -697 753 761 0
-692 -697 757 761 0
-692 -698 754 758 0
-692 -698 754 762 0
-692 -698 758 762 0
-693 -696 756 760 0
-693 -696 756 764 0
-693 -696 760 764 0
-693 -697 757 761 0
-693 -697 757 765 0
-693 -697 761 765 0
-693 -698 758 762 0
-693 -698 758 766 0
-693 -698 762 766 0
-694 -696 760 764 0
-694 -696 760 768 0
-694 -696 764 768 0
-694 -697 761 765 0
-694 -697 761 769 0
-694 -697 765 769 0
-694 -698 762 766 0
-694 -698 762 770 0
-694 -698 766 770 0
-526 -749 527 0
-527 526 0
-527 749 0
-528 -750 529 0
-529 528 0
-529 750 0
-530 -751 531 0
-531 530 0
-531 751 0
-533 0
-534 -753 535 0
-535 534 0
-535 753 0
-536 -754 537 0
-537 536 0
-537 754 0
-538 -755 539 0
-539 538 0
-539 755 0
-541 0
-542 -757 543 0
-543 542 0
-543 757 0
-544 -758 545 0
-545 544 0
-545 758 0
-546 -759 547 0
-547 546 0
-547 759 0
-549 0
-550 -761 551 0
-551 550 0
-551 761 0
-552 -762 553 0
-553 552 0
-553 762 0
-554 -763 555 0
-555 554 0
-555 763 0
-557 0
-558 -765 559 0
-559 558 0
-559 765 0
-560 -766 561 0
-561 560 0
-561 766 0
-562 -767 563 0
-563 562 0
-563 767 0
-565 0
-566 -769 567 0
-567 566 0
-567 769 0
-568 -770 569 0
-569 568 0
-569 770 0
-570 -771 571 0
-571 570 0
-571 771 0
-573 0
-525 -527 0
-525 -529 0
-525 -531 0
-525 -533 0
-525 -535 0
-525 -537 0
-525 -539 0
-525 -541 0
-525 -543 0
-525 -545 0
-525 -547 0
-525 -549 0
-525 -551 0
-525 -553 0
-525 -555 0
-525 -557 0
-525 -559 0
-525 -561 0
-525 -563 0
-525 -565 0
-525 -567 0
-525 -569 0
-525 -571 0
-525 -573 0
525 527 529 531 533 535 537 539 541 543 545 547 549 551 553 555 557 559 561 563 565 567 569 571 573 0
-585 -749 586 0
-586 585 0
-586 749 0
-587 -750 588 0
-588 587 0
-588 750 0
-589 -751 590 0
-590 589 0
-590 751 0
-592 0
-593 -753 594 0
-594 593 0
-594 753 0
-595 -754 596 0
-596 595 0
-596 754 0
-597 -755 598 0
-598 597 0
-598 755 0
-600 0
-601 -757 602 0
-602 601 0
-602 757 0
-603 -758 604 0
-604 603 0
-604 758 0
-605 -759 606 0
-606 605 0
-606 759 0
-608 0
-609 -761 610 0
-610 609 0
-610 761 0
-611 -762 612 0
-612 611 0
-612 762 0
-613 -763 614 0
-614 613 0
-614 763 0
-616 0
-617 -765 618 0
-618 617 0
-618 765 0
-619 -766 620 0
-620 619 0
-620 766 0
-621 -767 622 0
-622 621 0
-622 767 0
-624 0
-625 -769 626 0
-626 625 0
-626 769 0
-627 -770 628 0
-628 627 0
-628 770 0
-629 -771 630 0
-630 629 0
-630 771 0
-632 0
-584 -586 0
-584 -588 0
-584 -590 0
-584 -592 0
-584 -594 0
-584 -596 0
-584 -598 0
-584 -600 0
-584 -602 0
-584 -604 0
-584 -606 0
-584 -608 0
-584 -610 0
-584 -612 0
-584 -614 0
-584 -616 0
-584 -618 0
-584 -620 0
-584 -622 0
-584 -624 0
-584 -626 0
-584 -628 0
-584 -630 0
-584 -632 0
584 586 588 590 592 594 596 598 600 602 604 606 608 610 612 614 616 618 620 622 624 626 628 630 632 0
-643 -749 644 0
-644 643 0
-644 749 0
-645 -750 646 0
-646 645 0
-646 750 0
-647 -751 648 0
-648 647 0
-648 751 0
-650 0
-651 -753 652 0
-652 651 0
-652 753 0
-653 -754 654 0
-654 653 0
-654 754 0
-655 -755 656 0
-656 655 0
-656 755 0
-658 0
-659 -757 660 0
-660 659 0
-660 757 0
-661 -758 662 0
-662 661 0
-662 758 0
-663 -759 664 0
-664 663 0
-664 759 0
-666 0
-667 -761 668 0
-668 667 0
-668 761 0
-669 -762 670 0
-670 669 0
-670 762 0
-671 -763 672 0
-672 671 0
-672 763 0
-674 0
-675 -765 676 0
-676 675 0
-676 765 0
-677 -766 678 0
-678 677 0
-678 766 0
-679 -767 680 0
-680 679 0
-680 767 0
-682 0
-683 -769 684 0
-684 683 0
-684 769 0
-685 -770 686 0
-686 685 0
-686 770 0
-687 -771 688 0
-688 687 0
-688 771 0
-690 0
-642 -644 0
-642 -646 0
-642 -648 0
-642 -650 0
-642 -652 0
-642 -654 0
-642 -656 0
-642 -658 0
-642 -660 0
-642 -662 0
-642 -664 0
-642 -666 0
-642 -668 0
-642 -670 0
-642 -672 0
-642 -674 0
-642 -676 0
-642 -678 0
-642 -680 0
-642 -682 0
-642 -684 0
-642 -686 0
-642 -688 0
-642 -690 0
642 644 646 648 650 652 654 656 658 660 662 664 666 668 670 672 674 676 678 680 682 684 686 688 690 0
-700 -749 701 0
-701 700 0
-701 749 0
-702 -750 703 0
-703 702 0
-703 750 0
-704 -751 705 0
-705 704 0
-705 751 0
-707 0
-708 -753 709 0
-709 708 0
-709 753 0
-710 -754 711 0
-711 710 0
-711 754 0
-712 -755 713 0
-713 712 0
-713 755 0
-715 0
-716 -757 717 0
-717 716 0
-717 757 0
-718 -758 719 0
-719 718 0
-719 758 0
-720 -759 721 0
-721 720 0
-721 759 0
-723 0
-724 -761 725 0
-725 724 0
-725 761 0
-726 -762 727 0
-727 726 0
-727 762 0
-728 -763 729 0
-729 728 0
-729 763 0
-731 0
-732 -765 733 0
-733 732 0
-733 765 0
-734 -766 735 0
-735 734 0
-735 766 0
-736 -767 737 0
-737 736 0
-737 767 0
-739 0
-740 -769 741 0
-741 740 0
-741 769 0
-742 -770 743 0
-743 742 0
-743 770 0
-744 -771 745 0
-745 744 0
-745 771 0
-747 0
-699 -701 0
-699 -703 0
-699 -705 0
-699 -707 0
-699 -709 0
-699 -711 0
-699 -713 0
-699 -715 0
-699 -717 0
-699 -719 0
-699 -721 0
-699 -723 0
-699 -725 0
-699 -727 0
-699 -729 0
-699 -731 0
-699 -733 0
-699 -735 0
-699 -737 0
-699 -739 0
-699 -741 0
-699 -743 0
-699 -745 0
-699 -747 0
699 701 703 705 707 709 711 713 715 717 719 721 723 725 727 729 731 733 735 737 739 741 743 745 747 0
772 773 774 775 776 777 0
-772 -773 0
-772 -774 0
-772 -775 0
-772 -776 0
-772 -777 0
-773 -774 0
-773 -775 0
-773 -776 0
-773 -777 0
-774 -775 0
-774 -776 0
-774 -777 0
-775 -776 0
-775 -777 0
-776 -777 0
778 779 780 781 0
-778 -779 0
-778 -780 0
-778 -781 0
-779 -780 0
-779 -781 0
-780 -781 0
831 832 833 834 835 836 0
-831 -832 0
-831 -833 0
-831 -834 0
-831 -835 0
-831 -836 0
-832 -833 0
-832 -834 0
-832 -835 0
-832 -836 0
-833 -834 0
-833 -835 0
-833 -836 0
-834 -835 0
-834 -836 0
-835 -836 0
837 838 839 840 0
-837 -838 0
-837 -839 0
-837 -840 0
-838 -839 0
-838 -840 0
-839 -840 0
890 891 892 893 894 0
-890 -891 0
-890 -892 0
-890 -893 0
-890 -894 0
-891 -892 0
-891 -893 0
-891 -894 0
-892 -893 0
-892 -894 0
-893 -894 0
895 896 897 898 0
-895 -896 0
-895 -897 0
-895 -898 0
-896 -897 0
-896 -898 0
-897 -898 0
948 949 950 951 0
-948 -949 0
-948 -950 0
-948 -951 0
-949 -950 0
-949 -951 0
-950 -951 0
952 953 954 955 0
-952 -953 0
-952 -954 0
-952 -955 0
-953 -954 0
-953 -955 0
-954 -955 0
-772 -778 783 0
-783 778 0
-783 772 0
-772 -779 785 0
-785 779 0
-785 772 0
-772 -780 787 0
-787 780 0
-787 772 0
-772 -781 789 0
-789 781 0
-789 772 0
-773 -778 791 0
-791 778 0
-791 773 0
-773 -779 793 0
-793 779 0
-793 773 0
-773 -780 795 0
-795 780 0
-795 773 0
-773 -781 797 0
-797 781 0
-797 773 0
-774 -778 799 0
-799 778 0
-799 774 0
-774 -779 801 0
-801 779 0
-801 774 0
-774 -780 803 0
-803 780 0
-803 774 0
-774 -781 805 0
-805 781 0
-805 774 0
-775 -778 807 0
-807 778 0
-807 775 0
-775 -779 809 0
-809 779 0
-809 775 0
-775 -780 811 0
-811 780 0
-811 775 0
-775 -781 813 0
-813 781 0
-813 775 0
-776 -778 815 0
-815 778 0
-815 776 0
-776 -779 817 0
-817 779 0
-817 776 0
-776 -780 819 0
-819 780 0
-819 776 0
-776 -781 821 0
-821 781 0
-821 776 0
-777 -778 823 0
-823 778 0
-823 777 0
-777 -779 825 0
-825 779 0
-825 777 0
-777 -780 827 0
-827 780 0
-827 777 0
-777 -781 829 0
-829 781 0
-829 777 0
-831 -837 842 0
-842 837 0
-842 831 0
-831 -838 844 0
-844 838 0
-844 831 0
-831 -839 846 0
-846 839 0
-846 831 0
-831 -840 848 0
-848 840 0
-848 831 0
-832 -837 850 0
-850 837 0
-850 832 0
-832 -838 852 0
-852 838 0
-852 832 0
-832 -839 854 0
-854 839 0
-854 832 0
-832 -840 856 0
-856 840 0
-856 832 0
-833 -837 858 0
-858 837 0
-858 833 0
-833 -838 860 0
-860 838 0
-860 833 0
-833 -839 862 0
-862 839 0
-862 833 0
-833 -840 864 0
-864 840 0
-864 833 0
-834 -837 866 0
-866 837 0
-866 834 0
-834 -838 868 0
-868 838 0
-868 834 0
-834 -839 870 0
-870 839 0
-870 834 0
-834 -840 872 0
-872 840 0
-872 834 0
-835 -837 874 0
-874 837 0
-874 835 0
-835 -838 876 0
-876 838 0
-876 835 0
-835 -839 878 0
-878 839 0
-878 835 0
-835 -840 880 0
-880 840 0
-880 835 0
-836 -837 882 0
-882 837 0
-882 836 0
-836 -838 884 0
-884 838 0
-884 836 0
-836 -839 886 0
-886 839 0
-886 836 0
-836 -840 888 0
-888 840 0
-888 836 0
-890 -895 900 0
-900 895 0
-900 890 0
-890 -896 902 0
-902 896 0
-902 890 0
-890 -897 904 0
-904 897 0
-904 890 0
-890 -898 906 0
-906 898 0
-906 890 0
-890 -895 908 0
-891 -895 908 0
-908 895 0
-908 890 891 0
-890 -896 910 0
-891 -896 910 0
-910 896 0
-910 890 891 0
-890 -897 912 0
-891 -897 912 0
-912 897 0
-912 890 891 0
-890 -898 914 0
-891 -898 914 0
-914 898 0
-914 890 891 0
-891 -895 916 0
-892 -895 916 0
-916 895 0
-916 891 892 0
-891 -896 918 0
-892 -896 918 0
-918 896 0
-918 891 892 0
-891 -897 920 0
-892 -897 920 0
-920 897 0
-920 891 892 0
-891 -898 922 0
-892 -898 922 0
-922 898 0
-922 891 892 0
-892 -895 924 0
-893 -895 924 0
-924 895 0
-924 892 893 0
-892 -896 926 0
-893 -896 926 0
-926 896 0
-926 892 893 0
-892 -897 928 0
-893 -897 928 0
-928 897 0
-928 892 893 0
-892 -898 930 0
-893 -898 930 0
-930 898 0
-930 892 893 0
-893 -895 932 0
-894 -895 932 0
-932 895 0
-932 893 894 0
-893 -896 934 0
-894 -896 934 0
-934 896 0
-934 893 894 0
-893 -897 936 0
-894 -897 936 0
-936 897 0
-936 893 894 0
-893 -898 938 0
-894 -898 938 0
-938 898 0
-938 893 894 0
-894 -895 940 0
-940 895 0
-940 894 0
-894 -896 942 0
-942 896 0
-942 894 0
-894 -897 944 0
-944 897 0
-944 894 0
-894 -898 946 0
-946 898 0
-946 894 0
-948 -952 957 0
-957 952 0
-957 948 0
-948 -953 959 0
-959 953 0
-959 948 0
-948 -954 961 0
-961 954 0
-961 948 0
-948 -955 963 0
-963 955 0
-963 948 0
-948 -952 965 0
-949 -952 965 0
-965 952 0
-965 948 949 0
-948 -953 967 0
-949 -953 967 0
-967 953 0
-967 948 949 0
-948 -954 969 0
-949 -954 969 0
-969 954 0
-969 948 949 0
-948 -955 971 0
-949 -955 971 0
-971 955 0
-971 948 949 0
-948 -952 973 0
-949 -952 973 0
-950 -952 973 0
-973 952 0
-973 948 949 950 0
-948 -953 975 0
-949 -953 975 0
-950 -953 975 0
-975 953 0
-975 948 949 950 0
-948 -954 977 0
-949 -954 977 0
-950 -954 977 0
-977 954 0
-977 948 949 950 0
-948 -955 979 0
-949 -955 979 0
-950 -955 979 0
-979 955 0
-979 948 949 950 0
-949 -952 981 0
-950 -952 981 0
-951 -952 981 0
-981 952 0
-981 949 950 951 0
-949 -953 983 0
-950 -953 983 0
-951 -953 983 0
-983 953 0
-983 949 950 951 0
-949 -954 985 0
-950 -954 985 0
-951 -954 985 0
-985 954 0
-985 949 950 951 0
-949 -955 987 0
-950 -955 987 0
-951 -955 987 0
-987 955 0
-987 949 950 951 0
-950 -952 989 0
-951 -952 989 0
-989 952 0
-989 950 951 0
-950 -953 991 0
-951 -953 991 0
-991 953 0
-991 950 951 0
-950 -954 993 0
-951 -954 993 0
-993 954 0
-993 950 951 0
-950 -955 995 0
-951 -955 995 0
-995 955 0
-995 950 951 0
-951 -952 997 0
-997 952 0
-997 951 0
-951 -953 999 0
-999 953 0
-999 951 0
-951 -954 1001 0
-1001 954 0
-1001 951 0
-951 -955 1003 0
-1003 955 0
-1003 951 0
-783 1005 0
-842 1005 0
-900 1005 0
-957 1005 0
-1005 783 842 900 957 0
-785 1006 0
-844 1006 0
-902 1006 0
-959 1006 0
-1006 785 844 902 959 0
-787 1007 0
-846 1007 0
-904 1007 0
-961 1007 0
-1007 787 846 904 961 0
-789 1008 0
-848 1008 0
-906 1008 0
-963 1008 0
-1008 789 848 906 963 0
-791 1009 0
-850 1009 0
-908 1009 0
-965 1009 0
-1009 791 850 908 965 0
-793 1010 0
-852 1010 0
-910 1010 0
-967 1010 0
-1010 793 852 910 967 0
-795 1011 0
-854 1011 0
-912 1011 0
-969 1011 0
-1011 795 854 912 969 0
-797 1012 0
-856 1012 0
-914 1012 0
-971 1012 0
-1012 797 856 914 971 0
-799 1013 0
-858 1013 0
-916 1013 0
-973 1013 0
-1013 799 858 916 973 0
-801 1014 0
-860 1014 0
-918 1014 0
-975 1014 0
-1014 801 860 918 975 0
-803 1015 0
-862 1015 0
-920 1015 0
-977 1015 0
-1015 803 862 920 977 0
-805 1016 0
-864 1016 0
-922 1016 0
-979 1016 0
-1016 805 864 922 979 0
-807 1017 0
-866 1017 0
-924 1017 0
-981 1017 0
-1017 807 866 924 981 0
-809 1018 0
-868 1018 0
-926 1018 0
-983 1018 0
-1018 809 868 926 983 0
-811 1019 0
-870 1019 0
-928 1019 0
-985 1019 0
-1019 811 870 928 985 0
-813 1020 0
-872 1020 0
-930 1020 0
-987 1020 0
-1020 813 872 930 987 0
-815 1021 0
-874 1021 0
-932 1021 0
-989 1021 0
-1021 815 874 932 989 0
-817 1022 0
-876 1022 0
-934 1022 0
-991 1022 0
-1022 817 876 934 991 0
-819 1023 0
-878 1023 0
-936 1023 0
-993 1023 0
-1023 819 878 936 993 0
-821 1024 0
-880 1024 0
-938 1024 0
-995 1024 0
-1024 821 880 938 995 0
-823 1025 0
-882 1025 0
-940 1025 0
-997 1025 0
-1025 823 882 940 997 0
-825 1026 0
-884 1026 0
-942 1026 0
-999 1026 0
-1026 825 884 942 999 0
-827 1027 0
-886 1027 0
-944 1027 0
-1001 1027 0
-1027 827 886 944 1001 0
-829 1028 0
-888 1028 0
-946 1028 0
-1003 1028 0
-1028 829 888 946 1003 0
-783 -842 0
-785 -844 0
-787 -846 0
-789 -848 0
-791 -850 0
-793 -852 0
-795 -854 0
-797 -856 0
-799 -858 0
-801 -860 0
-803 -862 0
-805 -864 0
-807 -866 0
-809 -868 0
-811 -870 0
-813 -872 0
-815 -874 0
-817 -876 0
-819 -878 0
-821 -880 0
-823 -882 0
-825 -884 0
-827 -886 0
-829 -888 0
-783 -900 0
-785 -902 0
-787 -904 0
-789 -906 0
-791 -908 0
-793 -910 0
-795 -912 0
-797 -914 0
-799 -916 0
-801 -918 0
-803 -920 0
-805 -922 0
-807 -924 0
-809 -926 0
-811 -928 0
-813 -930 0
-815 -932 0
-817 -934 0
-819 -936 0
-821 -938 0
-823 -940 0
-825 -942 0
-827 -944 0
-829 -946 0
-783 -957 0
-785 -959 0
-787 -961 0
-789 -963 0
-791 -965 0
-793 -967 0
-795 -969 0
-797 -971 0
-799 -973 0
-801 -975 0
-803 -977 0
-805 -979 0
-807 -981 0
-809 -983 0
-811 -985 0
-813 -987 0
-815 -989 0
-817 -991 0
-819 -993 0
-821 -995 0
-823 -997 0
-825 -999 0
-827 -1001 0
-829 -1003 0
-842 -900 0
-844 -902 0
-846 -904 0
-848 -906 0
-850 -908 0
-852 -910 0
-854 -912 0
-856 -914 0
-858 -916 0
-860 -918 0
-862 -920 0
-864 -922 0
-866 -924 0
-868 -926 0
-870 -928 0
-872 -930 0
-874 -932 0
-876 -934 0
-878 -936 0
-880 -938 0
-882 -940 0
-884 -942 0
-886 -944 0
-888 -946 0
-842 -957 0
-844 -959 0
-846 -961 0
-848 -963 0
-850 -965 0
-852 -967 0
-854 -969 0
-856 -971 0
-858 -973 0
-860 -975 0
-862 -977 0
-864 -979 0
-866 -981 0
-868 -983 0
-870 -985 0
-872 -987 0
-874 -989 0
-876 -991 0
-878 -993 0
-880 -995 0
-882 -997 0
-884 -999 0
-886 -1001 0
-888 -1003 0
-900 -957 0
-902 -959 0
-904 -961 0
-906 -963 0
-908 -965 0
-910 -967 0
-912 -969 0
-914 -971 0
-916 -973 0
-918 -975 0
-920 -977 0
-922 -979 0
-924 -981 0
-926 -983 0
-928 -985 0
-930 -987 0
-932 -989 0
-934 -991 0
-936 -993 0
-938 -995 0
-940 -997 0
-942 -999 0
-944 -1001 0
-946 -1003 0
-772 -779 1005 0
-772 -780 1006 0
-772 -781 1007 0
-773 -779 1009 0
-773 -780 1010 0
-773 -781 1011 0
-774 -779 1013 0
-774 -780 1014 0
-774 -781 1015 0
-775 -779 1017 0
-775 -780 1018 0
-775 -781 1019 0
-776 -779 1021 0
-776 -780 1022 0
-776 -781 1023 0
-777 -779 1025 0
-777 -780 1026 0
-777 -781 1027 0
-831 -838 1005 0
-831 -839 1006 0
-831 -840 1007 0
-832 -838 1009 0
-832 -839 1010 0
-832 -840 1011 0
-833 -838 1013 0
-833 -839 1014 0
-833 -840 1015 0
-834 -838 1017 0
-834 -839 1018 0
-834 -840 1019 0
-835 -838 1021 0
-835 -839 1022 0
-835 -840 1023 0
-836 -838 1025 0
-836 -839 1026 0
-836 -840 1027 0
-890 -896 1005 1009 0
-890 -897 1006 1010 0
-890 -898 1007 1011 0
-891 -896 1009 1013 0
-891 -897 1010 1014 0
-891 -898 1011 1015 0
-892 -896 1013 1017 0
-892 -897 1014 1018 0
-892 -898 1015 1019 0
-893 -896 1017 1021 0
-893 -897 1018 1022 0
-893 -898 1019 1023 0
-894 -896 1021 1025 0
-894 -897 1022 1026 0
-894 -898 1023 1027 0
-948 -953 1005 1009 0
-948 -953 1005 1013 0
-948 -953 1009 1013 0
-948 -954 1006 1010 0
-948 -954 1006 1014 0
-948 -954 1010 1014 0
-948 -955 1007 1011 0
-948 -955 1007 1015 0
-948 -955 1011 1015 0
-949 -953 1009 1013 0
-949 -953 1009 1017 0
-949 -953 1013 1017 0
-949 -954 1010 1014 0
-949 -954 1010 1018 0
-949 -954 1014 1018 0
-949 -955 1011 1015 0
-949 -955 1011 1019 0
-949 -955 1015 1019 0
-950 -953 1013 1017 0
-950 -953 1013 1021 0
-950 -953 1017 1021 0
-950 -954 1014 1018 0
-950 -954 1014 1022 0
-950 -954 1018 1022 0
-950 -955 1015 1019 0
-950 -955 1015 1023 0
-950 -955 1019 1023 0
-951 -953 1017 1021 0
-951 -953 1017 1025 0
-951 -953 1021 1025 0
-951 -954 1018 1022 0
-951 -954 1018 1026 0
-951 -954 1022 1026 0
-951 -955 1019 1023 0
-951 -955 1019 1027 0
-951 -955 1023 1027 0
-783 -1006 784 0
-784 783 0
-784 1006 0
-785 -1007 786 0
-786 785 0
-786 1007 0
-787 -1008 788 0
-788 787 0
-788 1008 0
-790 0
-791 -1010 792 0
-792 791 0
-792 1010 0
-793 -1011 794 0
-794 793 0
-794 1011 0
-795 -1012 796 0
-796 795 0
-796 1012 0
-798 0
-799 -1014 800 0
-800 799 0
-800 1014 0
-801 -1015 802 0
-802 801 0
-802 1015 0
-803 -1016 804 0
-804 803 0
-804 1016 0
-806 0
-807 -1018 808 0
-808 807 0
-808 1018 0
-809 -1019 810 0
-810 809 0
-810 1019 0
-811 -1020 812 0
-812 811 0
-812 1020 0
-814 0
-815 -1022 816 0
-816 815 0
-816 1022 0
-817 -1023 818 0
-818 817 0
-818 1023 0
-819 -1024 820 0
-820 819 0
-820 1024 0
-822 0
-823 -1026 824 0
-824 823 0
-824 1026 0
-825 -1027 826 0
-826 825 0
-826 1027 0
-827 -1028 828 0
-828 827 0
-828 1028 0
-830 0
-782 -784 0
-782 -786 0
-782 -788 0
-782 -790 0
-782 -792 0
-782 -794 0
-782 -796 0
-782 -798 0
-782 -800 0
-782 -802 0
-782 -804 0
-782 -806 0
-782 -808 0
-782 -810 0
-782 -812 0
-782 -814 0
-782 -816 0
-782 -818 0
-782 -820 0
-782 -822 0
-782 -824 0
-782 -826 0
-782 -828 0
-782 -830 0
782 784 786 788 790 792 794 796 798 800 802 804 806 808 810 812 814 816 818 820 822 824 826 828 830 0
-842 -1006 843 0
-843 842 0
-843 1006 0
-844 -1007 845 0
-845 844 0
-845 1007 0
-846 -1008 847 0
-847 846 0
-847 1008 0
-849 0
-850 -1010 851 0
-851 850 0
-851 1010 0
-852 -1011 853 0
-853 852 0
-853 1011 0
-854 -1012 855 0
-855 854 0
-855 1012 0
-857 0
-858 -1014 859 0
-859 858 0
-859 1014 0
-860 -1015 861 0
-861 860 0
-861 1015 0
-862 -1016 863 0
-863 862 0
-863 1016 0
-865 0
-866 -1018 867 0
-867 866 0
-867 1018 0
-868 -1019 869 0
-869 868 0
-869 1019 0
-870 -1020 871 0
-871 870 0
-871 1020 0
-873 0
-874 -1022 875 0
-875 874 0
-875 1022 0
-876 -1023 877 0
-877 876 0
-877 1023 0
-878 -1024 879 0
-879 878 0
-879 1024 0
-881 0
-882 -1026 883 0
-883 882 0
-883 1026 0
-884 -1027 885 0
-885 884 0
-885 1027 0
-886 -1028 887 0
-887 886 0
-887 1028 0
-889 0
-841 -843 0
-841 -845 0
-841 -847 0
-841 -849 0
-841 -851 0
-841 -853 0
-841 -855 0
-841 -857 0
-841 -859 0
-841 -861 0
-841 -863 0
-841 -865 0
-841 -867 0
-841 -869 0
-841 -871 0
-841 -873 0
-841 -875 0
-841 -877 0
-841 -879 0
-841 -881 0
-841 -883 0
-841 -885 0
-841 -887 0
-841 -889 0
841 843 845 847 849 851 853 855 857 859 861 863 865 867 869 871 873 875 877 879 881 883 885 887 889 0
-900 -1006 901 0
-901 900 0
-901 1006 0
-902 -1007 903 0
-903 902 0
-903 1007 0
-904 -1008 905 0
-905 904 0
-905 1008 0
-907 0
-908 -1010 909 0
-909 908 0
-909 1010 0
-910 -1011 911 0
-911 910 0
-911 1011 0
-912 -1012 913 0
-913 912 0
-913 1012 0
-915 0
-916 -1014 917 0
-917 916 0
-917 1014 0
-918 -1015 919 0
-919 918 0
-919 1015 0
-920 -1016 921 0
-921 920 0
-921 1016 0
-923 0
-924 -1018 925 0
-925 924 0
-925 1018 0
-926 -1019 927 0
-927 926 0
-927 1019 0
-928 -1020 929 0
-929 928 0
-929 1020 0
-931 0
-932 -1022 933 0
-933 932 0
-933 1022 0
-934 -1023 935 0
-935 934 0
-935 1023 0
-936 -1024 937 0
-937 936 0
-937 1024 0
-939 0
-940 -1026 941 0
-941 940 0
-941 1026 0
-942 -1027 943 0
-943 942 0
-943 1027 0
-944 -1028 945 0
-945 944 0
-945 1028 0
-947 0
-899 -901 0
-899 -903 0
-899 -905 0
-899 -907 0
-899 -909 0
-899 -911 0
-899 -913 0
-899 -915 0
-899 -917 0
-899 -919 0
-899 -921 0
-899 -923 0
-899 -925 0
-899 -927 0
-899 -929 0
-899 -931 0
-899 -933 0
-899 -935 0
-899 -937 0
-899 -939 0
-899 -941 0
-899 -943 0
-899 -945 0
-899 -947 0
899 901 903 905 907 909 911 913 915 917 919 921 923 925 927 929 931 933 935 937 939 941 943 945 947 0
-957 -1006 958 0
-958 957 0
-958 1006 0
-959 -1007 960 0
-960 959 0
-960 1007 0
-961 -1008 962 0
-962 961 0
-962 1008 0
-964 0
-965 -1010 966 0
-966 965 0
-966 1010 0
-967 -1011 968 0
-968 967 0
-968 1011 0
-969 -1012 970 0
-970 969 0
-970 1012 0
-972 0
-973 -1014 974 0
-974 973 0
-974 1014 0
-975 -1015 976 0
-976 975 0
-976 1015 0
-977 -1016 978 0
-978 977 0
-978 1016 0
-980 0
-981 -1018 982 0
-982 981 0
-982 1018 0
-983 -1019 984 0
-984 983 0
-984 1019 0
-985 -1020 986 0
-986 985 0
-986 1020 0
-988 0
-989 -1022 990 0
-990 989 0
-990 1022 0
-991 -1023 992 0
-992 991 0
-992 1023 0
-993 -1024 994 0
-994 993 0
-994 1024 0
-996 0
-997 -1026 998 0
-998 997 0
-998 1026 0
-999 -1027 1000 0
-1000 999 0
-1000 1027 0
-1001 -1028 1002 0
-1002 1001 0
-1002 1028 0
-1004 0
-956 -958 0
-956 -960 0
-956 -962 0
-956 -964 0
-956 -966 0
-956 -968 0
-956 -970 0
-956 -972 0
-956 -974 0
-956 -976 0
-956 -978 0
-956 -980 0
-956 -982 0
-956 -984 0
-956 -986 0
-956 -988 0
-956 -990 0
-956 -992 0
-956 -994 0
-956 -996 0
-956 -998 0
-956 -1000 0
-956 -1002 0
-956 -1004 0
956 958 960 962 964 966 968 970 972 974 976 978 980 982 984 986 988 990 992 994 996 998 1000 1002 1004 0
1029 1030 1031 1032 1033 1034 0
-1029 -1030 0
-1029 -1031 0
-1029 -1032 0
-1029 -1033 0
-1029 -1034 0
-1030 -1031 0
-1030 -1032 0
-1030 -1033 0
-1030 -1034 0
-1031 -1032 0
-1031 -1033 0
-1031 -1034 0
-1032 -1033 0
-1032 -1034 0
-1033 -1034 0
1035 1036 1037 1038 0
-1035 -1036 0
-1035 -1037 0
-1035 -1038 0
-1036 -1037 0
-1036 -1038 0
-1037 -1038 0
1088 1089 1090 1091 1092 1093 0
-1088 -1089 0
-1088 -1090 0
-1088 -1091 0
-1088 -1092 0
-1088 -1093 0
-1089 -1090 0
-1089 -1091 0
-1089 -1092 0
-1089 -1093 0
-1090 -1091 0
-1090 -1092 0
-1090 -1093 0
-1091 -1092 0
-1091 -1093 0
-1092 -1093 0
1094 1095 1096 1097 0
-1094 -1095 0
-1094 -1096 0
-1094 -1097 0
-1095 -1096 0
-1095 -1097 0
-1096 -1097 0
1147 1148 1149 1150 1151 0
-1147 -1148 0
-1147 -1149 0
-1147 -1150 0
-1147 -1151 0
-1148 -1149 0
-1148 -1150 0
-1148 -1151 0
-1149 -1150 0
-1149 -1151 0
-1150 -1151 0
1152 1153 1154 1155 0
-1152 -1153 0
-1152 -1154 0
-1152 -1155 0
-1153 -1154 0
-1153 -1155 0
-1154 -1155 0
1205 1206 1207 1208 0
-1205 -1206 0
-1205 -1207 0
-1205 -1208 0
-1206 -1207 0
-1206 -1208 0
-1207 -1208 0
1209 1210 1211 1212 0
-1209 -1210 0
-1209 -1211 0
-1209 -1212 0
-1210 -1211 0
-1210 -1212 0
-1211 -1212 0
-1029 -1035 1040 0
-1040 1035 0
-1040 1029 0
-1029 -1036 1042 0
-1042 1036 0
-1042 1029 0
-1029 -1037 1044 0
-1044 1037 0
-1044 1029 0
-1029 -1038 1046 0
-1046 1038 0
-1046 1029 0
-1030 -1035 1048 0
-1048 1035 0
-1048 1030 0
-1030 -1036 1050 0
-1050 1036 0
-1050 1030 0
-1030 -1037 1052 0
-1052 1037 0
-1052 1030 0
-1030 -1038 1054 0
-1054 1038 0
-1054 1030 0
-1031 -1035 1056 0
-1056 1035 0
-1056 1031 0
-1031 -1036 1058 0
-1058 1036 0
-1058 1031 0
-1031 -1037 1060 0
-1060 1037 0
-1060 1031 0
-1031 -1038 1062 0
-1062 1038 0
-1062 1031 0
-1032 -1035 1064 0
-1064 1035 0
-1064 1032 0
-1032 -1036 1066 0
-1066 1036 0
-1066 1032 0
-1032 -1037 1068 0
-1068 1037 0
-1068 1032 0
-1032 -1038 1070 0
-1070 1038 0
-1070 1032 0
-1033 -1035 1072 0
-1072 1035 0
-1072 1033 0
-1033 -1036 1074 0
-1074 1036 0
-1074 1033 0
-1033 -1037 1076 0
-1076 1037 0
-1076 1033 0
-1033 -1038 1078 0
-1078 1038 0
-1078 1033 0
-1034 -1035 1080 0
-1080 1035 0
-1080 1034 0
-1034 -1036 1082 0
-1082 1036 0
-1082 1034 0
-1034 -1037 1084 0
-1084 1037 0
-1084 1034 0
-1034 -1038 1086 0
-1086 1038 0
-1086 1034 0
-1088 -1094 1099 0
-1099 1094 0
-1099 1088 0
-1088 -1095 1101 0
-1101 1095 0
-1101 1088 0
-1088 -1096 1103 0
-1103 1096 0
-1103 1088 0
-1088 -1097 1105 0
-1105 1097 0
-1105 1088 0
-1089 -1094 1107 0
-1107 1094 0
-1107 1089 0
-1089 -1095 1109 0
-1109 1095 0
-1109 1089 0
-1089 -1096 1111 0
-1111 1096 0
-1111 1089 0
-1089 -1097 1113 0
-1113 1097 0
-1113 1089 0
-1090 -1094 1115 0
-1115 1094 0
-1115 1090 0
-1090 -1095 1117 0
-1117 1095 0
-1117 1090 0
-1090 -1096 1119 0
-1119 1096 0
-1119 1090 0
-1090 -1097 1121 0
-1121 1097 0
-1121 1090 0
-1091 -1094 1123 0
-1123 1094 0
-1123 1091 0
-1091 -1095 1125 0
-1125 1095 0
-1125 1091 0
-1091 -1096 1127 0
-1127 1096 0
-1127 1091 0
-1091 -1097 1129 0
-1129 1097 0
-1129 1091 0
-1092 -1094 1131 0
-1131 1094 0
-1131 1092 0
-1092 -1095 1133 0
-1133 1095 0
-1133 1092 0
-1092 -1096 1135 0
-1135 1096 0
-1135 1092 0
-1092 -1097 1137 0
-1137 1097 0
-1137 1092 0
-1093 -1094 1139 0
-1139 1094 0
-1139 1093 0
-1093 -1095 1141 0
-1141 1095 0
-1141 1093 0
-1093 -1096 1143 0
-1143 1096 0
-1143 1093 0
-1093 -1097 1145 0
-1145 1097 0
-1145 1093 0
-1147 -1152 1157 0
-1157 1152 0
-1157 1147 0
-1147 -1153 1159 0
-1159 1153 0
-1159 1147 0
-1147 -1154 1161 0
-1161 1154 0
-1161 1147 0
-1147 -1155 1163 0
-1163 1155 0
-1163 1147 0
-1147 -1152 1165 0
-1148 -1152 1165 0
-1165 1152 0
-1165 1147 1148 0
-1147 -1153 1167 0
-1148 -1153 1167 0
-1167 1153 0
-1167 1147 1148 0
-1147 -1154 1169 0
-1148 -1154 1169 0
-1169 1154 0
-1169 1147 1148 0
-1147 -1155 1171 0
-1148 -1155 1171 0
-1171 1155 0
-1171 1147 1148 0
-1148 -1152 1173 0
-1149 -1152 1173 0
-1173 1152 0
-1173 1148 1149 0
-1148 -1153 1175 0
-1149 -1153 1175 0
-1175 1153 0
-1175 1148 1149 0
-1148 -1154 1177 0
-1149 -1154 1177 0
-1177 1154 0
-1177 1148 1149 0
-1148 -1155 1179 0
-1149 -1155 1179 0
-1179 1155 0
-1179 1148 1149 0
-1149 -1152 1181 0
-1150 -1152 1181 0
-1181 1152 0
-1181 1149 1150 0
-1149 -1153 1183 0
-1150 -1153 1183 0
-1183 1153 0
-1183 1149 1150 0
-1149 -1154 1185 0
-1150 -1154 1185 0
-1185 1154 0
-1185 1149 1150 0
-1149 -1155 1187 0
-1150 -1155 1187 0
-1187 1155 0
-1187 1149 1150 0
-1150 -1152 1189 0
-1151 -1152 1189 0
-1189 1152 0
-1189 1150 1151 0
-1150 -1153 1191 0
-1151 -1153 1191 0
-1191 1153 0
-1191 1150 1151 0
-1150 -1154 1193 0
-1151 -1154 1193 0
-1193 1154 0
-1193 1150 1151 0
-1150 -1155 1195 0
-1151 -1155 1195 0
-1195 1155 0
-1195 1150 1151 0
-1151 -1152 1197 0
-1197 1152 0
-1197 1151 0
-1151 -1153 1199 0
-1199 1153 0
-1199 1151 0
-1151 -1154 1201 0
-1201 1154 0
-1201 1151 0
-1151 -1155 1203 0
-1203 1155 0
-1203 1151 0
-1205 -1209 1214 0
-1214 1209 0
-1214 1205 0
-1205 -1210 1216 0
-1216 1210 0
-1216 1205 0
-1205 -1211 1218 0
-1218 1211 0
-1218 1205 0
-1205 -1212 1220 0
-1220 1212 0
-1220 1205 0
-1205 -1209 1222 0
-1206 -1209 1222 0
-1222 1209 0
-1222 1205 1206 0
-1205 -1210 1224 0
-1206 -1210 1224 0
-1224 1210 0
-1224 1205 1206 0
-1205 -1211 1226 0
-1206 -1211 1226 0
-1226 1211 0
-1226 1205 1206 0
-1205 -1212 1228 0
-1206 -1212 1228 0
-1228 1212 0
-1228 1205 1206 0
-1205 -1209 1230 0
-1206 -1209 1230 0
-1207 -1209 1230 0
-1230 1209 0
-1230 1205 1206 1207 0
-1205 -1210 1232 0
-1206 -1210 1232 0
-1207 -1210 1232 0
-1232 1210 0
-1232 1205 1206 1207 0
-1205 -1211 1234 0
-1206 -1211 1234 0
-1207 -1211 1234 0
-1234 1211 0
-1234 1205 1206 1207 0
-1205 -1212 1236 0
-1206 -1212 1236 0
-1207 -1212 1236 0
-1236 1212 0
-1236 1205 1206 1207 0
-1206 -1209 1238 0
-1207 -1209 1238 0
-1208 -1209 1238 0
-1238 1209 0
-1238 1206 1207 1208 0
-1206 -1210 1240 0
-1207 -1210 1240 0
-1208 -1210 1240 0
-1240 1210 0
-1240 1206 1207 1208 0
-1206 -1211 1242 0
-1207 -1211 1242 0
-1208 -1211 1242 0
-1242 1211 0
-1242 1206 1207 1208 0
-1206 -1212 1244 0
-1207 -1212 1244 0
-1208 -1212 1244 0
-1244 1212 0
-1244 1206 1207 1208 0
-1207 -1209 1246 0
-1208 -1209 1246 0
-1246 1209 0
-1246 1207 1208 0
-1207 -1210 1248 0
-1208 -1210 1248 0
-1248 1210 0
-1248 1207 1208 0
-1207 -1211 1250 0
-1208 -1211 1250 0
-1250 1211 0
-1250 1207 1208 0
-1207 -1212 1252 0
-1208 -1212 1252 0
-1252 1212 0
-1252 1207 1208 0
-1208 -1209 1254 0
-1254 1209 0
-1254 1208 0
-1208 -1210 1256 0
-1256 1210 0
-1256 1208 0
-1208 -1211 1258 0
-1258 1211 0
-1258 1208 0
-1208 -1212 1260 0
-1260 1212 0
-1260 1208 0
-1040 1262 0
-1099 1262 0
-1157 1262 0
-1214 1262 0
-1262 1040 1099 1157 1214 0
-1042 1263 0
-1101 1263 0
-1159 1263 0
-1216 1263 0
-1263 1042 1101 1159 1216 0
-1044 1264 0
-1103 1264 0
-1161 1264 0
-1218 1264 0
-1264 1044 1103 1161 1218 0
-1046 1265 0
-1105 1265 0
-1163 1265 0
-1220 1265 0
-1265 1046 1105 1163 1220 0
-1048 1266 0
-1107 1266 0
-1165 1266 0
-1222 1266 0
-1266 1048 1107 1165 1222 0
-1050 1267 0
-1109 1267 0
-1167 1267 0
-1224 1267 0
-1267 1050 1109 1167 1224 0
-1052 1268 0
-1111 1268 0
-1169 1268 0
-1226 1268 0
-1268 1052 1111 1169 1226 0
-1054 1269 0
-1113 1269 0
-1171 1269 0
-1228 1269 0
-1269 1054 1113 1171 1228 0
-1056 1270 0
-1115 1270 0
-1173 1270 0
-1230 1270 0
-1270 1056 1115 1173 1230 0
-1058 1271 0
-1117 1271 0
-1175 1271 0
-1232 1271 0
-1271 1058 1117 1175 1232 0
-1060 1272 0
-1119 1272 0
-1177 1272 0
-1234 1272 0
-1272 1060 1119 1177 1234 0
-1062 1273 0
-1121 1273 0
-1179 1273 0
-1236 1273 0
-1273 1062 1121 1179 1236 0
-1064 1274 0
-1123 1274 0
-1181 1274 0
-1238 1274 0
-1274 1064 1123 1181 1238 0
-1066 1275 0
-1125 1275 0
-1183 1275 0
-1240 1275 0
-1275 1066 1125 1183 1240 0
-1068 1276 0
-1127 1276 0
-1185 1276 0
-1242 1276 0
-1276 1068 1127 1185 1242 0
-1070 1277 0
-1129 1277 0
-1187 1277 0
-1244 1277 0
-1277 1070 1129 1187 1244 0
-1072 1278 0
-1131 1278 0
-1189 1278 0
-1246 1278 0
-1278 1072 1131 1189 1246 0
-1074 1279 0
-1133 1279 0
-1191 1279 0
-1248 1279 0
-1279 1074 1133 1191 1248 0
-1076 1280 0
-1135 1280 0
-1193 1280 0
-1250 1280 0
-1280 1076 1135 1193 1250 0
-1078 1281 0
-1137 1281 0
-1195 1281 0
-1252 1281 0
-1281 1078 1137 1195 1252 0
-1080 1282 0
-1139 1282 0
-1197 1282 0
-1254 1282 0
-1282 1080 1139 1197 1254 0
-1082 1283 0
-1141 1283 0
-1199 1283 0
-1256 1283 0
-1283 1082 1141 1199 1256 0
-1084 1284 0
-1143 1284 0
-1201 1284 0
-1258 1284 0
-1284 1084 1143 1201 1258 0
-1086 1285 0
-1145 1285 0
-1203 1285 0
-1260 1285 0
-1285 1086 1145 1203 1260 0
-1040 -1099 0
-1042 -1101 0
-1044 -1103 0
-1046 -1105 0
-1048 -1107 0
-1050 -1109 0
-1052 -1111 0
-1054 -1113 0
-1056 -1115 0
-1058 -1117 0
-1060 -1119 0
-1062 -1121 0
-1064 -1123 0
-1066 -1125 0
-1068 -1127 0
-1070 -1129 0
-1072 -1131 0
-1074 -1133 0
-1076 -1135 0
-1078 -1137 0
-1080 -1139 0
-1082 -1141 0
-1084 -1143 0
-1086 -1145 0
-1040 -1157 0
-1042 -1159 0
-1044 -1161 0
-1046 -1163 0
-1048 -1165 0
-1050 -1167 0
-1052 -1169 0
-1054 -1171 0
-1056 -1173 0
-1058 -1175 0
-1060 -1177 0
-1062 -1179 0
-1064 -1181 0
-1066 -1183 0
-1068 -1185 0
-1070 -1187 0
-1072 -1189 0
-1074 -1191 0
-1076 -1193 0
-1078 -1195 0
-1080 -1197 0
-1082 -1199 0
-1084 -1201 0
-1086 -1203 0
-1040 -1214 0
-1042 -1216 0
-1044 -1218 0
-1046 -1220 0
-1048 -1222 0
-1050 -1224 0
-1052 -1226 0
-1054 -1228 0
-1056 -1230 0
-1058 -1232 0
-1060 -1234 0
-1062 -1236 0
-1064 -1238 0
-1066 -1240 0
-1068 -1242 0
-1070 -1244 0
-1072 -1246 0
-1074 -1248 0
-1076 -1250 0
-1078 -1252 0
-1080 -1254 0
-1082 -1256 0
-1084 -1258 0
-1086 -1260 0
-1099 -1157 0
-1101 -1159 0
-1103 -1161 0
-1105 -1163 0
-1107 -1165 0
-1109 -1167 0
-1111 -1169 0
-1113 -1171 0
-1115 -1173 0
-1117 -1175 0
-1119 -1177 0
-1121 -1179 0
-1123 -1181 0
-1125 -1183 0
-1127 -1185 0
-1129 -1187 0
-1131 -1189 0
-1133 -1191 0
-1135 -1193 0
-1137 -1195 0
-1139 -1197 0
-1141 -1199 0
-1143 -1201 0
-1145 -1203 0
-1099 -1214 0
-1101 -1216 0
-1103 -1218 0
-1105 -1220 0
-1107 -1222 0
-1109 -1224 0
-1111 -1226 0
-1113 -1228 0
-1115 -1230 0
-1117 -1232 0
-1119 -1234 0
-1121 -1236 0
-1123 -1238 0
-1125 -1240 0
-1127 -1242 0
-1129 -1244 0
-1131 -1246 0
-1133 -1248 0
-1135 -1250 0
-1137 -1252 0
-1139 -1254 0
-1141 -1256 0
-1143 -1258 0
-1145 -1260 0
-1157 -1214 0
-1159 -1216 0
-1161 -1218 0
-1163 -1220 0
-1165 -1222 0
-1167 -1224 0
-1169 -1226 0
-1171 -1228 0
-1173 -1230 0
-1175 -1232 0
-1177 -1234 0
-1179 -1236 0
-1181 -1238 0
-1183 -1240 0
-1185 -1242 0
-1187 -1244 0
-1189 -1246 0
-1191 -1248 0
-1193 -1250 0
-1195 -1252 0
-1197 -1254 0
-1199 -1256 0
-1201 -1258 0
-1203 -1260 0
-1029 -1036 1262 0
-1029 -1037 1263 0
-1029 -1038 1264 0
-1030 -1036 1266 0
-1030 -1037 1267 0
-1030 -1038 1268 0
-1031 -1036 1270 0
-1031 -1037 1271 0
-1031 -1038 1272 0
-1032 -1036 1274 0
-1032 -1037 1275 0
-1032 -1038 1276 0
-1033 -1036 1278 0
-1033 -1037 1279 0
-1033 -1038 1280 0
-1034 -1036 1282 0
-1034 -1037 1283 0
-1034 -1038 1284 0
-1088 -1095 1262 0
-1088 -1096 1263 0
-1088 -1097 1264 0
-1089 -1095 1266 0
-1089 -1096 1267 0
-1089 -1097 1268 0
-1090 -1095 1270 0
-1090 -1096 1271 0
-1090 -1097 1272 0
-1091 -1095 1274 0
-1091 -1096 1275 0
-1091 -1097 1276 0
-1092 -1095 1278 0
-1092 -1096 1279 0
-1092 -1097 1280 0
-1093 -1095 1282 0
-1093 -1096 1283 0
-1093 -1097 1284 0
-1147 -1153 1262 1266 0
-1147 -1154 1263 1267 0
-1147 -1155 1264 1268 0
-1148 -1153 1266 1270 0
-1148 -1154 1267 1271 0
-1148 -1155 1268 1272 0
-1149 -1153 1270 1274 0
-1149 -1154 1271 1275 0
-1149 -1155 1272 1276 0
-1150 -1153 1274 1278 0
-1150 -1154 1275 1279 0
-1150 -1155 1276 1280 0
-1151 -1153 1278 1282 0
-1151 -1154 1279 1283 0
-1151 -1155 1280 1284 0
-1205 -1210 1262 1266 0
-1205 -1210 1262 1270 0
-1205 -1210 1266 1270 0
-1205 -1211 1263 1267 0
-1205 -1211 1263 1271 0
-1205 -1211 1267 1271 0
-1205 -1212 1264 1268 0
-1205 -1212 1264 1272 0
-1205 -1212 1268 1272 0
-1206 -1210 1266 1270 0
-1206 -1210 1266 1274 0
-1206 -1210 1270 1274 0
-1206 -1211 1267 1271 0
-1206 -1211 1267 1275 0
-1206 -1211 1271 1275 0
-1206 -1212 1268 1272 0
-1206 -1212 1268 1276 0
-1206 -1212 1272 1276 0
-1207 -1210 1270 1274 0
-1207 -1210 1270 1278 0
-1207 -1210 1274 1278 0
-1207 -1211 1271 1275 0
-1207 -1211 1271 1279 0
-1207 -1211 1275 1279 0
-1207 -1212 1272 1276 0
-1207 -1212 1272 1280 0
-1207 -1212 1276 1280 0
-1208 -1210 1274 1278 0
-1208 -1210 1274 1282 0
-1208 -1210 1278 1282 0
-1208 -1211 1275 1279 0
-1208 -1211 1275 1283 0
-1208 -1211 1279 1283 0
-1208 -1212 1276 1280 0
-1208 -1212 1276 1284 0
-1208 -1212 1280 1284 0
-1040 -1263 1041 0
-1041 1040 0
-1041 1263 0
-1042 -1264 1043 0
-1043 1042 0
-1043 1264 0
-1044 -1265 1045 0
-1045 1044 0
-1045 1265 0
-1047 0
-1048 -1267 1049 0
-1049 1048 0
-1049 1267 0
-1050 -1268 1051 0
-1051 1050 0
-1051 1268 0
-1052 -1269 1053 0
-1053 1052 0
-1053 1269 0
-1055 0
-1056 -1271 1057 0
-1057 1056 0
-1057 1271 0
-1058 -1272 1059 0
-1059 1058 0
-1059 1272 0
-1060 -1273 1061 0
-1061 1060 0
-1061 1273 0
-1063 0
-1064 -1275 1065 0
-1065 1064 0
-1065 1275 0
-1066 -1276 1067 0
-1067 1066 0
-1067 1276 0
-1068 -1277 1069 0
-1069 1068 0
-1069 1277 0
-1071 0
-1072 -1279 1073 0
-1073 1072 0
-1073 1279 0
-1074 -1280 1075 0
-1075 1074 0
-1075 1280 0
-1076 -1281 1077 0
-1077 1076 0
-1077 1281 0
-1079 0
-1080 -1283 1081 0
-1081 1080 0
-1081 1283 0
-1082 -1284 1083 0
-1083 1082 0
-1083 1284 0
-1084 -1285 1085 0
-1085 1084 0
-1085 1285 0
-1087 0
-1039 -1041 0
-1039 -1043 0
-1039 -1045 0
-1039 -1047 0
-1039 -1049 0
-1039 -1051 0
-1039 -1053 0
-1039 -1055 0
-1039 -1057 0
-1039 -1059 0
-1039 -1061 0
-1039 -1063 0
-1039 -1065 0
-1039 -1067 0
-1039 -1069 0
-1039 -1071 0
-1039 -1073 0
-1039 -1075 0
-1039 -1077 0
-1039 -1079 0
-1039 -1081 0
-1039 -1083 0
-1039 -1085 0
-1039 -1087 0
1039 1041 1043 1045 1047 1049 1051 1053 1055 1057 1059 1061 1063 1065 1067 1069 1071 1073 1075 1077 1079 1081 1083 1085 1087 0
-1099 -1263 1100 0
-1100 1099 0
-1100 1263 0
-1101 -1264 1102 0
-1102 1101 0
-1102 1264 0
-1103 -1265 1104 0
-1104 1103 0
-1104 1265 0
-1106 0
-1107 -1267 1108 0
-1108 1107 0
-1108 1267 0
-1109 -1268 1110 0
-1110 1109 0
-1110 1268 0
-1111 -1269 1112 0
-1112 1111 0
-1112 1269 0
-1114 0
-1115 -1271 1116 0
-1116 1115 0
-1116 1271 0
-1117 -1272 1118 0
-1118 1117 0
-1118 1272 0
-1119 -1273 1120 0
-1120 1119 0
-1120 1273 0
-1122 0
-1123 -1275 1124 0
-1124 1123 0
-1124 1275 0
-1125 -1276 1126 0
-1126 1125 0
-1126 1276 0
-1127 -1277 1128 0
-1128 1127 0
-1128 1277 0
-1130 0
-1131 -1279 1132 0
-1132 1131 0
-1132 1279 0
-1133 -1280 1134 0
-1134 1133 0
-1134 1280 0
-1135 -1281 1136 0
-1136 1135 0
-1136 1281 0
-1138 0
-1139 -1283 1140 0
-1140 1139 0
-1140 1283 0
-1141 -1284 1142 0
-1142 1141 0
-1142 1284 0
-1143 -1285 1144 0
-1144 1143 0
-1144 1285 0
-1146 0
-1098 -1100 0
-1098 -1102 0
-1098 -1104 0
-1098 -1106 0
-1098 -1108 0
-1098 -1110 0
-1098 -1112 0
-1098 -1114 0
-1098 -1116 0
-1098 -1118 0
-1098 -1120 0
-1098 -1122 0
-1098 -1124 0
-1098 -1126 0
-1098 -1128 0
-1098 -1130 0
-1098 -1132 0
-1098 -1134 0
-1098 -1136 0
-1098 -1138 0
-1098 -1140 0
-1098 -1142 0
-1098 -1144 0
-1098 -1146 0
1098 1100 1102 1104 1106 1108 1110 1112 1114 1116 1118 1120 1122 1124 1126 1128 1130 1132 1134 1136 1138 1140 1142 1144 1146 0
-1157 -1263 1158 0
-1158 1157 0
-1158 1263 0
-1159 -1264 1160 0
-1160 1159 0
-1160 1264 0
-1161 -1265 1162 0
-1162 1161 0
-1162 1265 0
-1164 0
-1165 -1267 1166 0
-1166 1165 0
-1166 1267 0
-1167 -1268 1168 0
-1168 1167 0
-1168 1268 0
-1169 -1269 1170 0
-1170 1169 0
-1170 1269 0
-1172 0
-1173 -1271 1174 0
-1174 1173 0
-1174 1271 0
-1175 -1272 1176 0
-1176 1175 0
-1176 1272 0
-1177 -1273 1178 0
-1178 1177 0
-1178 1273 0
-1180 0
-1181 -1275 1182 0
-1182 1181 0
-1182 1275 0
-1183 -1276 1184 0
-1184 1183 0
-1184 1276 0
-1185 -1277 1186 0
-1186 1185 0
-1186 1277 0
-1188 0
-1189 -1279 1190 0
-1190 1189 0
-1190 1279 0
-1191 -1280 1192 0
-1192 1191 0
-1192 1280 0
-1193 -1281 1194 0
-1194 1193 0
-1194 1281 0
-1196 0
-1197 -1283 1198 0
-1198 1197 0
-1198 1283 0
-1199 -1284 1200 0
-1200 1199 0
-1200 1284 0
-1201 -1285 1202 0
-1202 1201 0
-1202 1285 0
-1204 0
-1156 -1158 0
-1156 -1160 0
-1156 -1162 0
-1156 -1164 0
-1156 -1166 0
-1156 -1168 0
-1156 -1170 0
-1156 -1172 0
-1156 -1174 0
-1156 -1176 0
-1156 -1178 0
-1156 -1180 0
-1156 -1182 0
-1156 -1184 0
-1156 -1186 0
-1156 -1188 0
-1156 -1190 0
-1156 -1192 0
-1156 -1194 0
-1156 -1196 0
-1156 -1198 0
-1156 -1200 0
-1156 -1202 0
-1156 -1204 0
1156 1158 1160 1162 1164 1166 1168 1170 1172 1174 1176 1178 1180 1182 1184 1186 1188 1190 1192 1194 1196 1198 1200 1202 1204 0
-1214 -1263 1215 0
-1215 1214 0
-1215 1263 0
-1216 -1264 1217 0
-1217 1216 0
-1217 1264 0
-1218 -1265 1219 0
-1219 1218 0
-1219 1265 0
-1221 0
-1222 -1267 1223 0
-1223 1222 0
-1223 1267 0
-1224 -1268 1225 0
-1225 1224 0
-1225 1268 0
-1226 -1269 1227 0
-1227 1226 0
-1227 1269 0
-1229 0
-1230 -1271 1231 0
-1231 1230 0
-1231 1271 0
-1232 -1272 1233 0
-1233 1232 0
-1233 1272 0
-1234 -1273 1235 0
-1235 1234 0
-1235 1273 0
-1237 0
-1238 -1275 1239 0
-1239 1238 0
-1239 1275 0
-1240 -1276 1241 0
-1241 1240 0
-1241 1276 0
-1242 -1277 1243 0
-1243 1242 0
-1243 1277 0
-1245 0
-1246 -1279 1247 0
-1247 1246 0
-1247 1279 0
-1248 -1280 1249 0
-1249 1248 0
-1249 1280 0
-1250 -1281 1251 0
-1251 1250 0
-1251 1281 0
-1253 0
-1254 -1283 1255 0
-1255 1254 0
-1255 1283 0
-1256 -1284 1257 0
-1257 1256 0
-1257 1284 0
-1258 -1285 1259 0
-1259 1258 0
-1259 1285 0
-1261 0
-1213 -1215 0
-1213 -1217 0
-1213 -1219 0
-1213 -1221 0
-1213 -1223 0
-1213 -1225 0
-1213 -1227 0
-1213 -1229 0
-1213 -1231 0
-1213 -1233 0
-1213 -1235 0
-1213 -1237 0
-1213 -1239 0
-1213 -1241 0
-1213 -1243 0
-1213 -1245 0
-1213 -1247 0
-1213 -1249 0
-1213 -1251 0
-1213 -1253 0
-1213 -1255 0
-1213 -1257 0
-1213 -1259 0
-1213 -1261 0
1213 1215 1217 1219 1221 1223 1225 1227 1229 1231 1233 1235 1237 1239 1241 1243 1245 1247 1249 1251 1253 1255 1257 1259 1261 0
1286 1287 1288 1289 1290 1291 0
-1286 -1287 0
-1286 -1288 0
-1286 -1289 0
-1286 -1290 0
-1286 -1291 0
-1287 -1288 0
-1287 -1289 0
-1287 -1290 0
-1287 -1291 0
-1288 -1289 0
-1288 -1290 0
-1288 -1291 0
-1289 -1290 0
-1289 -1291 0
-1290 -1291 0
1292 1293 1294 1295 0
-1292 -1293 0
-1292 -1294 0
-1292 -1295 0
-1293 -1294 0
-1293 -1295 0
-1294 -1295 0
1345 1346 1347 1348 1349 1350 0
-1345 -1346 0
-1345 -1347 0
-1345 -1348 0
-1345 -1349 0
-1345 -1350 0
-1346 -1347 0
-1346 -1348 0
-1346 -1349 0
-1346 -1350 0
-1347 -1348 0
-1347 -1349 0
-1347 -1350 0
-1348 -1349 0
-1348 -1350 0
-1349 -1350 0
1351 1352 1353 1354 0
-1351 -1352 0
-1351 -1353 0
-1351 -1354 0
-1352 -1353 0
-1352 -1354 0
-1353 -1354 0
1404 1405 1406 1407 1408 0
-1404 -1405 0
-1404 -1406 0
-1404 -1407 0
-1404 -1408 0
-1405 -1406 0
-1405 -1407 0
-1405 -1408 0
-1406 -1407 0
-1406 -1408 0
-1407 -1408 0
1409 1410 1411 1412 0
-1409 -1410 0
-1409 -1411 0
-1409 -1412 0
-1410 -1411 0
-1410 -1412 0
-1411 -1412 0
1462 1463 1464 1465 0
-1462 -1463 0
-1462 -1464 0
-1462 -1465 0
-1463 -1464 0
-1463 -1465 0
-1464 -1465 0
1466 1467 1468 1469 0
-1466 -1467 0
-1466 -1468 0
-1466 -1469 0
-1467 -1468 0
-1467 -1469 0
-1468 -1469 0
-1286 -1292 1297 0
-1297 1292 0
-1297 1286 0
-1286 -1293 1299 0
-1299 1293 0
-1299 1286 0
-1286 -1294 1301 0
-1301 1294 0
-1301 1286 0
-1286 -1295 1303 0
-1303 1295 0
-1303 1286 0
-1287 -1292 1305 0
-1305 1292 0
-1305 1287 0
-1287 -1293 1307 0
-1307 1293 0
-1307 1287 0
-1287 -1294 1309 0
-1309 1294 0
-1309 1287 0
-1287 -1295 1311 0
-1311 1295 0
-1311 1287 0
-1288 -1292 1313 0
-1313 1292 0
-1313 1288 0
-1288 -1293 1315 0
-1315 1293 0
-1315 1288 0
-1288 -1294 1317 0
-1317 1294 0
-1317 1288 0
-1288 -1295 1319 0
-1319 1295 0
-1319 1288 0
-1289 -1292 1321 0
-1321 1292 0
-1321 1289 0
-1289 -1293 1323 0
-1323 1293 0
-1323 1289 0
-1289 -1294 1325 0
-1325 1294 0
-1325 1289 0
-1289 -1295 1327 0
-1327 1295 0
-1327 1289 0
-1290 -1292 1329 0
-1329 1292 0
-1329 1290 0
-1290 -1293 1331 0
-1331 1293 0
-1331 1290 0
-1290 -1294 1333 0
-1333 1294 0
-1333 1290 0
-1290 -1295 1335 0
-1335 1295 0
-1335 1290 0
-1291 -1292 1337 0
-1337 1292 0
-1337 1291 0
-1291 -1293 1339 0
-1339 1293 0
-1339 1291 0
-1291 -1294 1341 0
-1341 1294 0
-1341 1291 0
-1291 -1295 1343 0
-1343 1295 0
-1343 1291 0
-1345 -1351 1356 0
-1356 1351 0
-1356 1345 0
-1345 -1352 1358 0
-1358 1352 0
-1358 1345 0
-1345 -1353 1360 0
-1360 1353 0
-1360 1345 0
-1345 -1354 1362 0
-1362 1354 0
-1362 1345 0
-1346 -1351 1364 0
-1364 1351 0
-1364 1346 0
-1346 -1352 1366 0
-1366 1352 0
-1366 1346 0
-1346 -1353 1368 0
-1368 1353 0
-1368 1346 0
-1346 -1354 1370 0
-1370 1354 0
-1370 1346 0
-1347 -1351 1372 0
-1372 1351 0
-1372 1347 0
-1347 -1352 1374 0
-1374 1352 0
-1374 1347 0
-1347 -1353 1376 0
-1376 1353 0
-1376 1347 0
-1347 -1354 1378 0
-1378 1354 0
-1378 1347 0
-1348 -1351 1380 0
-1380 1351 0
-1380 1348 0
-1348 -1352 1382 0
-1382 1352 0
-1382 1348 0
-1348 -1353 1384 0
-1384 1353 0
-1384 1348 0
-1348 -1354 1386 0
-1386 1354 0
-1386 1348 0
-1349 -1351 1388 0
-1388 1351 0
-1388 1349 0
-1349 -1352 1390 0
-1390 1352 0
-1390 1349 0
-1349 -1353 1392 0
-1392 1353 0
-1392 1349 0
-1349 -1354 1394 0
-1394 1354 0
-1394 1349 0
-1350 -1351 1396 0
-1396 1351 0
-1396 1350 0
-1350 -1352 1398 0
-1398 1352 0
-1398 1350 0
-1350 -1353 1400 0
-1400 1353 0
-1400 1350 0
-1350 -1354 1402 0
-1402 1354 0
-1402 1350 0
-1404 -1409 1414 0
-1414 1409 0
-1414 1404 0
-1404 -1410 1416 0
-1416 1410 0
-1416 1404 0
-1404 -1411 1418 0
-1418 1411 0
-1418 1404 0
-1404 -1412 1420 0
-1420 1412 0
-1420 1404 0
-1404 -1409 1422 0
-1405 -1409 1422 0
-1422 1409 0
-1422 1404 1405 0
-1404 -1410 1424 0
-1405 -1410 1424 0
-1424 1410 0
-1424 1404 1405 0
-1404 -1411 1426 0
-1405 -1411 1426 0
-1426 1411 0
-1426 1404 1405 0
-1404 -1412 1428 0
-1405 -1412 1428 0
-1428 1412 0
-1428 1404 1405 0
-1405 -1409 1430 0
-1406 -1409 1430 0
-1430 1409 0
-1430 1405 1406 0
-1405 -1410 1432 0
-1406 -1410 1432 0
-1432 1410 0
-1432 1405 1406 0
-1405 -1411 1434 0
-1406 -1411 1434 0
-1434 1411 0
-1434 1405 1406 0
-1405 -1412 1436 0
-1406 -1412 1436 0
-1436 1412 0
-1436 1405 1406 0
-1406 -1409 1438 0
-1407 -1409 1438 0
-1438 1409 0
-1438 1406 1407 0
-1406 -1410 1440 0
-1407 -1410 1440 0
-1440 1410 0
-1440 1406 1407 0
-1406 -1411 1442 0
-1407 -1411 1442 0
-1442 1411 0
-1442 1406 1407 0
-1406 -1412 1444 0
-1407 -1412 1444 0
-1444 1412 0
-1444 1406 1407 0
-1407 -1409 1446 0
-1408 -1409 1446 0
-1446 1409 0
-1446 1407 1408 0
-1407 -1410 1448 0
-1408 -1410 1448 0
-1448 1410 0
-1448 1407 1408 0
-1407 -1411 1450 0
-1408 -1411 1450 0
-1450 1411 0
-1450 1407 1408 0
-1407 -1412 1452 0
-1408 -1412 1452 0
-1452 1412 0
-1452 1407 1408 0
-1408 -1409 1454 0
-1454 1409 0
-1454 1408 0
-1408 -1410 1456 0
-1456 1410 0
-1456 1408 0
-1408 -1411 1458 0
-1458 1411 0
-1458 1408 0
-1408 -1412 1460 0
-1460 1412 0
-1460 1408 0
-1462 -1466 1471 0
-1471 1466 0
-1471 1462 0
-1462 -1467 1473 0
-1473 1467 0
-1473 1462 0
-1462 -1468 1475 0
-1475 1468 0
-1475 1462 0
-1462 -1469 1477 0
-1477 1469 0
-1477 1462 0
-1462 -1466 1479 0
-1463 -1466 1479 0
-1479 1466 0
-1479 1462 1463 0
-1462 -1467 1481 0
-1463 -1467 1481 0
-1481 1467 0
-1481 1462 1463 0
-1462 -1468 1483 0
-1463 -1468 1483 0
-1483 1468 0
-1483 1462 1463 0
-1462 -1469 1485 0
-1463 -1469 1485 0
-1485 1469 0
-1485 1462 1463 0
-1462 -1466 1487 0
-1463 -1466 1487 0
-1464 -1466 1487 0
-1487 1466 0
-1487 1462 1463 1464 0
-1462 -1467 1489 0
-1463 -1467 1489 0
-1464 -1467 1489 0
-1489 1467 0
-1489 1462 1463 1464 0
-1462 -1468 1491 0
-1463 -1468 1491 0
-1464 -1468 1491 0
-1491 1468 0
-1491 1462 1463 1464 0
-1462 -1469 1493 0
-1463 -1469 1493 0
-1464 -1469 1493 0
-1493 1469 0
-1493 1462 1463 1464 0
-1463 -1466 1495 0
-1464 -1466 1495 0
-1465 -1466 1495 0
-1495 1466 0
-1495 1463 1464 1465 0
-1463 -1467 1497 0
-1464 -1467 1497 0
-1465 -1467 1497 0
-1497 1467 0
-1497 1463 1464 1465 0
-1463 -1468 1499 0
-1464 -1468 1499 0
-1465 -1468 1499 0
-1499 1468 0
-1499 1463 1464 1465 0
-1463 -1469 1501 0
-1464 -1469 1501 0
-1465 -1469 1501 0
-1501 1469 0
-1501 1463 1464 1465 0
-1464 -1466 1503 0
-1465 -1466 1503 0
-1503 1466 0
-1503 1464 1465 0
-1464 -1467 1505 0
-1465 -1467 1505 0
-1505 1467 0
-1505 1464 1465 0
-1464 -1468 1507 0
-1465 -1468 1507 0
-1507 1468 0
-1507 1464 1465 0
-1464 -1469 1509 0
-1465 -1469 1509 0
-1509 1469 0
-1509 1464 1465 0
-1465 -1466 1511 0
-1511 1466 0
-1511 1465 0
-1465 -1467 1513 0
-1513 1467 0
-1513 1465 0
-1465 -1468 1515 0
-1515 1468 0
-1515 1465 0
-1465 -1469 1517 0
-1517 1469 0
-1517 1465 0
-1297 1519 0
-1356 1519 0
-1414 1519 0
-1471 1519 0
-1519 1297 1356 1414 1471 0
-1299 1520 0
-1358 1520 0
-1416 1520 0
-1473 1520 0
-1520 1299 1358 1416 1473 0
-1301 1521 0
-1360 1521 0
-1418 1521 0
-1475 1521 0
-1521 1301 1360 1418 1475 0
-1303 1522 0
-1362 1522 0
-1420 1522 0
-1477 1522 0
-1522 1303 1362 1420 1477 0
-1305 1523 0
-1364 1523 0
-1422 1523 0
-1479 1523 0
-1523 1305 1364 1422 1479 0
-1307 1524 0
-1366 1524 0
-1424 1524 0
-1481 1524 0
-1524 1307 1366 1424 1481 0
-1309 1525 0
-1368 1525 0
-1426 1525 0
-1483 1525 0
-1525 1309 1368 1426 1483 0
-1311 1526 0
-1370 1526 0
-1428 1526 0
-1485 1526 0
-1526 1311 1370 1428 1485 0
-1313 1527 0
-1372 1527 0
-1430 1527 0
-1487 1527 0
-1527 1313 1372 1430 1487 0
-1315 1528 0
-1374 1528 0
-1432 1528 0
-1489 1528 0
-1528 1315 1374 1432 1489 0
-1317 1529 0
-1376 1529 0
-1434 1529 0
-1491 1529 0
-1529 1317 1376 1434 1491 0
-1319 1530 0
-1378 1530 0
-1436 1530 0
-1493 1530 0
-1530 1319 1378 1436 1493 0
-1321 1531 0
-1380 1531 0
-1438 1531 0
-1495 1531 0
-1531 1321 1380 1438 1495 0
-1323 1532 0
-1382 1532 0
-1440 1532 0
-1497 1532 0
-1532 1323 1382 1440 1497 0
-1325 1533 0
-1384 1533 0
-1442 1533 0
-1499 1533 0
-1533 1325 1384 1442 1499 0
-1327 1534 0
-1386 1534 0
-1444 1534 0
-1501 1534 0
-1534 1327 1386 1444 1501 0
-1329 1535 0
-1388 1535 0
-1446 1535 0
-1503 1535 0
-1535 1329 1388 1446 1503 0
-1331 1536 0
-1390 1536 0
-1448 1536 0
-1505 1536 0
-1536 1331 1390 1448 1505 0
-1333 1537 0
-1392 1537 0
-1450 1537 0
-1507 1537 0
-1537 1333 1392 1450 1507 0
-1335 1538 0
-1394 1538 0
-1452 1538 0
-1509 1538 0
-1538 1335 1394 1452 1509 0
-1337 1539 0
-1396 1539 0
-1454 1539 0
-1511 1539 0
-1539 1337 1396 1454 1511 0
-1339 1540 0
-1398 1540 0
-1456 1540 0
-1513 1540 0
-1540 1339 1398 1456 1513 0
-1341 1541 0
-1400 1541 0
-1458 1541 0
-1515 1541 0
-1541 1341 1400 1458 1515 0
-1343 1542 0
-1402 1542 0
-1460 1542 0
-1517 1542 0
-1542 1343 1402 1460 1517 0
-1297 -1356 0
-1299 -1358 0
-1301 -1360 0
-1303 -1362 0
-1305 -1364 0
-1307 -1366 0
-1309 -1368 0
-1311 -1370 0
-1313 -1372 0
-1315 -1374 0
-1317 -1376 0
-1319 -1378 0
-1321 -1380 0
-1323 -1382 0
-1325 -1384 0
-1327 -1386 0
-1329 -1388 0
-1331 -1390 0
-1333 -1392 0
-1335 -1394 0
-1337 -1396 0
-1339 -1398 0
-1341 -1400 0
-1343 -1402 0
-1297 -1414 0
-1299 -1416 0
-1301 -1418 0
-1303 -1420 0
-1305 -1422 0
-1307 -1424 0
-1309 -1426 0
-1311 -1428 0
-1313 -1430 0
-1315 -1432 0
-1317 -1434 0
-1319 -1436 0
-1321 -1438 0
-1323 -1440 0
-1325 -1442 0
-1327 -1444 0
-1329 -1446 0
-1331 -1448 0
-1333 -1450 0
-1335 -1452 0
-1337 -1454 0
-1339 -1456 0
-1341 -1458 0
-1343 -1460 0
-1297 -1471 0
-1299 -1473 0
-1301 -1475 0
-1303 -1477 0
-1305 -1479 0
-1307 -1481 0
-1309 -1483 0
-1311 -1485 0
-1313 -1487 0
-1315 -1489 0
-1317 -1491 0
-1319 -1493 0
-1321 -1495 0
-1323 -1497 0
-1325 -1499 0
-1327 -1501 0
-1329 -1503 0
-1331 -1505 0
-1333 -1507 0
-1335 -1509 0
-1337 -1511 0
-1339 -1513 0
-1341 -1515 0
-1343 -1517 0
-1356 -1414 0
-1358 -1416 0
-1360 -1418 0
-1362 -1420 0
-1364 -1422 0
-1366 -1424 0
-1368 -1426 0
-1370 -1428 0
-1372 -1430 0
-1374 -1432 0
-1376 -1434 0
-1378 -1436 0
-1380 -1438 0
-1382 -1440 0
-1384 -1442 0
-1386 -1444 0
-1388 -1446 0
-1390 -1448 0
-1392 -1450 0
-1394 -1452 0
-1396 -1454 0
-1398 -1456 0
-1400 -1458 0
-1402 -1460 0
-1356 -1471 0
-1358 -1473 0
-1360 -1475 0
-1362 -1477 0
-1364 -1479 0
-1366 -1481 0
-1368 -1483 0
-1370 -1485 0
-1372 -1487 0
-1374 -1489 0
-1376 -1491 0
-1378 -1493 0
-1380 -1495 0
-1382 -1497 0
-1384 -1499 0
-1386 -1501 0
-1388 -1503 0
-1390 -1505 0
-1392 -1507 0
-1394 -1509 0
-1396 -1511 0
-1398 -1513 0
-1400 -1515 0
-1402 -1517 0
-1414 -1471 0
-1416 -1473 0
-1418 -1475 0
-1420 -1477 0
-1422 -1479 0
-1424 -1481 0
-1426 -1483 0
-1428 -1485 0
-1430 -1487 0
-1432 -1489 0
-1434 -1491 0
-1436 -1493 0
-1438 -1495 0
-1440 -1497 0
-1442 -1499 0
-1444 -1501 0
-1446 -1503 0
-1448 -1505 0
-1450 -1507 0
-1452 -1509 0
-1454 -1511 0
-1456 -1513 0
-1458 -1515 0
-1460 -1517 0
-1286 -1293 1519 0
-1286 -1294 1520 0
-1286 -1295 1521 0
-1287 -1293 1523 0
-1287 -1294 1524 0
-1287 -1295 1525 0
-1288 -1293 1527 0
-1288 -1294 1528 0
-1288 -1295 1529 0
-1289 -1293 1531 0
-1289 -1294 1532 0
-1289 -1295 1533 0
-1290 -1293 1535 0
-1290 -1294 1536 0
-1290 -1295 1537 0
-1291 -1293 1539 0
-1291 -1294 1540 0
-1291 -1295 1541 0
-1345 -1352 1519 0
-1345 -1353 1520 0
-1345 -1354 1521 0
-1346 -1352 1523 0
-1346 -1353 1524 0
-1346 -1354 1525 0
-1347 -1352 1527 0
-1347 -1353 1528 0
-1347 -1354 1529 0
-1348 -1352 1531 0
-1348 -1353 1532 0
-1348 -1354 1533 0
-1349 -1352 1535 0
-1349 -1353 1536 0
-1349 -1354 1537 0
-1350 -1352 1539 0
-1350 -1353 1540 0
-1350 -1354 1541 0
-1404 -1410 1519 1523 0
-1404 -1411 1520 1524 0
-1404 -1412 1521 1525 0
-1405 -1410 1523 1527 0
-1405 -1411 1524 1528 0
-1405 -1412 1525 1529 0
-1406 -1410 1527 1531 0
-1406 -1411 1528 1532 0
-1406 -1412 1529 1533 0
-1407 -1410 1531 1535 0
-1407 -1411 1532 1536 0
-1407 -1412 1533 1537 0
-1408 -1410 1535 1539 0
-1408 -1411 1536 1540 0
-1408 -1412 1537 1541 0
-1462 -1467 1519 1523 0
-1462 -1467 1519 1527 0
-1462 -1467 1523 1527 0
-1462 -1468 1520 1524 0
-1462 -1468 1520 1528 0
-1462 -1468 1524 1528 0
-1462 -1469 1521 1525 0
-1462 -1469 1521 1529 0
-1462 -1469 1525 1529 0
-1463 -1467 1523 1527 0
-1463 -1467 1523 1531 0
-1463 -1467 1527 1531 0
-1463 -1468 1524 1528 0
-1463 -1468 1524 1532 0
-1463 -1468 1528 1532 0
-1463 -1469 1525 1529 0
-1463 -1469 1525 1533 0
-1463 -1469 1529 1533 0
-1464 -1467 1527 1531 0
-1464 -1467 1527 1535 0
-1464 -1467 1531 1535 0
-1464 -1468 1528 1532 0
-1464 -1468 1528 1536 0
-1464 -1468 1532 1536 0
-1464 -1469 1529 1533 0
-1464 -1469 1529 1537 0
-1464 -1469 1533 1537 0
-1465 -1467 1531 1535 0
-1465 -1467 1531 1539 0
-1465 -1467 1535 1539 0
-1465 -1468 1532 1536 0
-1465 -1468 1532 1540 0
-1465 -1468 1536 1540 0
-1465 -1469 1533 1537 0
-1465 -1469 1533 1541 0
-1465 -1469 1537 1541 0
-1297 -1520 1298 0
-1298 1297 0
-1298 1520 0
-1299 -1521 1300 0
-1300 1299 0
-1300 1521 0
-1301 -1522 1302 0
-1302 1301 0
-1302 1522 0
-1304 0
-1305 -1524 1306 0
-1306 1305 0
-1306 1524 0
-1307 -1525 1308 0
-1308 1307 0
-1308 1525 0
-1309 -1526 1310 0
-1310 1309 0
-1310 1526 0
-1312 0
-1313 -1528 1314 0
-1314 1313 0
-1314 1528 0
-1315 -1529 1316 0
-1316 1315 0
-1316 1529 0
-1317 -1530 1318 0
-1318 1317 0
-1318 1530 0
-1320 0
-1321 -1532 1322 0
-1322 1321 0
-1322 1532 0
-1323 -1533 1324 0
-1324 1323 0
-1324 1533 0
-1325 -1534 1326 0
-1326 1325 0
-1326 1534 0
-1328 0
-1329 -1536 1330 0
-1330 1329 0
-1330 1536 0
-1331 -1537 1332 0
-1332 1331 0
-1332 1537 0
-1333 -1538 1334 0
-1334 1333 0
-1334 1538 0
-1336 0
-1337 -1540 1338 0
-1338 1337 0
-1338 1540 0
-1339 -1541 1340 0
-1340 1339 0
-1340 1541 0
-1341 -1542 1342 0
-1342 1341 0
-1342 1542 0
-1344 0
-1296 -1298 0
-1296 -1300 0
-1296 -1302 0
-1296 -1304 0
-1296 -1306 0
-1296 -1308 0
-1296 -1310 0
-1296 -1312 0
-1296 -1314 0
-1296 -1316 0
-1296 -1318 0
-1296 -1320 0
-1296 -1322 0
-1296 -1324 0
-1296 -1326 0
-1296 -1328 0
-1296 -1330 0
-1296 -1332 0
-1296 -1334 0
-1296 -1336 0
-1296 -1338 0
-1296 -1340 0
-1296 -1342 0
-1296 -1344 0
1296 1298 1300 1302 1304 1306 1308 1310 1312 1314 1316 1318 1320 1322 1324 1326 1328 1330 1332 1334 1336 1338 1340 1342 1344 0
-1356 -1520 1357 0
-1357 1356 0
-1357 1520 0
-1358 -1521 1359 0
-1359 1358 0
-1359 1521 0
-1360 -1522 1361 0
-1361 1360 0
-1361 1522 0
-1363 0
-1364 -1524 1365 0
-1365 1364 0
-1365 1524 0
-1366 -1525 1367 0
-1367 1366 0
-1367 1525 0
-1368 -1526 1369 0
-1369 1368 0
-1369 1526 0
-1371 0
-1372 -1528 1373 0
-1373 1372 0
-1373 1528 0
-1374 -1529 1375 0
-1375 1374 0
-1375 1529 0
-1376 -1530 1377 0
-1377 1376 0
-1377 1530 0
-1379 0
-1380 -1532 1381 0
-1381 1380 0
-1381 1532 0
-1382 -1533 1383 0
-1383 1382 0
-1383 1533 0
-1384 -1534 1385 0
-1385 1384 0
-1385 1534 0
-1387 0
-1388 -1536 1389 0
-1389 1388 0
-1389 1536 0
-1390 -1537 1391 0
-1391 1390 0
-1391 1537 0
-1392 -1538 1393 0
-1393 1392 0
-1393 1538 0
-1395 0
-1396 -1540 1397 0
-1397 1396 0
-1397 1540 0
-1398 -1541 1399 0
-1399 1398 0
-1399 1541 0
-1400 -1542 1401 0
-1401 1400 0
-1401 1542 0
-1403 0
-1355 -1357 0
-1355 -1359 0
-1355 -1361 0
-1355 -1363 0
-1355 -1365 0
-1355 -1367 0
-1355 -1369 0
-1355 -1371 0
-1355 -1373 0
-1355 -1375 0
-1355 -1377 0
-1355 -1379 0
-1355 -1381 0
-1355 -1383 0
-1355 -1385 0
-1355 -1387 0
-1355 -1389 0
-1355 -1391 0
-1355 -1393 0
-1355 -1395 0
-1355 -1397 0
-1355 -1399 0
-1355 -1401 0
-1355 -1403 0
1355 1357 1359 1361 1363 1365 1367 1369 1371 1373 1375 1377 1379 1381 1383 1385 1387 1389 1391 1393 1395 1397 1399 1401 1403 0
-1414 -1520 1415 0
-1415 1414 0
-1415 1520 0
-1416 -1521 1417 0
-1417 1416 0
-1417 1521 0
-1418 -1522 1419 0
-1419 1418 0
-1419 1522 0
-1421 0
-1422 -1524 1423 0
-1423 1422 0
-1423 1524 0
-1424 -1525 1425 0
-1425 1424 0
-1425 1525 0
-1426 -1526 1427 0
-1427 1426 0
-1427 1526 0
-1429 0
-1430 -1528 1431 0
-1431 1430 0
-1431 1528 0
-1432 -1529 1433 0
-1433 1432 0
-1433 1529 0
-1434 -1530 1435 0
-1435 1434 0
-1435 1530 0
-1437 0
-1438 -1532 1439 0
-1439 1438 0
-1439 1532 0
-1440 -1533 1441 0
-1441 1440 0
-1441 1533 0
-1442 -1534 1443 0
-1443 1442 0
-1443 1534 0
-1445 0
-1446 -1536 1447 0
-1447 1446 0
-1447 1536 0
-1448 -1537 1449 0
-1449 1448 0
-1449 1537 0
-1450 -1538 1451 0
-1451 1450 0
-1451 1538 0
-1453 0
-1454 -1540 1455 0
-1455 1454 0
-1455 1540 0
-1456 -1541 1457 0
-1457 1456 0
-1457 1541 0
-1458 -1542 1459 0
-1459 1458 0
-1459 1542 0
-1461 0
-1413 -1415 0
-1413 -1417 0
-1413 -1419 0
-1413 -1421 0
-1413 -1423 0
-1413 -1425 0
-1413 -1427 0
-1413 -1429 0
-1413 -1431 0
-1413 -1433 0
-1413 -1435 0
-1413 -1437 0
-1413 -1439 0
-1413 -1441 0
-1413 -1443 0
-1413 -1445 0
-1413 -1447 0
-1413 -1449 0
-1413 -1451 0
-1413 -1453 0
-1413 -1455 0
-1413 -1457 0
-1413 -1459 0
-1413 -1461 0
1413 1415 1417 1419 1421 1423 1425 1427 1429 1431 1433 1435 1437 1439 1441 1443 1445 1447 1449 1451 1453 1455 1457 1459 1461 0
-1471 -1520 1472 0
-1472 1471 0
-1472 1520 0
-1473 -1521 1474 0
-1474 1473 0
-1474 1521 0
-1475 -1522 1476 0
-1476 1475 0
-1476 1522 0
-1478 0
-1479 -1524 1480 0
-1480 1479 0
-1480 1524 0
-1481 -1525 1482 0
-1482 1481 0
-1482 1525 0
-1483 -1526 1484 0
-1484 1483 0
-1484 1526 0
-1486 0
-1487 -1528 1488 0
-1488 1487 0
-1488 1528 0
-1489 -1529 1490 0
-1490 1489 0
-1490 1529 0
-1491 -1530 1492 0
-1492 1491 0
-1492 1530 0
-1494 0
-1495 -1532 1496 0
-1496 1495 0
-1496 1532 0
-1497 -1533 1498 0
-1498 1497 0
-1498 1533 0
-1499 -1534 1500 0
-1500 1499 0
-1500 1534 0
-1502 0
-1503 -1536 1504 0
-1504 1503 0
-1504 1536 0
-1505 -1537 1506 0
-1506 1505 0
-1506 1537 0
-1507 -1538 1508 0
-1508 1507 0
-1508 1538 0
-1510 0
-1511 -1540 1512 0
-1512 1511 0
-1512 1540 0
-1513 -1541 1514 0
-1514 1513 0
-1514 1541 0
-1515 -1542 1516 0
-1516 1515 0
-1516 1542 0
-1518 0
-1470 -1472 0
-1470 -1474 0
-1470 -1476 0
-1470 -1478 0
-1470 -1480 0
-1470 -1482 0
-1470 -1484 0
-1470 -1486 0
-1470 -1488 0
-1470 -1490 0
-1470 -1492 0
-1470 -1494 0
-1470 -1496 0
-1470 -1498 0
-1470 -1500 0
-1470 -1502 0
-1470 -1504 0
-1470 -1506 0
-1470 -1508 0
-1470 -1510 0
-1470 -1512 0
-1470 -1514 0
-1470 -1516 0
-1470 -1518 0
1470 1472 1474 1476 1478 1480 1482 1484 1486 1488 1490 1492 1494 1496 1498 1500 1502 1504 1506 1508 1510 1512 1514 1516 1518 0
1543 1544 1545 1546 1547 1548 0
-1543 -1544 0
-1543 -1545 0
-1543 -1546 0
-1543 -1547 0
-1543 -1548 0
-1544 -1545 0
-1544 -1546 0
-1544 -1547 0
-1544 -1548 0
-1545 -1546 0
-1545 -1547 0
-1545 -1548 0
-1546 -1547 0
-1546 -1548 0
-1547 -1548 0
1549 1550 1551 1552 0
-1549 -1550 0
-1549 -1551 0
-1549 -1552 0
-1550 -1551 0
-1550 -1552 0
-1551 -1552 0
1602 1603 1604 1605 1606 1607 0
-1602 -1603 0
-1602 -1604 0
-1602 -1605 0
-1602 -1606 0
-1602 -1607 0
-1603 -1604 0
-1603 -1605 0
-1603 -1606 0
-1603 -1607 0
-1604 -1605 0
-1604 -1606 0
-1604 -1607 0
-1605 -1606 0
-1605 -1607 0
-1606 -1607 0
1608 1609 1610 1611 0
-1608 -1609 0
-1608 -1610 0
-1608 -1611 0
-1609 -1610 0
-1609 -1611 0
-1610 -1611 0
1661 1662 1663 1664 1665 0
-1661 -1662 0
-1661 -1663 0
-1661 -1664 0
-1661 -1665 0
-1662 -1663 0
-1662 -1664 0
-1662 -1665 0
-1663 -1664 0
-1663 -1665 0
-1664 -1665 0
1666 1667 1668 1669 0
-1666 -1667 0
-1666 -1668 0
-1666 -1669 0
-1667 -1668 0
-1667 -1669 0
-1668 -1669 0
1719 1720 1721 1722 0
-1719 -1720 0
-1719 -1721 0
-1719 -1722 0
-1720 -1721 0
-1720 -1722 0
-1721 -1722 0
1723 1724 1725 1726 0
-1723 -1724 0
-1723 -1725 0
-1723 -1726 0
-1724 -1725 0
-1724 -1726 0
-1725 -1726 0
-1543 -1549 1554 0
-1554 1549 0
-1554 1543 0
-1543 -1550 1556 0
-1556 1550 0
-1556 1543 0
-1543 -1551 1558 0
-1558 1551 0
-1558 1543 0
-1543 -1552 1560 0
-1560 1552 0
-1560 1543 0
-1544 -1549 1562 0
-1562 1549 0
-1562 1544 0
-1544 -1550 1564 0
-1564 1550 0
-1564 1544 0
-1544 -1551 1566 0
-1566 1551 0
-1566 1544 0
-1544 -1552 1568 0
-1568 1552 0
-1568 1544 0
-1545 -1549 1570 0
-1570 1549 0
-1570 1545 0
-1545 -1550 1572 0
-1572 1550 0
-1572 1545 0
-1545 -1551 1574 0
-1574 1551 0
-1574 1545 0
-1545 -1552 1576 0
-1576 1552 0
-1576 1545 0
-1546 -1549 1578 0
-1578 1549 0
-1578 1546 0
-1546 -1550 1580 0
-1580 1550 0
-1580 1546 0
-1546 -1551 1582 0
-1582 1551 0
-1582 1546 0
-1546 -1552 1584 0
-1584 1552 0
-1584 1546 0
-1547 -1549 1586 0
-1586 1549 0
-1586 1547 0
-1547 -1550 1588 0
-1588 1550 0
-1588 1547 0
-1547 -1551 1590 0
-1590 1551 0
-1590 1547 0
-1547 -1552 1592 0
-1592 1552 0
-1592 1547 0
-1548 -1549 1594 0
-1594 1549 0
-1594 1548 0
-1548 -1550 1596 0
-1596 1550 0
-1596 1548 0
-1548 -1551 1598 0
-1598 1551 0
-1598 1548 0
-1548 -1552 1600 0
-1600 1552 0
-1600 1548 0
-1602 -1608 1613 0
-1613 1608 0
-1613 1602 0
-1602 -1609 1615 0
-1615 1609 0
-1615 1602 0
-1602 -1610 1617 0
-1617 1610 0
-1617 1602 0
-1602 -1611 1619 0
-1619 1611 0
-1619 1602 0
-1603 -1608 1621 0
-1621 1608 0
-1621 1603 0
-1603 -1609 1623 0
-1623 1609 0
-1623 1603 0
-1603 -1610 1625 0
-1625 1610 0
-1625 1603 0
-1603 -1611 1627 0
-1627 1611 0
-1627 1603 0
-1604 -1608 1629 0
-1629 1608 0
-1629 1604 0
-1604 -1609 1631 0
-1631 1609 0
-1631 1604 0
-1604 -1610 1633 0
-1633 1610 0
-1633 1604 0
-1604 -1611 1635 0
-1635 1611 0
-1635 1604 0
-1605 -1608 1637 0
-1637 1608 0
-1637 1605 0
-1605 -1609 1639 0
-1639 1609 0
-1639 1605 0
-1605 -1610 1641 0
-1641 1610 0
-1641 1605 0
-1605 -1611 1643 0
-1643 1611 0
-1643 1605 0
-1606 -1608 1645 0
-1645 1608 0
-1645 1606 0
-1606 -1609 1647 0
-1647 1609 0
-1647 1606 0
-1606 -1610 1649 0
-1649 1610 0
-1649 1606 0
-1606 -1611 1651 0
-1651 1611 0
-1651 1606 0
-1607 -1608 1653 0
-1653 1608 0
-1653 1607 0
-1607 -1609 1655 0
-1655 1609 0
-1655 1607 0
-1607 -1610 1657 0
-1657 1610 0
-1657 1607 0
-1607 -1611 1659 0
-1659 1611 0
-1659 1607 0
-1661 -1666 1671 0
-1671 1666 0
-1671 1661 0
-1661 -1667 1673 0
-1673 1667 0
-1673 1661 0
-1661 -1668 1675 0
-1675 1668 0
-1675 1661 0
-1661 -1669 1677 0
-1677 1669 0
-1677 1661 0
-1661 -1666 1679 0
-1662 -1666 1679 0
-1679 1666 0
-1679 1661 1662 0
-1661 -1667 1681 0
-1662 -1667 1681 0
-1681 1667 0
-1681 1661 1662 0
-1661 -1668 1683 0
-1662 -1668 1683 0
-1683 1668 0
-1683 1661 1662 0
-1661 -1669 1685 0
-1662 -1669 1685 0
-1685 1669 0
-1685 1661 1662 0
-1662 -1666 1687 0
-1663 -1666 1687 0
-1687 1666 0
-1687 1662 1663 0
-1662 -1667 1689 0
-1663 -1667 1689 0
-1689 1667 0
-1689 1662 1663 0
-1662 -1668 1691 0
-1663 -1668 1691 0
-1691 1668 0
-1691 1662 1663 0
-1662 -1669 1693 0
-1663 -1669 1693 0
-1693 1669 0
-1693 1662 1663 0
-1663 -1666 1695 0
-1664 -1666 1695 0
-1695 1666 0
-1695 1663 1664 0
-1663 -1667 1697 0
-1664 -1667 1697 0
-1697 1667 0
-1697 1663 1664 0
-1663 -1668 1699 0
-1664 -1668 1699 0
-1699 1668 0
-1699 1663 1664 0
-1663 -1669 1701 0
-1664 -1669 1701 0
-1701 1669 0
-1701 1663 1664 0
-1664 -1666 1703 0
-1665 -1666 1703 0
-1703 1666 0
-1703 1664 1665 0
-1664 -1667 1705 0
-1665 -1667 1705 0
-1705 1667 0
-1705 1664 1665 0
-1664 -1668 1707 0
-1665 -1668 1707 0
-1707 1668 0
-1707 1664 1665 0
-1664 -1669 1709 0
-1665 -1669 1709 0
-1709 1669 0
-1709 1664 1665 0
-1665 -1666 1711 0
-1711 1666 0
-1711 1665 0
-1665 -1667 1713 0
-1713 1667 0
-1713 1665 0
-1665 -1668 1715 0
-1715 1668 0
-1715 1665 0
-1665 -1669 1717 0
-1717 1669 0
-1717 1665 0
-1719 -1723 1728 0
-1728 1723 0
-1728 1719 0
-1719 -1724 1730 0
-1730 1724 0
-1730 1719 0
-1719 -1725 1732 0
-1732 1725 0
-1732 1719 0
-1719 -1726 1734 0
-1734 1726 0
-1734 1719 0
-1719 -1723 1736 0
-1720 -1723 1736 0
-1736 1723 0
-1736 1719 1720 0
-1719 -1724 1738 0
-1720 -1724 1738 0
-1738 1724 0
-1738 1719 1720 0
-1719 -1725 1740 0
-1720 -1725 1740 0
-1740 1725 0
-1740 1719 1720 0
-1719 -1726 1742 0
-1720 -1726 1742 0
-1742 1726 0
-1742 1719 1720 0
-1719 -1723 1744 0
-1720 -1723 1744 0
-1721 -1723 1744 0
-1744 1723 0
-1744 1719 1720 1721 0
-1719 -1724 1746 0
-1720 -1724 1746 0
-1721 -1724 1746 0
-1746 1724 0
-1746 1719 1720 1721 0
-1719 -1725 1748 0
-1720 -1725 1748 0
-1721 -1725 1748 0
-1748 1725 0
-1748 1719 1720 1721 0
-1719 -1726 1750 0
-1720 -1726 1750 0
-1721 -1726 1750 0
-1750 1726 0
-1750 1719 1720 1721 0
-1720 -1723 1752 0
-1721 -1723 1752 0
-1722 -1723 1752 0
-1752 1723 0
-1752 1720 1721 1722 0
-1720 -1724 1754 0
-1721 -1724 1754 0
-1722 -1724 1754 0
-1754 1724 0
-1754 1720 1721 1722 0
-1720 -1725 1756 0
-1721 -1725 1756 0
-1722 -1725 1756 0
-1756 1725 0
-1756 1720 1721 1722 0
-1720 -1726 1758 0
-1721 -1726 1758 0
-1722 -1726 1758 0
-1758 1726 0
-1758 1720 1721 1722 0
-1721 -1723 1760 0
-1722 -1723 1760 0
-1760 1723 0
-1760 1721 1722 0
-1721 -1724 1762 0
-1722 -1724 1762 0
-1762 1724 0
-1762 1721 1722 0
-1721 -1725 1764 0
-1722 -1725 1764 0
-1764 1725 0
-1764 1721 1722 0
-1721 -1726 1766 0
-1722 -1726 1766 0
-1766 1726 0
-1766 1721 1722 0
-1722 -1723 1768 0
-1768 1723 0
-1768 1722 0
-1722 -1724 1770 0
-1770 1724 0
-1770 1722 0
-1722 -1725 1772 0
-1772 1725 0
-1772 1722 0
-1722 -1726 1774 0
-1774 1726 0
-1774 1722 0
-1554 1776 0
-1613 1776 0
-1671 1776 0
-1728 1776 0
-1776 1554 1613 1671 1728 0
-1556 1777 0
-1615 1777 0
-1673 1777 0
-1730 1777 0
-1777 1556 1615 1673 1730 0
-1558 1778 0
-1617 1778 0
-1675 1778 0
-1732 1778 0
-1778 1558 1617 1675 1732 0
-1560 1779 0
-1619 1779 0
-1677 1779 0
-1734 1779 0
-1779 1560 1619 1677 1734 0
-1562 1780 0
-1621 1780 0
-1679 1780 0
-1736 1780 0
-1780 1562 1621 1679 1736 0
-1564 1781 0
-1623 1781 0
-1681 1781 0
-1738 1781 0
-1781 1564 1623 1681 1738 0
-1566 1782 0
-1625 1782 0
-1683 1782 0
-1740 1782 0
-1782 1566 1625 1683 1740 0
-1568 1783 0
-1627 1783 0
-1685 1783 0
-1742 1783 0
-1783 1568 1627 1685 1742 0
-1570 1784 0
-1629 1784 0
-1687 1784 0
-1744 1784 0
-1784 1570 1629 1687 1744 0
-1572 1785 0
-1631 1785 0
-1689 1785 0
-1746 1785 0
-1785 1572 1631 1689 1746 0
-1574 1786 0
-1633 1786 0
-1691 1786 0
-1748 1786 0
-1786 1574 1633 1691 1748 0
-1576 1787 0
-1635 1787 0
-1693 1787 0
-1750 1787 0
-1787 1576 1635 1693 1750 0
-1578 1788 0
-1637 1788 0
-1695 1788 0
-1752 1788 0
-1788 1578 1637 1695 1752 0
-1580 1789 0
-1639 1789 0
-1697 1789 0
-1754 1789 0
-1789 1580 1639 1697 1754 0
-1582 1790 0
-1641 1790 0
-1699 1790 0
-1756 1790 0
-1790 1582 1641 1699 1756 0
-1584 1791 0
-1643 1791 0
-1701 1791 0
-1758 1791 0
-1791 1584 1643 1701 1758 0
-1586 1792 0
-1645 1792 0
-1703 1792 0
-1760 1792 0
-1792 1586 1645 1703 1760 0
-1588 1793 0
-1647 1793 0
-1705 1793 0
-1762 1793 0
-1793 1588 1647 1705 1762 0
-1590 1794 0
-1649 1794 0
-1707 1794 0
-1764 1794 0
-1794 1590 1649 1707 1764 0
-1592 1795 0
-1651 1795 0
-1709 1795 0
-1766 1795 0
-1795 1592 1651 1709 1766 0
-1594 1796 0
-1653 1796 0
-1711 1796 0
-1768 1796 0
-1796 1594 1653 1711 1768 0
-1596 1797 0
-1655 1797 0
-1713 1797 0
-1770 1797 0
-1797 1596 1655 1713 1770 0
-1598 1798 0
-1657 1798 0
-1715 1798 0
-1772 1798 0
-1798 1598 1657 1715 1772 0
-1600 1799 0
-1659 1799 0
-1717 1799 0
-1774 1799 0
-1799 1600 1659 1717 1774 0
-1554 -1613 0
-1556 -1615 0
-1558 -1617 0
-1560 -1619 0
-1562 -1621 0
-1564 -1623 0
-1566 -1625 0
-1568 -1627 0
-1570 -1629 0
-1572 -1631 0
-1574 -1633 0
-1576 -1635 0
-1578 -1637 0
-1580 -1639 0
-1582 -1641 0
-1584 -1643 0
-1586 -1645 0
-1588 -1647 0
-1590 -1649 0
-1592 -1651 0
-1594 -1653 0
-1596 -1655 0
-1598 -1657 0
-1600 -1659 0
-1554 -1671 0
-1556 -1673 0
-1558 -1675 0
-1560 -1677 0
-1562 -1679 0
-1564 -1681 0
-1566 -1683 0
-1568 -1685 0
-1570 -1687 0
-1572 -1689 0
-1574 -1691 0
-1576 -1693 0
-1578 -1695 0
-1580 -1697 0
-1582 -1699 0
-1584 -1701 0
-1586 -1703 0
-1588 -1705 0
-1590 -1707 0
-1592 -1709 0
-1594 -1711 0
-1596 -1713 0
-1598 -1715 0
-1600 -1717 0
-1554 -1728 0
-1556 -1730 0
-1558 -1732 0
-1560 -1734 0
-1562 -1736 0
-1564 -1738 0
-1566 -1740 0
-1568 -1742 0
-1570 -1744 0
-1572 -1746 0
-1574 -1748 0
-1576 -1750 0
-1578 -1752 0
-1580 -1754 0
-1582 -1756 0
-1584 -1758 0
-1586 -1760 0
-1588 -1762 0
-1590 -1764 0
-1592 -1766 0
-1594 -1768 0
-1596 -1770 0
-1598 -1772 0
-1600 -1774 0
-1613 -1671 0
-1615 -1673 0
-1617 -1675 0
-1619 -1677 0
-1621 -1679 0
-1623 -1681 0
-1625 -1683 0
-1627 -1685 0
-1629 -1687 0
-1631 -1689 0
-1633 -1691 0
-1635 -1693 0
-1637 -1695 0
-1639 -1697 0
-1641 -1699 0
-1643 -1701 0
-1645 -1703 0
-1647 -1705 0
-1649 -1707 0
-1651 -1709 0
-1653 -1711 0
-1655 -1713 0
-1657 -1715 0
-1659 -1717 0
-1613 -1728 0
-1615 -1730 0
-1617 -1732 0
-1619 -1734 0
-1621 -1736 0
-1623 -1738 0
-1625 -1740 0
-1627 -1742 0
-1629 -1744 0
-1631 -1746 0
-1633 -1748 0
-1635 -1750 0
-1637 -1752 0
-1639 -1754 0
-1641 -1756 0
-1643 -1758 0
-1645 -1760 0
-1647 -1762 0
-1649 -1764 0
-1651 -1766 0
-1653 -1768 0
-1655 -1770 0
-1657 -1772 0
-1659 -1774 0
-1671 -1728 0
-1673 -1730 0
-1675 -1732 0
-1677 -1734 0
-1679 -1736 0
-1681 -1738 0
-1683 -1740 0
-1685 -1742 0
-1687 -1744 0
-1689 -1746 0
-1691 -1748 0
-1693 -1750 0
-1695 -1752 0
-1697 -1754 0
-1699 -1756 0
-1701 -1758 0
-1703 -1760 0
-1705 -1762 0
-1707 -1764 0
-1709 -1766 0
-1711 -1768 0
-1713 -1770 0
-1715 -1772 0
-1717 -1774 0
-1543 -1550 1776 0
-1543 -1551 1777 0
-1543 -1552 1778 0
-1544 -1550 1780 0
-1544 -1551 1781 0
-1544 -1552 1782 0
-1545 -1550 1784 0
-1545 -1551 1785 0
-1545 -1552 1786 0
-1546 -1550 1788 0
-1546 -1551 1789 0
-1546 -1552 1790 0
-1547 -1550 1792 0
-1547 -1551 1793 0
-1547 -1552 1794 0
-1548 -1550 1796 0
-1548 -1551 1797 0
-1548 -1552 1798 0
-1602 -1609 1776 0
-1602 -1610 1777 0
-1602 -1611 1778 0
-1603 -1609 1780 0
-1603 -1610 1781 0
-1603 -1611 1782 0
-1604 -1609 1784 0
-1604 -1610 1785 0
-1604 -1611 1786 0
-1605 -1609 1788 0
-1605 -1610 1789 0
-1605 -1611 1790 0
-1606 -1609 1792 0
-1606 -1610 1793 0
-1606 -1611 1794 0
-1607 -1609 1796 0
-1607 -1610 1797 0
-1607 -1611 1798 0
-1661 -1667 1776 1780 0
-1661 -1668 1777 1781 0
-1661 -1669 1778 1782 0
-1662 -1667 1780 1784 0
-1662 -1668 1781 1785 0
-1662 -1669 1782 1786 0
-1663 -1667 1784 1788 0
-1663 -1668 1785 1789 0
-1663 -1669 1786 1790 0
-1664 -1667 1788 1792 0
-1664 -1668 1789 1793 0
-1664 -1669 1790 1794 0
-1665 -1667 1792 1796 0
-1665 -1668 1793 1797 0
-1665 -1669 1794 1798 0
-1719 -1724 1776 1780 0
-1719 -1724 1776 1784 0
-1719 -1724 1780 1784 0
-1719 -1725 1777 1781 0
-1719 -1725 1777 1785 0
-1719 -1725 1781 1785 0
-1719 -1726 1778 1782 0
-1719 -1726 1778 1786 0
-1719 -1726 1782 1786 0
-1720 -1724 1780 1784 0
-1720 -1724 1780 1788 0
-1720 -1724 1784 1788 0
-1720 -1725 1781 1785 0
-1720 -1725 1781 1789 0
-1720 -1725 1785 1789 0
-1720 -1726 1782 1786 0
-1720 -1726 1782 1790 0
-1720 -1726 1786 1790 0
-1721 -1724 1784 1788 0
-1721 -1724 1784 1792 0
-1721 -1724 1788 1792 0
-1721 -1725 1785 1789 0
-1721 -1725 1785 1793 0
-1721 -1725 1789 1793 0
-1721 -1726 1786 1790 0
-1721 -1726 1786 1794 0
-1721 -1726 1790 1794 0
-1722 -1724 1788 1792 0
-1722 -1724 1788 1796 0
-1722 -1724 1792 1796 0
-1722 -1725 1789 1793 0
-1722 -1725 1789 1797 0
-1722 -1725 1793 1797 0
-1722 -1726 1790 1794 0
-1722 -1726 1790 1798 0
-1722 -1726 1794 1798 0
-1554 -1777 1555 0
-1555 1554 0
-1555 1777 0
-1556 -1778 1557 0
-1557 1556 0
-1557 1778 0
-1558 -1779 1559 0
-1559 1558 0
-1559 1779 0
-1561 0
-1562 -1781 1563 0
-1563 1562 0
-1563 1781 0
-1564 -1782 1565 0
-1565 1564 0
-1565 1782 0
-1566 -1783 1567 0
-1567 1566 0
-1567 1783 0
-1569 0
-1570 -1785 1571 0
-1571 1570 0
-1571 1785 0
-1572 -1786 1573 0
-1573 1572 0
-1573 1786 0
-1574 -1787 1575 0
-1575 1574 0
-1575 1787 0
-1577 0
-1578 -1789 1579 0
-1579 1578 0
-1579 1789 0
-1580 -1790 1581 0
-1581 1580 0
-1581 1790 0
-1582 -1791 1583 0
-1583 1582 0
-1583 1791 0
-1585 0
-1586 -1793 1587 0
-1587 1586 0
-1587 1793 0
-1588 -1794 1589 0
-1589 1588 0
-1589 1794 0
-1590 -1795 1591 0
-1591 1590 0
-1591 1795 0
-1593 0
-1594 -1797 1595 0
-1595 1594 0
-1595 1797 0
-1596 -1798 1597 0
-1597 1596 0
-1597 1798 0
-1598 -1799 1599 0
-1599 1598 0
-1599 1799 0
-1601 0
-1553 -1555 0
-1553 -1557 0
-1553 -1559 0
-1553 -1561 0
-1553 -1563 0
-1553 -1565 0
-1553 -1567 0
-1553 -1569 0
-1553 -1571 0
-1553 -1573 0
-1553 -1575 0
-1553 -1577 0
-1553 -1579 0
-1553 -1581 0
-1553 -1583 0
-1553 -1585 0
-1553 -1587 0
-1553 -1589 0
-1553 -1591 0
-1553 -1593 0
-1553 -1595 0
-1553 -1597 0
-1553 -1599 0
-1553 -1601 0
1553 1555 1557 1559 1561 1563 1565 1567 1569 1571 1573 1575 1577 1579 1581 1583 1585 1587 1589 1591 1593 1595 1597 1599 1601 0
-1613 -1777 1614 0
-1614 1613 0
-1614 1777 0
-1615 -1778 1616 0
-1616 1615 0
-1616 1778 0
-1617 -1779 1618 0
-1618 1617 0
-1618 1779 0
-1620 0
-1621 -1781 1622 0
-1622 1621 0
-1622 1781 0
-1623 -1782 1624 0
-1624 1623 0
-1624 1782 0
-1625 -1783 1626 0
-1626 1625 0
-1626 1783 0
-1628 0
-1629 -1785 1630 0
-1630 1629 0
-1630 1785 0
-1631 -1786 1632 0
-1632 1631 0
-1632 1786 0
-1633 -1787 1634 0
-1634 1633 0
-1634 1787 0
-1636 0
-1637 -1789 1638 0
-1638 1637 0
-1638 1789 0
-1639 -1790 1640 0
-1640 1639 0
-1640 1790 0
-1641 -1791 1642 0
-1642 1641 0
-1642 1791 0
-1644 0
-1645 -1793 1646 0
-1646 1645 0
-1646 1793 0
-1647 -1794 1648 0
-1648 1647 0
-1648 1794 0
-1649 -1795 1650 0
-1650 1649 0
-1650 1795 0
-1652 0
-1653 -1797 1654 0
-1654 1653 0
-1654 1797 0
-1655 -1798 1656 0
-1656 1655 0
-1656 1798 0
-1657 -1799 1658 0
-1658 1657 0
-1658 1799 0
-1660 0
-1612 -1614 0
-1612 -1616 0
-1612 -1618 0
-1612 -1620 0
-1612 -1622 0
-1612 -1624 0
-1612 -1626 0
-1612 -1628 0
-1612 -1630 0
-1612 -1632 0
-1612 -1634 0
-1612 -1636 0
-1612 -1638 0
-1612 -1640 0
-1612 -1642 0
-1612 -1644 0
-1612 -1646 0
-1612 -1648 0
-1612 -1650 0
-1612 -1652 0
-1612 -1654 0
-1612 -1656 0
-1612 -1658 0
-1612 -1660 0
1612 1614 1616 1618 1620 1622 1624 1626 1628 1630 1632 1634 1636 1638 1640 1642 1644 1646 1648 1650 1652 1654 1656 1658 1660 0
-1671 -1777 1672 0
-1672 1671 0
-1672 1777 0
-1673 -1778 1674 0
-1674 1673 0
-1674 1778 0
-1675 -1779 1676 0
-1676 1675 0
-1676 1779 0
-1678 0
-1679 -1781 1680 0
-1680 1679 0
-1680 1781 0
-1681 -1782 1682 0
-1682 1681 0
-1682 1782 0
-1683 -1783 1684 0
-1684 1683 0
-1684 1783 0
-1686 0
-1687 -1785 1688 0
-1688 1687 0
-1688 1785 0
-1689 -1786 1690 0
-1690 1689 0
-1690 1786 0
-1691 -1787 1692 0
-1692 1691 0
-1692 1787 0
-1694 0
-1695 -1789 1696 0
-1696 1695 0
-1696 1789 0
-1697 -1790 1698 0
-1698 1697 0
-1698 1790 0
-1699 -1791 1700 0
-1700 1699 0
-1700 1791 0
-1702 0
-1703 -1793 1704 0
-1704 1703 0
-1704 1793 0
-1705 -1794 1706 0
-1706 1705 0
-1706 1794 0
-1707 -1795 1708 0
-1708 1707 0
-1708 1795 0
-1710 0
-1711 -1797 1712 0
-1712 1711 0
-1712 1797 0
-1713 -1798 1714 0
-1714 1713 0
-1714 1798 0
-1715 -1799 1716 0
-1716 1715 0
-1716 1799 0
-1718 0
-1670 -1672 0
-1670 -1674 0
-1670 -1676 0
-1670 -1678 0
-1670 -1680 0
-1670 -1682 0
-1670 -1684 0
-1670 -1686 0
-1670 -1688 0
-1670 -1690 0
-1670 -1692 0
-1670 -1694 0
-1670 -1696 0
-1670 -1698 0
-1670 -1700 0
-1670 -1702 0
-1670 -1704 0
-1670 -1706 0
-1670 -1708 0
-1670 -1710 0
-1670 -1712 0
-1670 -1714 0
-1670 -1716 0
-1670 -1718 0
1670 1672 1674 1676 1678 1680 1682 1684 1686 1688 1690 1692 1694 1696 1698 1700 1702 1704 1706 1708 1710 1712 1714 1716 1718 0
-1728 -1777 1729 0
-1729 1728 0
-1729 1777 0
-1730 -1778 1731 0
-1731 1730 0
-1731 1778 0
-1732 -1779 1733 0
-1733 1732 0
-1733 1779 0
-1735 0
-1736 -1781 1737 0
-1737 1736 0
-1737 1781 0
-1738 -1782 1739 0
-1739 1738 0
-1739 1782 0
-1740 -1783 1741 0
-1741 1740 0
-1741 1783 0
-1743 0
-1744 -1785 1745 0
-1745 1744 0
-1745 1785 0
-1746 -1786 1747 0
-1747 1746 0
-1747 1786 0
-1748 -1787 1749 0
-1749 1748 0
-1749 1787 0
-1751 0
-1752 -1789 1753 0
-1753 1752 0
-1753 1789 0
-1754 -1790 1755 0
-1755 1754 0
-1755 1790 0
-1756 -1791 1757 0
-1757 1756 0
-1757 1791 0
-1759 0
-1760 -1793 1761 0
-1761 1760 0
-1761 1793 0
-1762 -1794 1763 0
-1763 1762 0
-1763 1794 0
-1764 -1795 1765 0
-1765 1764 0
-1765 1795 0
-1767 0
-1768 -1797 1769 0
-1769 1768 0
-1769 1797 0
-1770 -1798 1771 0
-1771 1770 0
-1771 1798 0
-1772 -1799 1773 0
-1773 1772 0
-1773 1799 0
-1775 0
-1727 -1729 0
-1727 -1731 0
-1727 -1733 0
-1727 -1735 0
-1727 -1737 0
-1727 -1739 0
-1727 -1741 0
-1727 -1743 0
-1727 -1745 0
-1727 -1747 0
-1727 -1749 0
-1727 -1751 0
-1727 -1753 0
-1727 -1755 0
-1727 -1757 0
-1727 -1759 0
-1727 -1761 0
-1727 -1763 0
-1727 -1765 0
-1727 -1767 0
-1727 -1769 0
-1727 -1771 0
-1727 -1773 0
-1727 -1775 0
1727 1729 1731 1733 1735 1737 1739 1741 1743 1745 1747 1749 1751 1753 1755 1757 1759 1761 1763 1765 1767 1769 1771 1773 1775 0
-1800 -1801 0
-1800 -1802 0
-1800 -1803 0
-1800 -1804 0
-1800 -1805 0
-1800 -1806 0
-1800 -1807 0
-1800 -1808 0
-1800 -1809 0
-1800 -1810 0
-1800 -1811 0
-1800 -1812 0
-1800 -1813 0
-1800 -1814 0
-1800 -1815 0
-1800 -1816 0
-1800 -1817 0
-1800 -1818 0
-1800 -1819 0
-1800 -1820 0
-1800 -1821 0
-1800 -1822 0
-1800 -1823 0
-1800 -1824 0
-1800 -1825 0
-1800 -1826 0
-1800 -1827 0
-1800 -1828 0
-1800 -1829 0
-1800 -1830 0
-1800 -1831 0
-1800 -1832 0
-1800 -1833 0
-1800 -1834 0
-1800 -1835 0
-1800 -1836 0
-1800 -1837 0
-1800 -1838 0
-1800 -1839 0
-1800 -1840 0
-1800 -1841 0
-1800 -1842 0
-1800 -1843 0
-1800 -1844 0
-1800 -1845 0
-1800 -1846 0
-1800 -1847 0
-1800 -1848 0
-1800 -1849 0
-1800 -1850 0
-1800 -1851 0
-1800 -1852 0
-1800 -1853 0
-1800 -1854 0
-1800 -1855 0
-1800 -1856 0
-1800 -1857 0
-1800 -1858 0
-1800 -1859 0
-1800 -1860 0
-1800 -1861 0
-1800 -1862 0
-1800 -1863 0
-1800 -1864 0
-1800 -1865 0
-1800 -1866 0
-1800 -1867 0
-1800 -1868 0
-1800 -1869 0
-1800 -1870 0
-1800 -1871 0
-1800 -1872 0
-1800 -1873 0
-1800 -1874 0
-1800 -1875 0
-1800 -1876 0
-1800 -1877 0
-1800 -1878 0
-1800 -1879 0
-1800 -1880 0
-1800 -1881 0
-1800 -1882 0
-1800 -1883 0
-1801 -1802 0
-1801 -1803 0
-1801 -1804 0
-1801 -1805 0
-1801 -1806 0
-1801 -1807 0
-1801 -1808 0
-1801 -1809 0
-1801 -1810 0
-1801 -1811 0
-1801 -1812 0
-1801 -1813 0
-1801 -1814 0
-1801 -1815 0
-1801 -1816 0
-1801 -1817 0
-1801 -1818 0
-1801 -1819 0
-1801 -1820 0
-1801 -1821 0
-1801 -1822 0
-1801 -1823 0
-1801 -1824 0
-1801 -1825 0
-1801 -1826 0
-1801 -1827 0
-1801 -1828 0
-1801 -1829 0
-1801 -1830 0
-1801 -1831 0
-1801 -1832 0
-1801 -1833 0
-1801 -1834 0
-1801 -1835 0
-1801 -1836 0
-1801 -1837 0
-1801 -1838 0
-1801 -1839 0
-1801 -1840 0
-1801 -1841 0
-1801 -1842 0
-1801 -1843 0
-1801 -1844 0
-1801 -1845 0
-1801 -1846 0
-1801 -1847 0
-1801 -1848 0
-1801 -1849 0
-1801 -1850 0
-1801 -1851 0
-1801 -1852 0
-1801 -1853 0
-1801 -1854 0
-1801 -1855 0
-1801 -1856 0
-1801 -1857 0
-1801 -1858 0
-1801 -1859 0
-1801 -1860 0
-1801 -1861 0
-1801 -1862 0
-1801 -1863 0
-1801 -1864 0
-1801 -1865 0
-1801 -1866 0
-1801 -1867 0
-1801 -1868 0
-1801 -1869 0
-1801 -1870 0
-1801 -1871 0
-1801 -1872 0
-1801 -1873 0
-1801 -1874 0
-1801 -1875 0
-1801 -1876 0
-1801 -1877 0
-1801 -1878 0
-1801 -1879 0
-1801 -1880 0
-1801 -1881 0
-1801 -1882 0
-1801 -1883 0
-1802 -1803 0
-1802 -1804 0
-1802 -1805 0
-1802 -1806 0
-1802 -1807 0
-1802 -1808 0
-1802 -1809 0
-1802 -1810 0
-1802 -1811 0
-1802 -1812 0
-1802 -1813 0
-1802 -1814 0
-1802 -1815 0
-1802 -1816 0
-1802 -1817 0
-1802 -1818 0
-1802 -1819 0
-1802 -1820 0
-1802 -1821 0
-1802 -1822 0
-1802 -1823 0
-1802 -1824 0
-1802 -1825 0
-1802 -1826 0
-1802 -1827 0
-1802 -1828 0
-1802 -1829 0
-1802 -1830 0
-1802 -1831 0
-1802 -1832 0
-1802 -1833 0
-1802 -1834 0
-1802 -1835 0
-1802 -1836 0
-1802 -1837 0
-1802 -1838 0
-1802 -1839 0
-1802 -1840 0
-1802 -1841 0
-1802 -1842 0
-1802 -1843 0
-1802 -1844 0
-1802 -1845 0
-1802 -1846 0
-1802 -1847 0
-1802 -1848 0
-1802 -1849 0
-1802 -1850 0
-1802 -1851 0
-1802 -1852 0
-1802 -1853 0
-1802 -1854 0
-1802 -1855 0
-1802 -1856 0
-1802 -1857 0
-1802 -1858 0
-1802 -1859 0
-1802 -1860 0
-1802 -1861 0
-1802 -1862 0
-1802 -1863 0
-1802 -1864 0
-1802 -1865 0
-1802 -1866 0
-1802 -1867 0
-1802 -1868 0
-1802 -1869 0
-1802 -1870 0
-1802 -1871 0
-1802 -1872 0
-1802 -1873 0
-1802 -1874 0
-1802 -1875 0
-1802 -1876 0
-1802 -1877 0
-1802 -1878 0
-1802 -1879 0
-1802 -1880 0
-1802 -1881 0
-1802 -1882 0
-1802 -1883 0
-1803 -1804 0
-1803 -1805 0
-1803 -1806 0
-1803 -1807 0
-1803 -1808 0
-1803 -1809 0
-1803 -1810 0
-1803 -1811 0
-1803 -1812 0
-1803 -1813 0
-1803 -1814 0
-1803 -1815 0
-1803 -1816 0
-1803 -1817 0
-1803 -1818 0
-1803 -1819 0
-1803 -1820 0
-1803 -1821 0
-1803 -1822 0
-1803 -1823 0
-1803 -1824 0
-1803 -1825 0
-1803 -1826 0
-1803 -1827 0
-1803 -1828 0
-1803 -1829 0
-1803 -1830 0
-1803 -1831 0
-1803 -1832 0
-1803 -1833 0
-1803 -1834 0
-1803 -1835 0
-1803 -1836 0
-1803 -1837 0
-1803 -1838 0
-1803 -1839 0
-1803 -1840 0
-1803 -1841 0
-1803 -1842 0
-1803 -1843 0
-1803 -1844 0
-1803 -1845 0
-1803 -1846 0
-1803 -1847 0
-1803 -1848 0
-1803 -1849 0
-1803 -1850 0
-1803 -1851 0
-1803 -1852 0
-1803 -1853 0
-1803 -1854 0
-1803 -1855 0
-1803 -1856 0
-1803 -1857 0
-1803 -1858 0
-1803 -1859 0
-1803 -1860 0
-1803 -1861 0
-1803 -1862 0
-1803 -1863 0
-1803 -1864 0
-1803 -1865 0
-1803 -1866 0
-1803 -1867 0
-1803 -1868 0
-1803 -1869 0
-1803 -1870 0
-1803 -1871 0
-1803 -1872 0
-1803 -1873 0
-1803 -1874 0
-1803 -1875 0
-1803 -1876 0
-1803 -1877 0
-1803 -1878 0
-1803 -1879 0
-1803 -1880 0
-1803 -1881 0
-1803 -1882 0
-1803 -1883 0
-1804 -1805 0
-1804 -1806 0
-1804 -1807 0
-1804 -1808 0
-1804 -1809 0
-1804 -1810 0
-1804 -1811 0
-1804 -1812 0
-1804 -1813 0
-1804 -1814 0
-1804 -1815 0
-1804 -1816 0
-1804 -1817 0
-1804 -1818 0
-1804 -1819 0
-1804 -1820 0
-1804 -1821 0
-1804 -1822 0
-1804 -1823 0
-1804 -1824 0
-1804 -1825 0
-1804 -1826 0
-1804 -1827 0
-1804 -1828 0
-1804 -1829 0
-1804 -1830 0
-1804 -1831 0
-1804 -1832 0
-1804 -1833 0
-1804 -1834 0
-1804 -1835 0
-1804 -1836 0
-1804 -1837 0
-1804 -1838 0
-1804 -1839 0
-1804 -1840 0
-1804 -1841 0
-1804 -1842 0
-1804 -1843 0
-1804 -1844 0
-1804 -1845 0
-1804 -1846 0
-1804 -1847 0
-1804 -1848 0
-1804 -1849 0
-1804 -1850 0
-1804 -1851 0
-1804 -1852 0
-1804 -1853 0
-1804 -1854 0
-1804 -1855 0
-1804 -1856 0
-1804 -1857 0
-1804 -1858 0
-1804 -1859 0
-1804 -1860 0
-1804 -1861 0
-1804 -1862 0
-1804 -1863 0
-1804 -1864 0
-1804 -1865 0
-1804 -1866 0
-1804 -1867 0
-1804 -1868 0
-1804 -1869 0
-1804 -1870 0
-1804 -1871 0
-1804 -1872 0
-1804 -1873 0
-1804 -1874 0
-1804 -1875 0
-1804 -1876 0
-1804 -1877 0
-1804 -1878 0
-1804 -1879 0
-1804 -1880 0
-1804 -1881 0
-1804 -1882 0
-1804 -1883 0
-1805 -1806 0
-1805 -1807 0
-1805 -1808 0
-1805 -1809 0
-1805 -1810 0
-1805 -1811 0
-1805 -1812 0
-1805 -1813 0
-1805 -1814 0
-1805 -1815 0
-1805 -1816 0
-1805 -1817 0
-1805 -1818 0
-1805 -1819 0
-1805 -1820 0
-1805 -1821 0
-1805 -1822 0
-1805 -1823 0
-1805 -1824 0
-1805 -1825 0
-1805 -1826 0
-1805 -1827 0
-1805 -1828 0
-1805 -1829 0
-1805 -1830 0
-1805 -1831 0
-1805 -1832 0
-1805 -1833 0
-1805 -1834 0
-1805 -1835 0
-1805 -1836 0
-1805 -1837 0
-1805 -1838 0
-1805 -1839 0
-1805 -1840 0
-1805 -1841 0
-1805 -1842 0
-1805 -1843 0
-1805 -1844 0
-1805 -1845 0
-1805 -1846 0
-1805 -1847 0
-1805 -1848 0
-1805 -1849 0
-1805 -1850 0
-1805 -1851 0
-1805 -1852 0
-1805 -1853 0
-1805 -1854 0
-1805 -1855 0
-1805 -1856 0
-1805 -1857 0
-1805 -1858 0
-1805 -1859 0
-1805 -1860 0
-1805 -1861 0
-1805 -1862 0
-1805 -1863 0
-1805 -1864 0
-1805 -1865 0
-1805 -1866 0
-1805 -1867 0
-1805 -1868 0
-1805 -1869 0
-1805 -1870 0
-1805 -1871 0
-1805 -1872 0
-1805 -1873 0
-1805 -1874 0
-1805 -1875 0
-1805 -1876 0
-1805 -1877 0
-1805 -1878 0
-1805 -1879 0
-1805 -1880 0
-1805 -1881 0
-1805 -1882 0
-1805 -1883 0
-1806 -1807 0
-1806 -1808 0
-1806 -1809 0
-1806 -1810 0
-1806 -1811 0
-1806 -1812 0
-1806 -1813 0
-1806 -1814 0
-1806 -1815 0
-1806 -1816 0
-1806 -1817 0
-1806 -1818 0
-1806 -1819 0
-1806 -1820 0
-1806 -1821 0
-1806 -1822 0
-1806 -1823 0
-1806 -1824 0
-1806 -1825 0
-1806 -1826 0
-1806 -1827 0
-1806 -1828 0
-1806 -1829 0
-1806 -1830 0
-1806 -1831 0
-1806 -1832 0
-1806 -1833 0
-1806 -1834 0
-1806 -1835 0
-1806 -1836 0
-1806 -1837 0
-1806 -1838 0
-1806 -1839 0
-1806 -1840 0
-1806 -1841 0
-1806 -1842 0
-1806 -1843 0
-1806 -1844 0
-1806 -1845 0
-1806 -1846 0
-1806 -1847 0
-1806 -1848 0
-1806 -1849 0
-1806 -1850 0
-1806 -1851 0
-1806 -1852 0
-1806 -1853 0
-1806 -1854 0
-1806 -1855 0
-1806 -1856 0
-1806 -1857 0
-1806 -1858 0
-1806 -1859 0
-1806 -1860 0
-1806 -1861 0
-1806 -1862 0
-1806 -1863 0
-1806 -1864 0
-1806 -1865 0
-1806 -1866 0
-1806 -1867 0
-1806 -1868 0
-1806 -1869 0
-1806 -1870 0
-1806 -1871 0
-1806 -1872 0
-1806 -1873 0
-1806 -1874 0
-1806 -1875 0
-1806 -1876 0
-1806 -1877 0
-1806 -1878 0
-1806 -1879 0
-1806 -1880 0
-1806 -1881 0
-1806 -1882 0
-1806 -1883 0
-1807 -1808 0
-1807 -1809 0
-1807 -1810 0
-1807 -1811 0
-1807 -1812 0
-1807 -1813 0
-1807 -1814 0
-1807 -1815 0
-1807 -1816 0
-1807 -1817 0
-1807 -1818 0
-1807 -1819 0
-1807 -1820 0
-1807 -1821 0
-1807 -1822 0
-1807 -1823 0
-1807 -1824 0
-1807 -1825 0
-1807 -1826 0
-1807 -1827 0
-1807 -1828 0
-1807 -1829 0
-1807 -1830 0
-1807 -1831 0
-1807 -1832 0
-1807 -1833 0
-1807 -1834 0
-1807 -1835 0
-1807 -1836 0
-1807 -1837 0
-1807 -1838 0
-1807 -1839 0
-1807 -1840 0
-1807 -1841 0
-1807 -1842 0
-1807 -1843 0
-1807 -1844 0
-1807 -1845 0
-1807 -1846 0
-1807 -1847 0
-1807 -1848 0
-1807 -1849 0
-1807 -1850 0
-1807 -1851 0
-1807 -1852 0
-1807 -1853 0
-1807 -1854 0
-1807 -1855 0
-1807 -1856 0
-1807 -1857 0
-1807 -1858 0
-1807 -1859 0
-1807 -1860 0
-1807 -1861 0
-1807 -1862 0
-1807 -1863 0
-1807 -1864 0
-1807 -1865 0
-1807 -1866 0
-1807 -1867 0
-1807 -1868 0
-1807 -1869 0
-1807 -1870 0
-1807 -1871 0
-1807 -1872 0
-1807 -1873 0
-1807 -1874 0
-1807 -1875 0
-1807 -1876 0
-1807 -1877 0
-1807 -1878 0
-1807 -1879 0
-1807 -1880 0
-1807 -1881 0
-1807 -1882 0
-1807 -1883 0
-1808 -1809 0
-1808 -1810 0
-1808 -1811 0
-1808 -1812 0
-1808 -1813 0
-1808 -1814 0
-1808 -1815 0
-1808 -1816 0
-1808 -1817 0
-1808 -1818 0
-1808 -1819 0
-1808 -1820 0
-1808 -1821 0
-1808 -1822 0
-1808 -1823 0
-1808 -1824 0
-1808 -1825 0
-1808 -1826 0
-1808 -1827 0
-1808 -1828 0
-1808 -1829 0
-1808 -1830 0
-1808 -1831 0
-1808 -1832 0
-1808 -1833 0
-1808 -1834 0
-1808 -1835 0
-1808 -1836 0
-1808 -1837 0
-1808 -1838 0
-1808 -1839 0
-1808 -1840 0
-1808 -1841 0
-1808 -1842 0
-1808 -1843 0
-1808 -1844 0
-1808 -1845 0
-1808 -1846 0
-1808 -1847 0
-1808 -1848 0
-1808 -1849 0
-1808 -1850 0
-1808 -1851 0
-1808 -1852 0
-1808 -1853 0
-1808 -1854 0
-1808 -1855 0
-1808 -1856 0
-1808 -1857 0
-1808 -1858 0
-1808 -1859 0
-1808 -1860 0
-1808 -1861 0
-1808 -1862 0
-1808 -1863 0
-1808 -1864 0
-1808 -1865 0
-1808 -1866 0
-1808 -1867 0
-1808 -1868 0
-1808 -1869 0
-1808 -1870 0
-1808 -1871 0
-1808 -1872 0
-1808 -1873 0
-1808 -1874 0
-1808 -1875 0
-1808 -1876 0
-1808 -1877 0
-1808 -1878 0
-1808 -1879 0
-1808 -1880 0
-1808 -1881 0
-1808 -1882 0
-1808 -1883 0
-1809 -1810 0
-1809 -1811 0
-1809 -1812 0
-1809 -1813 0
-1809 -1814 0
-1809 -1815 0
-1809 -1816 0
-1809 -1817 0
-1809 -1818 0
-1809 -1819 0
-1809 -1820 0
-1809 -1821 0
-1809 -1822 0
-1809 -1823 0
-1809 -1824 0
-1809 -1825 0
-1809 -1826 0
-1809 -1827 0
-1809 -1828 0
-1809 -1829 0
-1809 -1830 0
-1809 -1831 0
-1809 -1832 0
-1809 -1833 0
-1809 -1834 0
-1809 -1835 0
-1809 -1836 0
-1809 -1837 0
-1809 -1838 0
-1809 -1839 0
-1809 -1840 0
-1809 -1841 0
-1809 -1842 0
-1809 -1843 0
-1809 -1844 0
-1809 -1845 0
-1809 -1846 0
-1809 -1847 0
-1809 -1848 0
-1809 -1849 0
-1809 -1850 0
-1809 -1851 0
-1809 -1852 0
-1809 -1853 0
-1809 -1854 0
-1809 -1855 0
-1809 -1856 0
-1809 -1857 0
-1809 -1858 0
-1809 -1859 0
-1809 -1860 0
-1809 -1861 0
-1809 -1862 0
-1809 -1863 0
-1809 -1864 0
-1809 -1865 0
-1809 -1866 0
-1809 -1867 0
-1809 -1868 0
-1809 -1869 0
-1809 -1870 0
-1809 -1871 0
-1809 -1872 0
-1809 -1873 0
-1809 -1874 0
-1809 -1875 0
-1809 -1876 0
-1809 -1877 0
-1809 -1878 0
-1809 -1879 0
-1809 -1880 0
-1809 -1881 0
-1809 -1882 0
-1809 -1883 0
-1810 -1811 0
-1810 -1812 0
-1810 -1813 0
-1810 -1814 0
-1810 -1815 0
-1810 -1816 0
-1810 -1817 0
-1810 -1818 0
-1810 -1819 0
-1810 -1820 0
-1810 -1821 0
-1810 -1822 0
-1810 -1823 0
-1810 -1824 0
-1810 -1825 0
-1810 -1826 0
-1810 -1827 0
-1810 -1828 0
-1810 -1829 0
-1810 -1830 0
-1810 -1831 0
-1810 -1832 0
-1810 -1833 0
-1810 -1834 0
-1810 -1835 0
-1810 -1836 0
-1810 -1837 0
-1810 -1838 0
-1810 -1839 0
-1810 -1840 0
-1810 -1841 0
-1810 -1842 0
-1810 -1843 0
-1810 -1844 0
-1810 -1845 0
-1810 -1846 0
-1810 -1847 0
-1810 -1848 0
-1810 -1849 0
-1810 -1850 0
-1810 -1851 0
-1810 -1852 0
-1810 -1853 0
-1810 -1854 0
-1810 -1855 0
-1810 -1856 0
-1810 -1857 0
-1810 -1858 0
-1810 -1859 0
-1810 -1860 0
-1810 -1861 0
-1810 -1862 0
-1810 -1863 0
-1810 -1864 0
-1810 -1865 0
-1810 -1866 0
-1810 -1867 0
-1810 -1868 0
-1810 -1869 0
-1810 -1870 0
-1810 -1871 0
-1810 -1872 0
-1810 -1873 0
-1810 -1874 0
-1810 -1875 0
-1810 -1876 0
-1810 -1877 0
-1810 -1878 0
-1810 -1879 0
-1810 -1880 0
-1810 -1881 0
-1810 -1882 0
-1810 -1883 0
-1811 -1812 0
-1811 -1813 0
-1811 -1814 0
-1811 -1815 0
-1811 -1816 0
-1811 -1817 0
-1811 -1818 0
-1811 -1819 0
-1811 -1820 0
-1811 -1821 0
-1811 -1822 0
-1811 -1823 0
-1811 -1824 0
-1811 -1825 0
-1811 -1826 0
-1811 -1827 0
-1811 -1828 0
-1811 -1829 0
-1811 -1830 0
-1811 -1831 0
-1811 -1832 0
-1811 -1833 0
-1811 -1834 0
-1811 -1835 0
-1811 -1836 0
-1811 -1837 0
-1811 -1838 0
-1811 -1839 0
-1811 -1840 0
-1811 -1841 0
-1811 -1842 0
-1811 -1843 0
-1811 -1844 0
-1811 -1845 0
-1811 -1846 0
-1811 -1847 0
-1811 -1848 0
-1811 -1849 0
-1811 -1850 0
-1811 -1851 0
-1811 -1852 0
-1811 -1853 0
-1811 -1854 0
-1811 -1855 0
-1811 -1856 0
-1811 -1857 0
-1811 -1858 0
-1811 -1859 0
-1811 -1860 0
-1811 -1861 0
-1811 -1862 0
-1811 -1863 0
-1811 -1864 0
-1811 -1865 0
-1811 -1866 0
-1811 -1867 0
-1811 -1868 0
-1811 -1869 0
-1811 -1870 0
-1811 -1871 0
-1811 -1872 0
-1811 -1873 0
-1811 -1874 0
-1811 -1875 0
-1811 -1876 0
-1811 -1877 0
-1811 -1878 0
-1811 -1879 0
-1811 -1880 0
-1811 -1881 0
-1811 -1882 0
-1811 -1883 0
-1812 -1813 0
-1812 -1814 0
-1812 -1815 0
-1812 -1816 0
-1812 -1817 0
-1812 -1818 0
-1812 -1819 0
-1812 -1820 0
-1812 -1821 0
-1812 -1822 0
-1812 -1823 0
-1812 -1824 0
-1812 -1825 0
-1812 -1826 0
-1812 -1827 0
-1812 -1828 0
-1812 -1829 0
-1812 -1830 0
-1812 -1831 0
-1812 -1832 0
-1812 -1833 0
-1812 -1834 0
-1812 -1835 0
-1812 -1836 0
-1812 -1837 0
-1812 -1838 0
-1812 -1839 0
-1812 -1840 0
-1812 -1841 0
-1812 -1842 0
-1812 -1843 0
-1812 -1844 0
-1812 -1845 0
-1812 -1846 0
-1812 -1847 0
-1812 -1848 0
-1812 -1849 0
-1812 -1850 0
-1812 -1851 0
-1812 -1852 0
-1812 -1853 0
-1812 -1854 0
-1812 -1855 0
-1812 -1856 0
-1812 -1857 0
-1812 -1858 0
-1812 -1859 0
-1812 -1860 0
-1812 -1861 0
-1812 -1862 0
-1812 -1863 0
-1812 -1864 0
-1812 -1865 0
-1812 -1866 0
-1812 -1867 0
-1812 -1868 0
-1812 -1869 0
-1812 -1870 0
-1812 -1871 0
-1812 -1872 0
-1812 -1873 0
-1812 -1874 0
-1812 -1875 0
-1812 -1876 0
-1812 -1877 0
-1812 -1878 0
-1812 -1879 0
-1812 -1880 0
-1812 -1881 0
-1812 -1882 0
-1812 -1883 0
-1813 -1814 0
-1813 -1815 0
-1813 -1816 0
-1813 -1817 0
-1813 -1818 0
-1813 -1819 0
-1813 -1820 0
-1813 -1821 0
-1813 -1822 0
-1813 -1823 0
-1813 -1824 0
-1813 -1825 0
-1813 -1826 0
-1813 -1827 0
-1813 -1828 0
-1813 -1829 0
-1813 -1830 0
-1813 -1831 0
-1813 -1832 0
-1813 -1833 0
-1813 -1834 0
-1813 -1835 0
-1813 -1836 0
-1813 -1837 0
-1813 -1838 0
-1813 -1839 0
-1813 -1840 0
-1813 -1841 0
-1813 -1842 0
-1813 -1843 0
-1813 -1844 0
-1813 -1845 0
-1813 -1846 0
-1813 -1847 0
-1813 -1848 0
-1813 -1849 0
-1813 -1850 0
-1813 -1851 0
-1813 -1852 0
-1813 -1853 0
-1813 -1854 0
-1813 -1855 0
-1813 -1856 0
-1813 -1857 0
-1813 -1858 0
-1813 -1859 0
-1813 -1860 0
-1813 -1861 0
-1813 -1862 0
-1813 -1863 0
-1813 -1864 0
-1813 -1865 0
-1813 -1866 0
-1813 -1867 0
-1813 -1868 0
-1813 -1869 0
-1813 -1870 0
-1813 -1871 0
-1813 -1872 0
-1813 -1873 0
-1813 -1874 0
-1813 -1875 0
-1813 -1876 0
-1813 -1877 0
-1813 -1878 0
-1813 -1879 0
-1813 -1880 0
-1813 -1881 0
-1813 -1882 0
-1813 -1883 0
-1814 -1815 0
-1814 -1816 0
-1814 -1817 0
-1814 -1818 0
-1814 -1819 0
-1814 -1820 0
-1814 -1821 0
-1814 -1822 0
-1814 -1823 0
-1814 -1824 0
-1814 -1825 0
-1814 -1826 0
-1814 -1827 0
-1814 -1828 0
-1814 -1829 0
-1814 -1830 0
-1814 -1831 0
-1814 -1832 0
-1814 -1833 0
-1814 -1834 0
-1814 -1835 0
-1814 -1836 0
-1814 -1837 0
-1814 -1838 0
-1814 -1839 0
-1814 -1840 0
-1814 -1841 0
-1814 -1842 0
-1814 -1843 0
-1814 -1844 0
-1814 -1845 0
-1814 -1846 0
-1814 -1847 0
-1814 -1848 0
-1814 -1849 0
-1814 -1850 0
-1814 -1851 0
-1814 -1852 0
-1814 -1853 0
-1814 -1854 0
-1814 -1855 0
-1814 -1856 0
-1814 -1857 0
-1814 -1858 0
-1814 -1859 0
-1814 -1860 0
-1814 -1861 0
-1814 -1862 0
-1814 -1863 0
-1814 -1864 0
-1814 -1865 0
-1814 -1866 0
-1814 -1867 0
-1814 -1868 0
-1814 -1869 0
-1814 -1870 0
-1814 -1871 0
-1814 -1872 0
-1814 -1873 0
-1814 -1874 0
-1814 -1875 0
-1814 -1876 0
-1814 -1877 0
-1814 -1878 0
-1814 -1879 0
-1814 -1880 0
-1814 -1881 0
-1814 -1882 0
-1814 -1883 0
-1815 -1816 0
-1815 -1817 0
-1815 -1818 0
-1815 -1819 0
-1815 -1820 0
-1815 -1821 0
-1815 -1822 0
-1815 -1823 0
-1815 -1824 0
-1815 -1825 0
-1815 -1826 0
-1815 -1827 0
-1815 -1828 0
-1815 -1829 0
-1815 -1830 0
-1815 -1831 0
-1815 -1832 0
-1815 -1833 0
-1815 -1834 0
-1815 -1835 0
-1815 -1836 0
-1815 -1837 0
-1815 -1838 0
-1815 -1839 0
-1815 -1840 0
-1815 -1841 0
-1815 -1842 0
-1815 -1843 0
-1815 -1844 0
-1815 -1845 0
-1815 -1846 0
-1815 -1847 0
-1815 -1848 0
-1815 -1849 0
-1815 -1850 0
-1815 -1851 0
-1815 -1852 0
-1815 -1853 0
-1815 -1854 0
-1815 -1855 0
-1815 -1856 0
-1815 -1857 0
-1815 -1858 0
-1815 -1859 0
-1815 -1860 0
-1815 -1861 0
-1815 -1862 0
-1815 -1863 0
-1815 -1864 0
-1815 -1865 0
-1815 -1866 0
-1815 -1867 0
-1815 -1868 0
-1815 -1869 0
-1815 -1870 0
-1815 -1871 0
-1815 -1872 0
-1815 -1873 0
-1815 -1874 0
-1815 -1875 0
-1815 -1876 0
-1815 -1877 0
-1815 -1878 0
-1815 -1879 0
-1815 -1880 0
-1815 -1881 0
-1815 -1882 0
-1815 -1883 0
-1816 -1817 0
-1816 -1818 0
-1816 -1819 0
-1816 -1820 0
-1816 -1821 0
-1816 -1822 0
-1816 -1823 0
-1816 -1824 0
-1816 -1825 0
-1816 -1826 0
-1816 -1827 0
-1816 -1828 0
-1816 -1829 0
-1816 -1830 0
-1816 -1831 0
-1816 -1832 0
-1816 -1833 0
-1816 -1834 0
-1816 -1835 0
-1816 -1836 0
-1816 -1837 0
-1816 -1838 0
-1816 -1839 0
-1816 -1840 0
-1816 -1841 0
-1816 -1842 0
-1816 -1843 0
-1816 -1844 0
-1816 -1845 0
-1816 -1846 0
-1816 -1847 0
-1816 -1848 0
-1816 -1849 0
-1816 -1850 0
-1816 -1851 0
-1816 -1852 0
-1816 -1853 0
-1816 -1854 0
-1816 -1855 0
-1816 -1856 0
-1816 -1857 0
-1816 -1858 0
-1816 -1859 0
-1816 -1860 0
-1816 -1861 0
-1816 -1862 0
-1816 -1863 0
-1816 -1864 0
-1816 -1865 0
-1816 -1866 0
-1816 -1867 0
-1816 -1868 0
-1816 -1869 0
-1816 -1870 0
-1816 -1871 0
-1816 -1872 0
-1816 -1873 0
-1816 -1874 0
-1816 -1875 0
-1816 -1876 0
-1816 -1877 0
-1816 -1878 0
-1816 -1879 0
-1816 -1880 0
-1816 -1881 0
-1816 -1882 0
-1816 -1883 0
-1817 -1818 0
-1817 -1819 0
-1817 -1820 0
-1817 -1821 0
-1817 -1822 0
-1817 -1823 0
-1817 -1824 0
-1817 -1825 0
-1817 -1826 0
-1817 -1827 0
-1817 -1828 0
-1817 -1829 0
-1817 -1830 0
-1817 -1831 0
-1817 -1832 0
-1817 -1833 0
-1817 -1834 0
-1817 -1835 0
-1817 -1836 0
-1817 -1837 0
-1817 -1838 0
-1817 -1839 0
-1817 -1840 0
-1817 -1841 0
-1817 -1842 0
-1817 -1843 0
-1817 -1844 0
-1817 -1845 0
-1817 -1846 0
-1817 -1847 0
-1817 -1848 0
-1817 -1849 0
-1817 -1850 0
-1817 -1851 0
-1817 -1852 0
-1817 -1853 0
-1817 -1854 0
-1817 -1855 0
-1817 -1856 0
-1817 -1857 0
-1817 -1858 0
-1817 -1859 0
-1817 -1860 0
-1817 -1861 0
-1817 -1862 0
-1817 -1863 0
-1817 -1864 0
-1817 -1865 0
-1817 -1866 0
-1817 -1867 0
-1817 -1868 0
-1817 -1869 0
-1817 -1870 0
-1817 -1871 0
-1817 -1872 0
-1817 -1873 0
-1817 -1874 0
-1817 -1875 0
-1817 -1876 0
-1817 -1877 0
-1817 -1878 0
-1817 -1879 0
-1817 -1880 0
-1817 -1881 0
-1817 -1882 0
-1817 -1883 0
-1818 -1819 0
-1818 -1820 0
-1818 -1821 0
-1818 -1822 0
-1818 -1823 0
-1818 -1824 0
-1818 -1825 0
-1818 -1826 0
-1818 -1827 0
-1818 -1828 0
-1818 -1829 0
-1818 -1830 0
-1818 -1831 0
-1818 -1832 0
-1818 -1833 0
-1818 -1834 0
-1818 -1835 0
-1818 -1836 0
-1818 -1837 0
-1818 -1838 0
-1818 -1839 0
-1818 -1840 0
-1818 -1841 0
-1818 -1842 0
-1818 -1843 0
-1818 -1844 0
-1818 -1845 0
-1818 -1846 0
-1818 -1847 0
-1818 -1848 0
-1818 -1849 0
-1818 -1850 0
-1818 -1851 0
-1818 -1852 0
-1818 -1853 0
-1818 -1854 0
-1818 -1855 0
-1818 -1856 0
-1818 -1857 0
-1818 -1858 0
-1818 -1859 0
-1818 -1860 0
-1818 -1861 0
-1818 -1862 0
-1818 -1863 0
-1818 -1864 0
-1818 -1865 0
-1818 -1866 0
-1818 -1867 0
-1818 -1868 0
-1818 -1869 0
-1818 -1870 0
-1818 -1871 0
-1818 -1872 0
-1818 -1873 0
-1818 -1874 0
-1818 -1875 0
-1818 -1876 0
-1818 -1877 0
-1818 -1878 0
-1818 -1879 0
-1818 -1880 0
-1818 -1881 0
-1818 -1882 0
-1818 -1883 0
-1819 -1820 0
-1819 -1821 0
-1819 -1822 0
-1819 -1823 0
-1819 -1824 0
-1819 -1825 0
-1819 -1826 0
-1819 -1827 0
-1819 -1828 0
-1819 -1829 0
-1819 -1830 0
-1819 -1831 0
-1819 -1832 0
-1819 -1833 0
-1819 -1834 0
-1819 -1835 0
-1819 -1836 0
-1819 -1837 0
-1819 -1838 0
-1819 -1839 0
-1819 -1840 0
-1819 -1841 0
-1819 -1842 0
-1819 -1843 0
-1819 -1844 0
-1819 -1845 0
-1819 -1846 0
-1819 -1847 0
-1819 -1848 0
-1819 -1849 0
-1819 -1850 0
-1819 -1851 0
-1819 -1852 0
-1819 -1853 0
-1819 -1854 0
-1819 -1855 0
-1819 -1856 0
-1819 -1857 0
-1819 -1858 0
-1819 -1859 0
-1819 -1860 0
-1819 -1861 0
-1819 -1862 0
-1819 -1863 0
-1819 -1864 0
-1819 -1865 0
-1819 -1866 0
-1819 -1867 0
-1819 -1868 0
-1819 -1869 0
-1819 -1870 0
-1819 -1871 0
-1819 -1872 0
-1819 -1873 0
-1819 -1874 0
-1819 -1875 0
-1819 -1876 0
-1819 -1877 0
-1819 -1878 0
-1819 -1879 0
-1819 -1880 0
-1819 -1881 0
-1819 -1882 0
-1819 -1883 0
-1820 -1821 0
-1820 -1822 0
-1820 -1823 0
-1820 -1824 0
-1820 -1825 0
-1820 -1826 0
-1820 -1827 0
-1820 -1828 0
-1820 -1829 0
-1820 -1830 0
-1820 -1831 0
-1820 -1832 0
-1820 -1833 0
-1820 -1834 0
-1820 -1835 0
-1820 -1836 0
-1820 -1837 0
-1820 -1838 0
-1820 -1839 0
-1820 -1840 0
-1820 -1841 0
-1820 -1842 0
-1820 -1843 0
-1820 -1844 0
-1820 -1845 0
-1820 -1846 0
-1820 -1847 0
-1820 -1848 0
-1820 -1849 0
-1820 -1850 0
-1820 -1851 0
-1820 -1852 0
-1820 -1853 0
-1820 -1854 0
-1820 -1855 0
-1820 -1856 0
-1820 -1857 0
-1820 -1858 0
-1820 -1859 0
-1820 -1860 0
-1820 -1861 0
-1820 -1862 0
-1820 -1863 0
-1820 -1864 0
-1820 -1865 0
-1820 -1866 0
-1820 -1867 0
-1820 -1868 0
-1820 -1869 0
-1820 -1870 0
-1820 -1871 0
-1820 -1872 0
-1820 -1873 0
-1820 -1874 0
-1820 -1875 0
-1820 -1876 0
-1820 -1877 0
-1820 -1878 0
-1820 -1879 0
-1820 -1880 0
-1820 -1881 0
-1820 -1882 0
-1820 -1883 0
-1821 -1822 0
-1821 -1823 0
-1821 -1824 0
-1821 -1825 0
-1821 -1826 0
-1821 -1827 0
-1821 -1828 0
-1821 -1829 0
-1821 -1830 0
-1821 -1831 0
-1821 -1832 0
-1821 -1833 0
-1821 -1834 0
-1821 -1835 0
-1821 -1836 0
-1821 -1837 0
-1821 -1838 0
-1821 -1839 0
-1821 -1840 0
-1821 -1841 0
-1821 -1842 0
-1821 -1843 0
-1821 -1844 0
-1821 -1845 0
-1821 -1846 0
-1821 -1847 0
-1821 -1848 0
-1821 -1849 0
-1821 -1850 0
-1821 -1851 0
-1821 -1852 0
-1821 -1853 0
-1821 -1854 0
-1821 -1855 0
-1821 -1856 0
-1821 -1857 0
-1821 -1858 0
-1821 -1859 0
-1821 -1860 0
-1821 -1861 0
-1821 -1862 0
-1821 -1863 0
-1821 -1864 0
-1821 -1865 0
-1821 -1866 0
-1821 -1867 0
-1821 -1868 0
-1821 -1869 0
-1821 -1870 0
-1821 -1871 0
-1821 -1872 0
-1821 -1873 0
-1821 -1874 0
-1821 -1875 0
-1821 -1876 0
-1821 -1877 0
-1821 -1878 0
-1821 -1879 0
-1821 -1880 0
-1821 -1881 0
-1821 -1882 0
-1821 -1883 0
-1822 -1823 0
-1822 -1824 0
-1822 -1825 0
-1822 -1826 0
-1822 -1827 0
-1822 -1828 0
-1822 -1829 0
-1822 -1830 0
-1822 -1831 0
-1822 -1832 0
-1822 -1833 0
-1822 -1834 0
-1822 -1835 0
-1822 -1836 0
-1822 -1837 0
-1822 -1838 0
-1822 -1839 0
-1822 -1840 0
-1822 -1841 0
-1822 -1842 0
-1822 -1843 0
-1822 -1844 0
-1822 -1845 0
-1822 -1846 0
-1822 -1847 0
-1822 -1848 0
-1822 -1849 0
-1822 -1850 0
-1822 -1851 0
-1822 -1852 0
-1822 -1853 0
-1822 -1854 0
-1822 -1855 0
-1822 -1856 0
-1822 -1857 0
-1822 -1858 0
-1822 -1859 0
-1822 -1860 0
-1822 -1861 0
-1822 -1862 0
-1822 -1863 0
-1822 -1864 0
-1822 -1865 0
-1822 -1866 0
-1822 -1867 0
-1822 -1868 0
-1822 -1869 0
-1822 -1870 0
-1822 -1871 0
-1822 -1872 0
-1822 -1873 0
-1822 -1874 0
-1822 -1875 0
-1822 -1876 0
-1822 -1877 0
-1822 -1878 0
-1822 -1879 0
-1822 -1880 0
-1822 -1881 0
-1822 -1882 0
-1822 -1883 0
-1823 -1824 0
-1823 -1825 0
-1823 -1826 0
-1823 -1827 0
-1823 -1828 0
-1823 -1829 0
-1823 -1830 0
-1823 -1831 0
-1823 -1832 0
-1823 -1833 0
-1823 -1834 0
-1823 -1835 0
-1823 -1836 0
-1823 -1837 0
-1823 -1838 0
-1823 -1839 0
-1823 -1840 0
-1823 -1841 0
-1823 -1842 0
-1823 -1843 0
-1823 -1844 0
-1823 -1845 0
-1823 -1846 0
-1823 -1847 0
-1823 -1848 0
-1823 -1849 0
-1823 -1850 0
-1823 -1851 0
-1823 -1852 0
-1823 -1853 0
-1823 -1854 0
-1823 -1855 0
-1823 -1856 0
-1823 -1857 0
-1823 -1858 0
-1823 -1859 0
-1823 -1860 0
-1823 -1861 0
-1823 -1862 0
-1823 -1863 0
-1823 -1864 0
-1823 -1865 0
-1823 -1866 0
-1823 -1867 0
-1823 -1868 0
-1823 -1869 0
-1823 -1870 0
-1823 -1871 0
-1823 -1872 0
-1823 -1873 0
-1823 -1874 0
-1823 -1875 0
-1823 -1876 0
-1823 -1877 0
-1823 -1878 0
-1823 -1879 0
-1823 -1880 0
-1823 -1881 0
-1823 -1882 0
-1823 -1883 0
-1824 -1825 0
-1824 -1826 0
-1824 -1827 0
-1824 -1828 0
-1824 -1829 0
-1824 -1830 0
-1824 -1831 0
-1824 -1832 0
-1824 -1833 0
-1824 -1834 0
-1824 -1835 0
-1824 -1836 0
-1824 -1837 0
-1824 -1838 0
-1824 -1839 0
-1824 -1840 0
-1824 -1841 0
-1824 -1842 0
-1824 -1843 0
-1824 -1844 0
-1824 -1845 0
-1824 -1846 0
-1824 -1847 0
-1824 -1848 0
-1824 -1849 0
-1824 -1850 0
-1824 -1851 0
-1824 -1852 0
-1824 -1853 0
-1824 -1854 0
-1824 -1855 0
-1824 -1856 0
-1824 -1857 0
-1824 -1858 0
-1824 -1859 0
-1824 -1860 0
-1824 -1861 0
-1824 -1862 0
-1824 -1863 0
-1824 -1864 0
-1824 -1865 0
-1824 -1866 0
-1824 -1867 0
-1824 -1868 0
-1824 -1869 0
-1824 -1870 0
-1824 -1871 0
-1824 -1872 0
-1824 -1873 0
-1824 -1874 0
-1824 -1875 0
-1824 -1876 0
-1824 -1877 0
-1824 -1878 0
-1824 -1879 0
-1824 -1880 0
-1824 -1881 0
-1824 -1882 0
-1824 -1883 0
-1825 -1826 0
-1825 -1827 0
-1825 -1828 0
-1825 -1829 0
-1825 -1830 0
-1825 -1831 0
-1825 -1832 0
-1825 -1833 0
-1825 -1834 0
-1825 -1835 0
-1825 -1836 0
-1825 -1837 0
-1825 -1838 0
-1825 -1839 0
-1825 -1840 0
-1825 -1841 0
-1825 -1842 0
-1825 -1843 0
-1825 -1844 0
-1825 -1845 0
-1825 -1846 0
-1825 -1847 0
-1825 -1848 0
-1825 -1849 0
-1825 -1850 0
-1825 -1851 0
-1825 -1852 0
-1825 -1853 0
-1825 -1854 0
-1825 -1855 0
-1825 -1856 0
-1825 -1857 0
-1825 -1858 0
-1825 -1859 0
-1825 -1860 0
-1825 -1861 0
-1825 -1862 0
-1825 -1863 0
-1825 -1864 0
-1825 -1865 0
-1825 -1866 0
-1825 -1867 0
-1825 -1868 0
-1825 -1869 0
-1825 -1870 0
-1825 -1871 0
-1825 -1872 0
-1825 -1873 0
-1825 -1874 0
-1825 -1875 0
-1825 -1876 0
-1825 -1877 0
-1825 -1878 0
-1825 -1879 0
-1825 -1880 0
-1825 -1881 0
-1825 -1882 0
-1825 -1883 0
-1826 -1827 0
-1826 -1828 0
-1826 -1829 0
-1826 -1830 0
-1826 -1831 0
-1826 -1832 0
-1826 -1833 0
-1826 -1834 0
-1826 -1835 0
-1826 -1836 0
-1826 -1837 0
-1826 -1838 0
-1826 -1839 0
-1826 -1840 0
-1826 -1841 0
-1826 -1842 0
-1826 -1843 0
-1826 -1844 0
-1826 -1845 0
-1826 -1846 0
-1826 -1847 0
-1826 -1848 0
-1826 -1849 0
-1826 -1850 0
-1826 -1851 0
-1826 -1852 0
-1826 -1853 0
-1826 -1854 0
-1826 -1855 0
-1826 -1856 0
-1826 -1857 0
-1826 -1858 0
-1826 -1859 0
-1826 -1860 0
-1826 -1861 0
-1826 -1862 0
-1826 -1863 0
-1826 -1864 0
-1826 -1865 0
-1826 -1866 0
-1826 -1867 0
-1826 -1868 0
-1826 -1869 0
-1826 -1870 0
-1826 -1871 0
-1826 -1872 0
-1826 -1873 0
-1826 -1874 0
-1826 -1875 0
-1826 -1876 0
-1826 -1877 0
-1826 -1878 0
-1826 -1879 0
-1826 -1880 0
-1826 -1881 0
-1826 -1882 0
-1826 -1883 0
-1827 -1828 0
-1827 -1829 0
-1827 -1830 0
-1827 -1831 0
-1827 -1832 0
-1827 -1833 0
-1827 -1834 0
-1827 -1835 0
-1827 -1836 0
-1827 -1837 0
-1827 -1838 0
-1827 -1839 0
-1827 -1840 0
-1827 -1841 0
-1827 -1842 0
-1827 -1843 0
-1827 -1844 0
-1827 -1845 0
-1827 -1846 0
-1827 -1847 0
-1827 -1848 0
-1827 -1849 0
-1827 -1850 0
-1827 -1851 0
-1827 -1852 0
-1827 -1853 0
-1827 -1854 0
-1827 -1855 0
-1827 -1856 0
-1827 -1857 0
-1827 -1858 0
-1827 -1859 0
-1827 -1860 0
-1827 -1861 0
-1827 -1862 0
-1827 -1863 0
-1827 -1864 0
-1827 -1865 0
-1827 -1866 0
-1827 -1867 0
-1827 -1868 0
-1827 -1869 0
-1827 -1870 0
-1827 -1871 0
-1827 -1872 0
-1827 -1873 0
-1827 -1874 0
-1827 -1875 0
-1827 -1876 0
-1827 -1877 0
-1827 -1878 0
-1827 -1879 0
-1827 -1880 0
-1827 -1881 0
-1827 -1882 0
-1827 -1883 0
-1828 -1829 0
-1828 -1830 0
-1828 -1831 0
-1828 -1832 0
-1828 -1833 0
-1828 -1834 0
-1828 -1835 0
-1828 -1836 0
-1828 -1837 0
-1828 -1838 0
-1828 -1839 0
-1828 -1840 0
-1828 -1841 0
-1828 -1842 0
-1828 -1843 0
-1828 -1844 0
-1828 -1845 0
-1828 -1846 0
-1828 -1847 0
-1828 -1848 0
-1828 -1849 0
-1828 -1850 0
-1828 -1851 0
-1828 -1852 0
-1828 -1853 0
-1828 -1854 0
-1828 -1855 0
-1828 -1856 0
-1828 -1857 0
-1828 -1858 0
-1828 -1859 0
-1828 -1860 0
-1828 -1861 0
-1828 -1862 0
-1828 -1863 0
-1828 -1864 0
-1828 -1865 0
-1828 -1866 0
-1828 -1867 0
-1828 -1868 0
-1828 -1869 0
-1828 -1870 0
-1828 -1871 0
-1828 -1872 0
-1828 -1873 0
-1828 -1874 0
-1828 -1875 0
-1828 -1876 0
-1828 -1877 0
-1828 -1878 0
-1828 -1879 0
-1828 -1880 0
-1828 -1881 0
-1828 -1882 0
-1828 -1883 0
-1829 -1830 0
-1829 -1831 0
-1829 -1832 0
-1829 -1833 0
-1829 -1834 0
-1829 -1835 0
-1829 -1836 0
-1829 -1837 0
-1829 -1838 0
-1829 -1839 0
-1829 -1840 0
-1829 -1841 0
-1829 -1842 0
-1829 -1843 0
-1829 -1844 0
-1829 -1845 0
-1829 -1846 0
-1829 -1847 0
-1829 -1848 0
-1829 -1849 0
-1829 -1850 0
-1829 -1851 0
-1829 -1852 0
-1829 -1853 0
-1829 -1854 0
-1829 -1855 0
-1829 -1856 0
-1829 -1857 0
-1829 -1858 0
-1829 -1859 0
-1829 -1860 0
-1829 -1861 0
-1829 -1862 0
-1829 -1863 0
-1829 -1864 0
-1829 -1865 0
-1829 -1866 0
-1829 -1867 0
-1829 -1868 0
-1829 -1869 0
-1829 -1870 0
-1829 -1871 0
-1829 -1872 0
-1829 -1873 0
-1829 -1874 0
-1829 -1875 0
-1829 -1876 0
-1829 -1877 0
-1829 -1878 0
-1829 -1879 0
-1829 -1880 0
-1829 -1881 0
-1829 -1882 0
-1829 -1883 0
-1830 -1831 0
-1830 -1832 0
-1830 -1833 0
-1830 -1834 0
-1830 -1835 0
-1830 -1836 0
-1830 -1837 0
-1830 -1838 0
-1830 -1839 0
-1830 -1840 0
-1830 -1841 0
-1830 -1842 0
-1830 -1843 0
-1830 -1844 0
-1830 -1845 0
-1830 -1846 0
-1830 -1847 0
-1830 -1848 0
-1830 -1849 0
-1830 -1850 0
-1830 -1851 0
-1830 -1852 0
-1830 -1853 0
-1830 -1854 0
-1830 -1855 0
-1830 -1856 0
-1830 -1857 0
-1830 -1858 0
-1830 -1859 0
-1830 -1860 0
-1830 -1861 0
-1830 -1862 0
-1830 -1863 0
-1830 -1864 0
-1830 -1865 0
-1830 -1866 0
-1830 -1867 0
-1830 -1868 0
-1830 -1869 0
-1830 -1870 0
-1830 -1871 0
-1830 -1872 0
-1830 -1873 0
-1830 -1874 0
-1830 -1875 0
-1830 -1876 0
-1830 -1877 0
-1830 -1878 0
-1830 -1879 0
-1830 -1880 0
-1830 -1881 0
-1830 -1882 0
-1830 -1883 0
-1831 -1832 0
-1831 -1833 0
-1831 -1834 0
-1831 -1835 0
-1831 -1836 0
-1831 -1837 0
-1831 -1838 0
-1831 -1839 0
-1831 -1840 0
-1831 -1841 0
-1831 -1842 0
-1831 -1843 0
-1831 -1844 0
-1831 -1845 0
-1831 -1846 0
-1831 -1847 0
-1831 -1848 0
-1831 -1849 0
-1831 -1850 0
-1831 -1851 0
-1831 -1852 0
-1831 -1853 0
-1831 -1854 0
-1831 -1855 0
-1831 -1856 0
-1831 -1857 0
-1831 -1858 0
-1831 -1859 0
-1831 -1860 0
-1831 -1861 0
-1831 -1862 0
-1831 -1863 0
-1831 -1864 0
-1831 -1865 0
-1831 -1866 0
-1831 -1867 0
-1831 -1868 0
-1831 -1869 0
-1831 -1870 0
-1831 -1871 0
-1831 -1872 0
-1831 -1873 0
-1831 -1874 0
-1831 -1875 0
-1831 -1876 0
-1831 -1877 0
-1831 -1878 0
-1831 -1879 0
-1831 -1880 0
-1831 -1881 0
-1831 -1882 0
-1831 -1883 0
-1832 -1833 0
-1832 -1834 0
-1832 -1835 0
-1832 -1836 0
-1832 -1837 0
-1832 -1838 0
-1832 -1839 0
-1832 -1840 0
-1832 -1841 0
-1832 -1842 0
-1832 -1843 0
-1832 -1844 0
-1832 -1845 0
-1832 -1846 0
-1832 -1847 0
-1832 -1848 0
-1832 -1849 0
-1832 -1850 0
-1832 -1851 0
-1832 -1852 0
-1832 -1853 0
-1832 -1854 0
-1832 -1855 0
-1832 -1856 0
-1832 -1857 0
-1832 -1858 0
-1832 -1859 0
-1832 -1860 0
-1832 -1861 0
-1832 -1862 0
-1832 -1863 0
-1832 -1864 0
-1832 -1865 0
-1832 -1866 0
-1832 -1867 0
-1832 -1868 0
-1832 -1869 0
-1832 -1870 0
-1832 -1871 0
-1832 -1872 0
-1832 -1873 0
-1832 -1874 0
-1832 -1875 0
-1832 -1876 0
-1832 -1877 0
-1832 -1878 0
-1832 -1879 0
-1832 -1880 0
-1832 -1881 0
-1832 -1882 0
-1832 -1883 0
-1833 -1834 0
-1833 -1835 0
-1833 -1836 0
-1833 -1837 0
-1833 -1838 0
-1833 -1839 0
-1833 -1840 0
-1833 -1841 0
-1833 -1842 0
-1833 -1843 0
-1833 -1844 0
-1833 -1845 0
-1833 -1846 0
-1833 -1847 0
-1833 -1848 0
-1833 -1849 0
-1833 -1850 0
-1833 -1851 0
-1833 -1852 0
-1833 -1853 0
-1833 -1854 0
-1833 -1855 0
-1833 -1856 0
-1833 -1857 0
-1833 -1858 0
-1833 -1859 0
-1833 -1860 0
-1833 -1861 0
-1833 -1862 0
-1833 -1863 0
-1833 -1864 0
-1833 -1865 0
-1833 -1866 0
-1833 -1867 0
-1833 -1868 0
-1833 -1869 0
-1833 -1870 0
-1833 -1871 0
-1833 -1872 0
-1833 -1873 0
-1833 -1874 0
-1833 -1875 0
-1833 -1876 0
-1833 -1877 0
-1833 -1878 0
-1833 -1879 0
-1833 -1880 0
-1833 -1881 0
-1833 -1882 0
-1833 -1883 0
-1834 -1835 0
-1834 -1836 0
-1834 -1837 0
-1834 -1838 0
-1834 -1839 0
-1834 -1840 0
-1834 -1841 0
-1834 -1842 0
-1834 -1843 0
-1834 -1844 0
-1834 -1845 0
-1834 -1846 0
-1834 -1847 0
-1834 -1848 0
-1834 -1849 0
-1834 -1850 0
-1834 -1851 0
-1834 -1852 0
-1834 -1853 0
-1834 -1854 0
-1834 -1855 0
-1834 -1856 0
-1834 -1857 0
-1834 -1858 0
-1834 -1859 0
-1834 -1860 0
-1834 -1861 0
-1834 -1862 0
-1834 -1863 0
-1834 -1864 0
-1834 -1865 0
-1834 -1866 0
-1834 -1867 0
-1834 -1868 0
-1834 -1869 0
-1834 -1870 0
-1834 -1871 0
-1834 -1872 0
-1834 -1873 0
-1834 -1874 0
-1834 -1875 0
-1834 -1876 0
-1834 -1877 0
-1834 -1878 0
-1834 -1879 0
-1834 -1880 0
-1834 -1881 0
-1834 -1882 0
-1834 -1883 0
-1835 -1836 0
-1835 -1837 0
-1835 -1838 0
-1835 -1839 0
-1835 -1840 0
-1835 -1841 0
-1835 -1842 0
-1835 -1843 0
-1835 -1844 0
-1835 -1845 0
-1835 -1846 0
-1835 -1847 0
-1835 -1848 0
-1835 -1849 0
-1835 -1850 0
-1835 -1851 0
-1835 -1852 0
-1835 -1853 0
-1835 -1854 0
-1835 -1855 0
-1835 -1856 0
-1835 -1857 0
-1835 -1858 0
-1835 -1859 0
-1835 -1860 0
-1835 -1861 0
-1835 -1862 0
-1835 -1863 0
-1835 -1864 0
-1835 -1865 0
-1835 -1866 0
-1835 -1867 0
-1835 -1868 0
-1835 -1869 0
-1835 -1870 0
-1835 -1871 0
-1835 -1872 0
-1835 -1873 0
-1835 -1874 0
-1835 -1875 0
-1835 -1876 0
-1835 -1877 0
-1835 -1878 0
-1835 -1879 0
-1835 -1880 0
-1835 -1881 0
-1835 -1882 0
-1835 -1883 0
-1836 -1837 0
-1836 -1838 0
-1836 -1839 0
-1836 -1840 0
-1836 -1841 0
-1836 -1842 0
-1836 -1843 0
-1836 -1844 0
-1836 -1845 0
-1836 -1846 0
-1836 -1847 0
-1836 -1848 0
-1836 -1849 0
-1836 -1850 0
-1836 -1851 0
-1836 -1852 0
-1836 -1853 0
-1836 -1854 0
-1836 -1855 0
-1836 -1856 0
-1836 -1857 0
-1836 -1858 0
-1836 -1859 0
-1836 -1860 0
-1836 -1861 0
-1836 -1862 0
-1836 -1863 0
-1836 -1864 0
-1836 -1865 0
-1836 -1866 0
-1836 -1867 0
-1836 -1868 0
-1836 -1869 0
-1836 -1870 0
-1836 -1871 0
-1836 -1872 0
-1836 -1873 0
-1836 -1874 0
-1836 -1875 0
-1836 -1876 0
-1836 -1877 0
-1836 -1878 0
-1836 -1879 0
-1836 -1880 0
-1836 -1881 0
-1836 -1882 0
-1836 -1883 0
-1837 -1838 0
-1837 -1839 0
-1837 -1840 0
-1837 -1841 0
-1837 -1842 0
-1837 -1843 0
-1837 -1844 0
-1837 -1845 0
-1837 -1846 0
-1837 -1847 0
-1837 -1848 0
-1837 -1849 0
-1837 -1850 0
-1837 -1851 0
-1837 -1852 0
-1837 -1853 0
-1837 -1854 0
-1837 -1855 0
-1837 -1856 0
-1837 -1857 0
-1837 -1858 0
-1837 -1859 0
-1837 -1860 0
-1837 -1861 0
-1837 -1862 0
-1837 -1863 0
-1837 -1864 0
-1837 -1865 0
-1837 -1866 0
-1837 -1867 0
-1837 -1868 0
-1837 -1869 0
-1837 -1870 0
-1837 -1871 0
-1837 -1872 0
-1837 -1873 0
-1837 -1874 0
-1837 -1875 0
-1837 -1876 0
-1837 -1877 0
-1837 -1878 0
-1837 -1879 0
-1837 -1880 0
-1837 -1881 0
-1837 -1882 0
-1837 -1883 0
-1838 -1839 0
-1838 -1840 0
-1838 -1841 0
-1838 -1842 0
-1838 -1843 0
-1838 -1844 0
-1838 -1845 0
-1838 -1846 0
-1838 -1847 0
-1838 -1848 0
-1838 -1849 0
-1838 -1850 0
-1838 -1851 0
-1838 -1852 0
-1838 -1853 0
-1838 -1854 0
-1838 -1855 0
-1838 -1856 0
-1838 -1857 0
-1838 -1858 0
-1838 -1859 0
-1838 -1860 0
-1838 -1861 0
-1838 -1862 0
-1838 -1863 0
-1838 -1864 0
-1838 -1865 0
-1838 -1866 0
-1838 -1867 0
-1838 -1868 0
-1838 -1869 0
-1838 -1870 0
-1838 -1871 0
-1838 -1872 0
-1838 -1873 0
-1838 -1874 0
-1838 -1875 0
-1838 -1876 0
-1838 -1877 0
-1838 -1878 0
-1838 -1879 0
-1838 -1880 0
-1838 -1881 0
-1838 -1882 0
-1838 -1883 0
-1839 -1840 0
-1839 -1841 0
-1839 -1842 0
-1839 -1843 0
-1839 -1844 0
-1839 -1845 0
-1839 -1846 0
-1839 -1847 0
-1839 -1848 0
-1839 -1849 0
-1839 -1850 0
-1839 -1851 0
-1839 -1852 0
-1839 -1853 0
-1839 -1854 0
-1839 -1855 0
-1839 -1856 0
-1839 -1857 0
-1839 -1858 0
-1839 -1859 0
-1839 -1860 0
-1839 -1861 0
-1839 -1862 0
-1839 -1863 0
-1839 -1864 0
-1839 -1865 0
-1839 -1866 0
-1839 -1867 0
-1839 -1868 0
-1839 -1869 0
-1839 -1870 0
-1839 -1871 0
-1839 -1872 0
-1839 -1873 0
-1839 -1874 0
-1839 -1875 0
-1839 -1876 0
-1839 -1877 0
-1839 -1878 0
-1839 -1879 0
-1839 -1880 0
-1839 -1881 0
-1839 -1882 0
-1839 -1883 0
-1840 -1841 0
-1840 -1842 0
-1840 -1843 0
-1840 -1844 0
-1840 -1845 0
-1840 -1846 0
-1840 -1847 0
-1840 -1848 0
-1840 -1849 0
-1840 -1850 0
-1840 -1851 0
-1840 -1852 0
-1840 -1853 0
-1840 -1854 0
-1840 -1855 0
-1840 -1856 0
-1840 -1857 0
-1840 -1858 0
-1840 -1859 0
-1840 -1860 0
-1840 -1861 0
-1840 -1862 0
-1840 -1863 0
-1840 -1864 0
-1840 -1865 0
-1840 -1866 0
-1840 -1867 0
-1840 -1868 0
-1840 -1869 0
-1840 -1870 0
-1840 -1871 0
-1840 -1872 0
-1840 -1873 0
-1840 -1874 0
-1840 -1875 0
-1840 -1876 0
-1840 -1877 0
-1840 -1878 0
-1840 -1879 0
-1840 -1880 0
-1840 -1881 0
-1840 -1882 0
-1840 -1883 0
-1841 -1842 0
-1841 -1843 0
-1841 -1844 0
-1841 -1845 0
-1841 -1846 0
-1841 -1847 0
-1841 -1848 0
-1841 -1849 0
-1841 -1850 0
-1841 -1851 0
-1841 -1852 0
-1841 -1853 0
-1841 -1854 0
-1841 -1855 0
-1841 -1856 0
-1841 -1857 0
-1841 -1858 0
-1841 -1859 0
-1841 -1860 0
-1841 -1861 0
-1841 -1862 0
-1841 -1863 0
-1841 -1864 0
-1841 -1865 0
-1841 -1866 0
-1841 -1867 0
-1841 -1868 0
-1841 -1869 0
-1841 -1870 0
-1841 -1871 0
-1841 -1872 0
-1841 -1873 0
-1841 -1874 0
-1841 -1875 0
-1841 -1876 0
-1841 -1877 0
-1841 -1878 0
-1841 -1879 0
-1841 -1880 0
-1841 -1881 0
-1841 -1882 0
-1841 -1883 0
-1842 -1843 0
-1842 -1844 0
-1842 -1845 0
-1842 -1846 0
-1842 -1847 0
-1842 -1848 0
-1842 -1849 0
-1842 -1850 0
-1842 -1851 0
-1842 -1852 0
-1842 -1853 0
-1842 -1854 0
-1842 -1855 0
-1842 -1856 0
-1842 -1857 0
-1842 -1858 0
-1842 -1859 0
-1842 -1860 0
-1842 -1861 0
-1842 -1862 0
-1842 -1863 0
-1842 -1864 0
-1842 -1865 0
-1842 -1866 0
-1842 -1867 0
-1842 -1868 0
-1842 -1869 0
-1842 -1870 0
-1842 -1871 0
-1842 -1872 0
-1842 -1873 0
-1842 -1874 0
-1842 -1875 0
-1842 -1876 0
-1842 -1877 0
-1842 -1878 0
-1842 -1879 0
-1842 -1880 0
-1842 -1881 0
-1842 -1882 0
-1842 -1883 0
-1843 -1844 0
-1843 -1845 0
-1843 -1846 0
-1843 -1847 0
-1843 -1848 0
-1843 -1849 0
-1843 -1850 0
-1843 -1851 0
-1843 -1852 0
-1843 -1853 0
-1843 -1854 0
-1843 -1855 0
-1843 -1856 0
-1843 -1857 0
-1843 -1858 0
-1843 -1859 0
-1843 -1860 0
-1843 -1861 0
-1843 -1862 0
-1843 -1863 0
-1843 -1864 0
-1843 -1865 0
-1843 -1866 0
-1843 -1867 0
-1843 -1868 0
-1843 -1869 0
-1843 -1870 0
-1843 -1871 0
-1843 -1872 0
-1843 -1873 0
-1843 -1874 0
-1843 -1875 0
-1843 -1876 0
-1843 -1877 0
-1843 -1878 0
-1843 -1879 0
-1843 -1880 0
-1843 -1881 0
-1843 -1882 0
-1843 -1883 0
-1844 -1845 0
-1844 -1846 0
-1844 -1847 0
-1844 -1848 0
-1844 -1849 0
-1844 -1850 0
-1844 -1851 0
-1844 -1852 0
-1844 -1853 0
-1844 -1854 0
-1844 -1855 0
-1844 -1856 0
-1844 -1857 0
-1844 -1858 0
-1844 -1859 0
-1844 -1860 0
-1844 -1861 0
-1844 -1862 0
-1844 -1863 0
-1844 -1864 0
-1844 -1865 0
-1844 -1866 0
-1844 -1867 0
-1844 -1868 0
-1844 -1869 0
-1844 -1870 0
-1844 -1871 0
-1844 -1872 0
-1844 -1873 0
-1844 -1874 0
-1844 -1875 0
-1844 -1876 0
-1844 -1877 0
-1844 -1878 0
-1844 -1879 0
-1844 -1880 0
-1844 -1881 0
-1844 -1882 0
-1844 -1883 0
-1845 -1846 0
-1845 -1847 0
-1845 -1848 0
-1845 -1849 0
-1845 -1850 0
-1845 -1851 0
-1845 -1852 0
-1845 -1853 0
-1845 -1854 0
-1845 -1855 0
-1845 -1856 0
-1845 -1857 0
-1845 -1858 0
-1845 -1859 0
-1845 -1860 0
-1845 -1861 0
-1845 -1862 0
-1845 -1863 0
-1845 -1864 0
-1845 -1865 0
-1845 -1866 0
-1845 -1867 0
-1845 -1868 0
-1845 -1869 0
-1845 -1870 0
-1845 -1871 0
-1845 -1872 0
-1845 -1873 0
-1845 -1874 0
-1845 -1875 0
-1845 -1876 0
-1845 -1877 0
-1845 -1878 0
-1845 -1879 0
-1845 -1880 0
-1845 -1881 0
-1845 -1882 0
-1845 -1883 0
-1846 -1847 0
-1846 -1848 0
-1846 -1849 0
-1846 -1850 0
-1846 -1851 0
-1846 -1852 0
-1846 -1853 0
-1846 -1854 0
-1846 -1855 0
-1846 -1856 0
-1846 -1857 0
-1846 -1858 0
-1846 -1859 0
-1846 -1860 0
-1846 -1861 0
-1846 -1862 0
-1846 -1863 0
-1846 -1864 0
-1846 -1865 0
-1846 -1866 0
-1846 -1867 0
-1846 -1868 0
-1846 -1869 0
-1846 -1870 0
-1846 -1871 0
-1846 -1872 0
-1846 -1873 0
-1846 -1874 0
-1846 -1875 0
-1846 -1876 0
-1846 -1877 0
-1846 -1878 0
-1846 -1879 0
-1846 -1880 0
-1846 -1881 0
-1846 -1882 0
-1846 -1883 0
-1847 -1848 0
-1847 -1849 0
-1847 -1850 0
-1847 -1851 0
-1847 -1852 0
-1847 -1853 0
-1847 -1854 0
-1847 -1855 0
-1847 -1856 0
-1847 -1857 0
-1847 -1858 0
-1847 -1859 0
-1847 -1860 0
-1847 -1861 0
-1847 -1862 0
-1847 -1863 0
-1847 -1864 0
-1847 -1865 0
-1847 -1866 0
-1847 -1867 0
-1847 -1868 0
-1847 -1869 0
-1847 -1870 0
-1847 -1871 0
-1847 -1872 0
-1847 -1873 0
-1847 -1874 0
-1847 -1875 0
-1847 -1876 0
-1847 -1877 0
-1847 -1878 0
-1847 -1879 0
-1847 -1880 0
-1847 -1881 0
-1847 -1882 0
-1847 -1883 0
-1848 -1849 0
-1848 -1850 0
-1848 -1851 0
-1848 -1852 0
-1848 -1853 0
-1848 -1854 0
-1848 -1855 0
-1848 -1856 0
-1848 -1857 0
-1848 -1858 0
-1848 -1859 0
-1848 -1860 0
-1848 -1861 0
-1848 -1862 0
-1848 -1863 0
-1848 -1864 0
-1848 -1865 0
-1848 -1866 0
-1848 -1867 0
-1848 -1868 0
-1848 -1869 0
-1848 -1870 0
-1848 -1871 0
-1848 -1872 0
-1848 -1873 0
-1848 -1874 0
-1848 -1875 0
-1848 -1876 0
-1848 -1877 0
-1848 -1878 0
-1848 -1879 0
-1848 -1880 0
-1848 -1881 0
-1848 -1882 0
-1848 -1883 0
-1849 -1850 0
-1849 -1851 0
-1849 -1852 0
-1849 -1853 0
-1849 -1854 0
-1849 -1855 0
-1849 -1856 0
-1849 -1857 0
-1849 -1858 0
-1849 -1859 0
-1849 -1860 0
-1849 -1861 0
-1849 -1862 0
-1849 -1863 0
-1849 -1864 0
-1849 -1865 0
-1849 -1866 0
-1849 -1867 0
-1849 -1868 0
-1849 -1869 0
-1849 -1870 0
-1849 -1871 0
-1849 -1872 0
-1849 -1873 0
-1849 -1874 0
-1849 -1875 0
-1849 -1876 0
-1849 -1877 0
-1849 -1878 0
-1849 -1879 0
-1849 -1880 0
-1849 -1881 0
-1849 -1882 0
-1849 -1883 0
-1850 -1851 0
-1850 -1852 0
-1850 -1853 0
-1850 -1854 0
-1850 -1855 0
-1850 -1856 0
-1850 -1857 0
-1850 -1858 0
-1850 -1859 0
-1850 -1860 0
-1850 -1861 0
-1850 -1862 0
-1850 -1863 0
-1850 -1864 0
-1850 -1865 0
-1850 -1866 0
-1850 -1867 0
-1850 -1868 0
-1850 -1869 0
-1850 -1870 0
-1850 -1871 0
-1850 -1872 0
-1850 -1873 0
-1850 -1874 0
-1850 -1875 0
-1850 -1876 0
-1850 -1877 0
-1850 -1878 0
-1850 -1879 0
-1850 -1880 0
-1850 -1881 0
-1850 -1882 0
-1850 -1883 0
-1851 -1852 0
-1851 -1853 0
-1851 -1854 0
-1851 -1855 0
-1851 -1856 0
-1851 -1857 0
-1851 -1858 0
-1851 -1859 0
-1851 -1860 0
-1851 -1861 0
-1851 -1862 0
-1851 -1863 0
-1851 -1864 0
-1851 -1865 0
-1851 -1866 0
-1851 -1867 0
-1851 -1868 0
-1851 -1869 0
-1851 -1870 0
-1851 -1871 0
-1851 -1872 0
-1851 -1873 0
-1851 -1874 0
-1851 -1875 0
-1851 -1876 0
-1851 -1877 0
-1851 -1878 0
-1851 -1879 0
-1851 -1880 0
-1851 -1881 0
-1851 -1882 0
-1851 -1883 0
-1852 -1853 0
-1852 -1854 0
-1852 -1855 0
-1852 -1856 0
-1852 -1857 0
-1852 -1858 0
-1852 -1859 0
-1852 -1860 0
-1852 -1861 0
-1852 -1862 0
-1852 -1863 0
-1852 -1864 0
-1852 -1865 0
-1852 -1866 0
-1852 -1867 0
-1852 -1868 0
-1852 -1869 0
-1852 -1870 0
-1852 -1871 0
-1852 -1872 0
-1852 -1873 0
-1852 -1874 0
-1852 -1875 0
-1852 -1876 0
-1852 -1877 0
-1852 -1878 0
-1852 -1879 0
-1852 -1880 0
-1852 -1881 0
-1852 -1882 0
-1852 -1883 0
-1853 -1854 0
-1853 -1855 0
-1853 -1856 0
-1853 -1857 0
-1853 -1858 0
-1853 -1859 0
-1853 -1860 0
-1853 -1861 0
-1853 -1862 0
-1853 -1863 0
-1853 -1864 0
-1853 -1865 0
-1853 -1866 0
-1853 -1867 0
-1853 -1868 0
-1853 -1869 0
-1853 -1870 0
-1853 -1871 0
-1853 -1872 0
-1853 -1873 0
-1853 -1874 0
-1853 -1875 0
-1853 -1876 0
-1853 -1877 0
-1853 -1878 0
-1853 -1879 0
-1853 -1880 0
-1853 -1881 0
-1853 -1882 0
-1853 -1883 0
-1854 -1855 0
-1854 -1856 0
-1854 -1857 0
-1854 -1858 0
-1854 -1859 0
-1854 -1860 0
-1854 -1861 0
-1854 -1862 0
-1854 -1863 0
-1854 -1864 0
-1854 -1865 0
-1854 -1866 0
-1854 -1867 0
-1854 -1868 0
-1854 -1869 0
-1854 -1870 0
-1854 -1871 0
-1854 -1872 0
-1854 -1873 0
-1854 -1874 0
-1854 -1875 0
-1854 -1876 0
-1854 -1877 0
-1854 -1878 0
-1854 -1879 0
-1854 -1880 0
-1854 -1881 0
-1854 -1882 0
-1854 -1883 0
-1855 -1856 0
-1855 -1857 0
-1855 -1858 0
-1855 -1859 0
-1855 -1860 0
-1855 -1861 0
-1855 -1862 0
-1855 -1863 0
-1855 -1864 0
-1855 -1865 0
-1855 -1866 0
-1855 -1867 0
-1855 -1868 0
-1855 -1869 0
-1855 -1870 0
-1855 -1871 0
-1855 -1872 0
-1855 -1873 0
-1855 -1874 0
-1855 -1875 0
-1855 -1876 0
-1855 -1877 0
-1855 -1878 0
-1855 -1879 0
-1855 -1880 0
-1855 -1881 0
-1855 -1882 0
-1855 -1883 0
-1856 -1857 0
-1856 -1858 0
-1856 -1859 0
-1856 -1860 0
-1856 -1861 0
-1856 -1862 0
-1856 -1863 0
-1856 -1864 0
-1856 -1865 0
-1856 -1866 0
-1856 -1867 0
-1856 -1868 0
-1856 -1869 0
-1856 -1870 0
-1856 -1871 0
-1856 -1872 0
-1856 -1873 0
-1856 -1874 0
-1856 -1875 0
-1856 -1876 0
-1856 -1877 0
-1856 -1878 0
-1856 -1879 0
-1856 -1880 0
-1856 -1881 0
-1856 -1882 0
-1856 -1883 0
-1857 -1858 0
-1857 -1859 0
-1857 -1860 0
-1857 -1861 0
-1857 -1862 0
-1857 -1863 0
-1857 -1864 0
-1857 -1865 0
-1857 -1866 0
-1857 -1867 0
-1857 -1868 0
-1857 -1869 0
-1857 -1870 0
-1857 -1871 0
-1857 -1872 0
-1857 -1873 0
-1857 -1874 0
-1857 -1875 0
-1857 -1876 0
-1857 -1877 0
-1857 -1878 0
-1857 -1879 0
-1857 -1880 0
-1857 -1881 0
-1857 -1882 0
-1857 -1883 0
-1858 -1859 0
-1858 -1860 0
-1858 -1861 0
-1858 -1862 0
-1858 -1863 0
-1858 -1864 0
-1858 -1865 0
-1858 -1866 0
-1858 -1867 0
-1858 -1868 0
-1858 -1869 0
-1858 -1870 0
-1858 -1871 0
-1858 -1872 0
-1858 -1873 0
-1858 -1874 0
-1858 -1875 0
-1858 -1876 0
-1858 -1877 0
-1858 -1878 0
-1858 -1879 0
-1858 -1880 0
-1858 -1881 0
-1858 -1882 0
-1858 -1883 0
-1859 -1860 0
-1859 -1861 0
-1859 -1862 0
-1859 -1863 0
-1859 -1864 0
-1859 -1865 0
-1859 -1866 0
-1859 -1867 0
-1859 -1868 0
-1859 -1869 0
-1859 -1870 0
-1859 -1871 0
-1859 -1872 0
-1859 -1873 0
-1859 -1874 0
-1859 -1875 0
-1859 -1876 0
-1859 -1877 0
-1859 -1878 0
-1859 -1879 0
-1859 -1880 0
-1859 -1881 0
-1859 -1882 0
-1859 -1883 0
-1860 -1861 0
-1860 -1862 0
-1860 -1863 0
-1860 -1864 0
-1860 -1865 0
-1860 -1866 0
-1860 -1867 0
-1860 -1868 0
-1860 -1869 0
-1860 -1870 0
-1860 -1871 0
-1860 -1872 0
-1860 -1873 0
-1860 -1874 0
-1860 -1875 0
-1860 -1876 0
-1860 -1877 0
-1860 -1878 0
-1860 -1879 0
-1860 -1880 0
-1860 -1881 0
-1860 -1882 0
-1860 -1883 0
-1861 -1862 0
-1861 -1863 0
-1861 -1864 0
-1861 -1865 0
-1861 -1866 0
-1861 -1867 0
-1861 -1868 0
-1861 -1869 0
-1861 -1870 0
-1861 -1871 0
-1861 -1872 0
-1861 -1873 0
-1861 -1874 0
-1861 -1875 0
-1861 -1876 0
-1861 -1877 0
-1861 -1878 0
-1861 -1879 0
-1861 -1880 0
-1861 -1881 0
-1861 -1882 0
-1861 -1883 0
-1862 -1863 0
-1862 -1864 0
-1862 -1865 0
-1862 -1866 0
-1862 -1867 0
-1862 -1868 0
-1862 -1869 0
-1862 -1870 0
-1862 -1871 0
-1862 -1872 0
-1862 -1873 0
-1862 -1874 0
-1862 -1875 0
-1862 -1876 0
-1862 -1877 0
-1862 -1878 0
-1862 -1879 0
-1862 -1880 0
-1862 -1881 0
-1862 -1882 0
-1862 -1883 0
-1863 -1864 0
-1863 -1865 0
-1863 -1866 0
-1863 -1867 0
-1863 -1868 0
-1863 -1869 0
-1863 -1870 0
-1863 -1871 0
-1863 -1872 0
-1863 -1873 0
-1863 -1874 0
-1863 -1875 0
-1863 -1876 0
-1863 -1877 0
-1863 -1878 0
-1863 -1879 0
-1863 -1880 0
-1863 -1881 0
-1863 -1882 0
-1863 -1883 0
-1864 -1865 0
-1864 -1866 0
-1864 -1867 0
-1864 -1868 0
-1864 -1869 0
-1864 -1870 0
-1864 -1871 0
-1864 -1872 0
-1864 -1873 0
-1864 -1874 0
-1864 -1875 0
-1864 -1876 0
-1864 -1877 0
-1864 -1878 0
-1864 -1879 0
-1864 -1880 0
-1864 -1881 0
-1864 -1882 0
-1864 -1883 0
-1865 -1866 0
-1865 -1867 0
-1865 -1868 0
-1865 -1869 0
-1865 -1870 0
-1865 -1871 0
-1865 -1872 0
-1865 -1873 0
-1865 -1874 0
-1865 -1875 0
-1865 -1876 0
-1865 -1877 0
-1865 -1878 0
-1865 -1879 0
-1865 -1880 0
-1865 -1881 0
-1865 -1882 0
-1865 -1883 0
-1866 -1867 0
-1866 -1868 0
-1866 -1869 0
-1866 -1870 0
-1866 -1871 0
-1866 -1872 0
-1866 -1873 0
-1866 -1874 0
-1866 -1875 0
-1866 -1876 0
-1866 -1877 0
-1866 -1878 0
-1866 -1879 0
-1866 -1880 0
-1866 -1881 0
-1866 -1882 0
-1866 -1883 0
-1867 -1868 0
-1867 -1869 0
-1867 -1870 0
-1867 -1871 0
-1867 -1872 0
-1867 -1873 0
-1867 -1874 0
-1867 -1875 0
-1867 -1876 0
-1867 -1877 0
-1867 -1878 0
-1867 -1879 0
-1867 -1880 0
-1867 -1881 0
-1867 -1882 0
-1867 -1883 0
-1868 -1869 0
-1868 -1870 0
-1868 -1871 0
-1868 -1872 0
-1868 -1873 0
-1868 -1874 0
-1868 -1875 0
-1868 -1876 0
-1868 -1877 0
-1868 -1878 0
-1868 -1879 0
-1868 -1880 0
-1868 -1881 0
-1868 -1882 0
-1868 -1883 0
-1869 -1870 0
-1869 -1871 0
-1869 -1872 0
-1869 -1873 0
-1869 -1874 0
-1869 -1875 0
-1869 -1876 0
-1869 -1877 0
-1869 -1878 0
-1869 -1879 0
-1869 -1880 0
-1869 -1881 0
-1869 -1882 0
-1869 -1883 0
-1870 -1871 0
-1870 -1872 0
-1870 -1873 0
-1870 -1874 0
-1870 -1875 0
-1870 -1876 0
-1870 -1877 0
-1870 -1878 0
-1870 -1879 0
-1870 -1880 0
-1870 -1881 0
-1870 -1882 0
-1870 -1883 0
-1871 -1872 0
-1871 -1873 0
-1871 -1874 0
-1871 -1875 0
-1871 -1876 0
-1871 -1877 0
-1871 -1878 0
-1871 -1879 0
-1871 -1880 0
-1871 -1881 0
-1871 -1882 0
-1871 -1883 0
-1872 -1873 0
-1872 -1874 0
-1872 -1875 0
-1872 -1876 0
-1872 -1877 0
-1872 -1878 0
-1872 -1879 0
-1872 -1880 0
-1872 -1881 0
-1872 -1882 0
-1872 -1883 0
-1873 -1874 0
-1873 -1875 0
-1873 -1876 0
-1873 -1877 0
-1873 -1878 0
-1873 -1879 0
-1873 -1880 0
-1873 -1881 0
-1873 -1882 0
-1873 -1883 0
-1874 -1875 0
-1874 -1876 0
-1874 -1877 0
-1874 -1878 0
-1874 -1879 0
-1874 -1880 0
-1874 -1881 0
-1874 -1882 0
-1874 -1883 0
-1875 -1876 0
-1875 -1877 0
-1875 -1878 0
-1875 -1879 0
-1875 -1880 0
-1875 -1881 0
-1875 -1882 0
-1875 -1883 0
-1876 -1877 0
-1876 -1878 0
-1876 -1879 0
-1876 -1880 0
-1876 -1881 0
-1876 -1882 0
-1876 -1883 0
-1877 -1878 0
-1877 -1879 0
-1877 -1880 0
-1877 -1881 0
-1877 -1882 0
-1877 -1883 0
-1878 -1879 0
-1878 -1880 0
-1878 -1881 0
-1878 -1882 0
-1878 -1883 0
-1879 -1880 0
-1879 -1881 0
-1879 -1882 0
-1879 -1883 0
-1880 -1881 0
-1880 -1882 0
-1880 -1883 0
-1881 -1882 0
-1881 -1883 0
-1882 -1883 0
-1800 11 0
-1800 258 0
-1800 -61 0
-1800 -62 0
-1800 -63 0
-1800 -64 0
-1800 -65 0
-1800 -66 265 0
-1800 -66 -1 -8 0
-1800 -66 -73 0
-1800 -66 -131 0
-1800 -66 -188 0
-1800 -67 266 0
-1800 -67 -1 -9 0
-1800 -67 -75 0
-1800 -67 -133 0
-1800 -67 -190 0
-1800 -68 267 0
-1800 -68 -1 -10 0
-1800 -68 -77 0
-1800 -68 -135 0
-1800 -68 -192 0
-1800 -69 0
-1801 11 0
-1801 259 0
-1801 -60 0
-1801 -62 0
-1801 -63 0
-1801 -64 0
-1801 -65 0
-1801 -66 265 0
-1801 -66 -2 -8 0
-1801 -66 -81 0
-1801 -66 -139 0
-1801 -66 -196 0
-1801 -67 266 0
-1801 -67 -2 -9 0
-1801 -67 -83 0
-1801 -67 -141 0
-1801 -67 -198 0
-1801 -68 267 0
-1801 -68 -2 -10 0
-1801 -68 -85 0
-1801 -68 -143 0
-1801 -68 -200 0
-1801 -69 0
-1802 11 0
-1802 260 0
-1802 -60 0
-1802 -61 0
-1802 -63 0
-1802 -64 0
-1802 -65 0
-1802 -66 265 0
-1802 -66 -3 -8 0
-1802 -66 -89 0
-1802 -66 -147 0
-1802 -66 -204 0
-1802 -67 266 0
-1802 -67 -3 -9 0
-1802 -67 -91 0
-1802 -67 -149 0
-1802 -67 -206 0
-1802 -68 267 0
-1802 -68 -3 -10 0
-1802 -68 -93 0
-1802 -68 -151 0
-1802 -68 -208 0
-1802 -69 0
-1803 11 0
-1803 261 0
-1803 -60 0
-1803 -61 0
-1803 -62 0
-1803 -64 0
-1803 -65 0
-1803 -66 265 0
-1803 -66 -4 -8 0
-1803 -66 -97 0
-1803 -66 -155 0
-1803 -66 -212 0
-1803 -67 266 0
-1803 -67 -4 -9 0
-1803 -67 -99 0
-1803 -67 -157 0
-1803 -67 -214 0
-1803 -68 267 0
-1803 -68 -4 -10 0
-1803 -68 -101 0
-1803 -68 -159 0
-1803 -68 -216 0
-1803 -69 0
-1804 11 0
-1804 262 0
-1804 -60 0
-1804 -61 0
-1804 -62 0
-1804 -63 0
-1804 -65 0
-1804 -66 265 0
-1804 -66 -5 -8 0
-1804 -66 -105 0
-1804 -66 -163 0
-1804 -66 -220 0
-1804 -67 266 0
-1804 -67 -5 -9 0
-1804 -67 -107 0
-1804 -67 -165 0
-1804 -67 -222 0
-1804 -68 267 0
-1804 -68 -5 -10 0
-1804 -68 -109 0
-1804 -68 -167 0
-1804 -68 -224 0
-1804 -69 0
-1805 11 0
-1805 263 0
-1805 -60 0
-1805 -61 0
-1805 -62 0
-1805 -63 0
-1805 -64 0
-1805 -66 265 0
-1805 -66 -6 -8 0
-1805 -66 -113 0
-1805 -66 -171 0
-1805 -66 -228 0
-1805 -67 266 0
-1805 -67 -6 -9 0
-1805 -67 -115 0
-1805 -67 -173 0
-1805 -67 -230 0
-1805 -68 267 0
-1805 -68 -6 -10 0
-1805 -68 -117 0
-1805 -68 -175 0
-1805 -68 -232 0
-1805 -69 0
-1806 11 0
-1806 258 0
-1806 -120 0
-1806 -121 0
-1806 -122 0
-1806 -123 0
-1806 -124 265 0
-1806 -124 -1 -8 0
-1806 -124 -73 0
-1806 -124 -131 0
-1806 -124 -188 0
-1806 -125 266 0
-1806 -125 -1 -9 0
-1806 -125 -75 0
-1806 -125 -133 0
-1806 -125 -190 0
-1806 -126 267 0
-1806 -126 -1 -10 0
-1806 -126 -77 0
-1806 -126 -135 0
-1806 -126 -192 0
-1806 -127 0
-1807 11 0
-1807 259 0
-1807 -121 0
-1807 -122 0
-1807 -123 0
-1807 -124 265 0
-1807 -124 -2 -8 0
-1807 -124 -81 0
-1807 -124 -139 0
-1807 -124 -196 0
-1807 -125 266 0
-1807 -125 -2 -9 0
-1807 -125 -83 0
-1807 -125 -141 0
-1807 -125 -198 0
-1807 -126 267 0
-1807 -126 -2 -10 0
-1807 -126 -85 0
-1807 -126 -143 0
-1807 -126 -200 0
-1807 -127 0
-1808 11 0
-1808 260 0
-1808 -119 0
-1808 -122 0
-1808 -123 0
-1808 -124 265 0
-1808 -124 -3 -8 0
-1808 -124 -89 0
-1808 -124 -147 0
-1808 -124 -204 0
-1808 -125 266 0
-1808 -125 -3 -9 0
-1808 -125 -91 0
-1808 -125 -149 0
-1808 -125 -206 0
-1808 -126 267 0
-1808 -126 -3 -10 0
-1808 -126 -93 0
-1808 -126 -151 0
-1808 -126 -208 0
-1808 -127 0
-1809 11 0
-1809 261 0
-1809 -119 0
-1809 -120 0
-1809 -123 0
-1809 -124 265 0
-1809 -124 -4 -8 0
-1809 -124 -97 0
-1809 -124 -155 0
-1809 -124 -212 0
-1809 -125 266 0
-1809 -125 -4 -9 0
-1809 -125 -99 0
-1809 -125 -157 0
-1809 -125 -214 0
-1809 -126 267 0
-1809 -126 -4 -10 0
-1809 -126 -101 0
-1809 -126 -159 0
-1809 -126 -216 0
-1809 -127 0
-1810 11 0
-1810 262 0
-1810 -119 0
-1810 -120 0
-1810 -121 0
-1810 -124 265 0
-1810 -124 -5 -8 0
-1810 -124 -105 0
-1810 -124 -163 0
-1810 -124 -220 0
-1810 -125 266 0
-1810 -125 -5 -9 0
-1810 -125 -107 0
-1810 -125 -165 0
-1810 -125 -222 0
-1810 -126 267 0
-1810 -126 -5 -10 0
-1810 -126 -109 0
-1810 -126 -167 0
-1810 -126 -224 0
-1810 -127 0
-1811 11 0
-1811 263 0
-1811 -119 0
-1811 -120 0
-1811 -121 0
-1811 -122 0
-1811 -124 265 0
-1811 -124 -6 -8 0
-1811 -124 -113 0
-1811 -124 -171 0
-1811 -124 -228 0
-1811 -125 266 0
-1811 -125 -6 -9 0
-1811 -125 -115 0
-1811 -125 -173 0
-1811 -125 -230 0
-1811 -126 267 0
-1811 -126 -6 -10 0
-1811 -126 -117 0
-1811 -126 -175 0
-1811 -126 -232 0
-1811 -127 0
-1812 11 0
-1812 258 0
-1812 -178 0
-1812 -179 0
-1812 -180 0
-1812 -181 265 0
-1812 -181 -1 -8 0
-1812 -181 -73 0
-1812 -181 -131 0
-1812 -181 -188 0
-1812 -182 266 0
-1812 -182 -1 -9 0
-1812 -182 -75 0
-1812 -182 -133 0
-1812 -182 -190 0
-1812 -183 267 0
-1812 -183 -1 -10 0
-1812 -183 -77 0
-1812 -183 -135 0
-1812 -183 -192 0
-1812 -184 0
-1813 11 0
-1813 259 0
-1813 -179 0
-1813 -180 0
-1813 -181 265 0
-1813 -181 -2 -8 0
-1813 -181 -81 0
-1813 -181 -139 0
-1813 -181 -196 0
-1813 -182 266 0
-1813 -182 -2 -9 0
-1813 -182 -83 0
-1813 -182 -141 0
-1813 -182 -198 0
-1813 -183 267 0
-1813 -183 -2 -10 0
-1813 -183 -85 0
-1813 -183 -143 0
-1813 -183 -200 0
-1813 -184 0
-1814 11 0
-1814 260 0
-1814 -180 0
-1814 -181 265 0
-1814 -181 -3 -8 0
-1814 -181 -89 0
-1814 -181 -147 0
-1814 -181 -204 0
-1814 -182 266 0
-1814 -182 -3 -9 0
-1814 -182 -91 0
-1814 -182 -149 0
-1814 -182 -206 0
-1814 -183 267 0
-1814 -183 -3 -10 0
-1814 -183 -93 0
-1814 -183 -151 0
-1814 -183 -208 0
-1814 -184 0
-1815 11 0
-1815 261 0
-1815 -177 0
-1815 -181 265 0
-1815 -181 -4 -8 0
-1815 -181 -97 0
-1815 -181 -155 0
-1815 -181 -212 0
-1815 -182 266 0
-1815 -182 -4 -9 0
-1815 -182 -99 0
-1815 -182 -157 0
-1815 -182 -214 0
-1815 -183 267 0
-1815 -183 -4 -10 0
-1815 -183 -101 0
-1815 -183 -159 0
-1815 -183 -216 0
-1815 -184 0
-1816 11 0
-1816 262 0
-1816 -177 0
-1816 -178 0
-1816 -181 265 0
-1816 -181 -5 -8 0
-1816 -181 -105 0
-1816 -181 -163 0
-1816 -181 -220 0
-1816 -182 266 0
-1816 -182 -5 -9 0
-1816 -182 -107 0
-1816 -182 -165 0
-1816 -182 -222 0
-1816 -183 267 0
-1816 -183 -5 -10 0
-1816 -183 -109 0
-1816 -183 -167 0
-1816 -183 -224 0
-1816 -184 0
-1817 11 0
-1817 263 0
-1817 -177 0
-1817 -178 0
-1817 -179 0
-1817 -181 265 0
-1817 -181 -6 -8 0
-1817 -181 -113 0
-1817 -181 -171 0
-1817 -181 -228 0
-1817 -182 266 0
-1817 -182 -6 -9 0
-1817 -182 -115 0
-1817 -182 -173 0
-1817 -182 -230 0
-1817 -183 267 0
-1817 -183 -6 -10 0
-1817 -183 -117 0
-1817 -183 -175 0
-1817 -183 -232 0
-1817 -184 0
-1818 11 0
-1818 258 0
-1818 264 0
-1818 -1 -7 0
-1818 -71 0
-1818 -129 0
-1818 -186 0
-1819 11 0
-1819 259 0
-1819 264 0
-1819 -2 -7 0
-1819 -79 0
-1819 -137 0
-1819 -194 0
-1820 11 0
-1820 260 0
-1820 264 0
-1820 -3 -7 0
-1820 -87 0
-1820 -145 0
-1820 -202 0
-1821 11 0
-1821 261 0
-1821 264 0
-1821 -4 -7 0
-1821 -95 0
-1821 -153 0
-1821 -210 0
-1822 11 0
-1822 262 0
-1822 264 0
-1822 -5 -7 0
-1822 -103 0
-1822 -161 0
-1822 -218 0
-1823 11 0
-1823 263 0
-1823 264 0
-1823 -6 -7 0
-1823 -111 0
-1823 -169 0
-1823 -226 0
-1824 70 0
-1824 317 0
-1824 -2 0
-1824 -3 0
-1824 -4 0
-1824 -5 0
-1824 -6 0
-1824 -7 324 0
-1824 -7 -60 -67 0
-1824 -7 -14 0
-1824 -7 -131 0
-1824 -7 -188 0
-1824 -8 325 0
-1824 -8 -60 -68 0
-1824 -8 -16 0
-1824 -8 -133 0
-1824 -8 -190 0
-1824 -9 326 0
-1824 -9 -60 -69 0
-1824 -9 -18 0
-1824 -9 -135 0
-1824 -9 -192 0
-1824 -10 0
-1825 70 0
-1825 318 0
-1825 -1 0
-1825 -3 0
-1825 -4 0
-1825 -5 0
-1825 -6 0
-1825 -7 324 0
-1825 -7 -61 -67 0
-1825 -7 -22 0
-1825 -7 -139 0
-1825 -7 -196 0
-1825 -8 325 0
-1825 -8 -61 -68 0
-1825 -8 -24 0
-1825 -8 -141 0
-1825 -8 -198 0
-1825 -9 326 0
-1825 -9 -61 -69 0
-1825 -9 -26 0
-1825 -9 -143 0
-1825 -9 -200 0
-1825 -10 0
-1826 70 0
-1826 319 0
-1826 -1 0
-1826 -2 0
-1826 -4 0
-1826 -5 0
-1826 -6 0
-1826 -7 324 0
-1826 -7 -62 -67 0
-1826 -7 -30 0
-1826 -7 -147 0
-1826 -7 -204 0
-1826 -8 325 0
-1826 -8 -62 -68 0
-1826 -8 -32 0
-1826 -8 -149 0
-1826 -8 -206 0
-1826 -9 326 0
-1826 -9 -62 -69 0
-1826 -9 -34 0
-1826 -9 -151 0
-1826 -9 -208 0
-1826 -10 0
-1827 70 0
-1827 320 0
-1827 -1 0
-1827 -2 0
-1827 -3 0
-1827 -5 0
-1827 -6 0
-1827 -7 324 0
-1827 -7 -63 -67 0
-1827 -7 -38 0
-1827 -7 -155 0
-1827 -7 -212 0
-1827 -8 325 0
-1827 -8 -63 -68 0
-1827 -8 -40 0
-1827 -8 -157 0
-1827 -8 -214 0
-1827 -9 326 0
-1827 -9 -63 -69 0
-1827 -9 -42 0
-1827 -9 -159 0
-1827 -9 -216 0
-1827 -10 0
-1828 70 0
-1828 321 0
-1828 -1 0
-1828 -2 0
-1828 -3 0
-1828 -4 0
-1828 -6 0
-1828 -7 324 0
-1828 -7 -64 -67 0
-1828 -7 -46 0
-1828 -7 -163 0
-1828 -7 -220 0
-1828 -8 325 0
-1828 -8 -64 -68 0
-1828 -8 -48 0
-1828 -8 -165 0
-1828 -8 -222 0
-1828 -9 326 0
-1828 -9 -64 -69 0
-1828 -9 -50 0
-1828 -9 -167 0
-1828 -9 -224 0
-1828 -10 0
-1829 70 0
-1829 322 0
-1829 -1 0
-1829 -2 0
-1829 -3 0
-1829 -4 0
-1829 -5 0
-1829 -7 324 0
-1829 -7 -65 -67 0
-1829 -7 -54 0
-1829 -7 -171 0
-1829 -7 -228 0
-1829 -8 325 0
-1829 -8 -65 -68 0
-1829 -8 -56 0
-1829 -8 -173 0
-1829 -8 -230 0
-1829 -9 326 0
-1829 -9 -65 -69 0
-1829 -9 -58 0
-1829 -9 -175 0
-1829 -9 -232 0
-1829 -10 0
-1830 70 0
-1830 317 0
-1830 -120 0
-1830 -121 0
-1830 -122 0
-1830 -123 0
-1830 -124 324 0
-1830 -124 -60 -67 0
-1830 -124 -14 0
-1830 -124 -131 0
-1830 -124 -188 0
-1830 -125 325 0
-1830 -125 -60 -68 0
-1830 -125 -16 0
-1830 -125 -133 0
-1830 -125 -190 0
-1830 -126 326 0
-1830 -126 -60 -69 0
-1830 -126 -18 0
-1830 -126 -135 0
-1830 -126 -192 0
-1830 -127 0
-1831 70 0
-1831 318 0
-1831 -121 0
-1831 -122 0
-1831 -123 0
-1831 -124 324 0
-1831 -124 -61 -67 0
-1831 -124 -22 0
-1831 -124 -139 0
-1831 -124 -196 0
-1831 -125 325 0
-1831 -125 -61 -68 0
-1831 -125 -24 0
-1831 -125 -141 0
-1831 -125 -198 0
-1831 -126 326 0
-1831 -126 -61 -69 0
-1831 -126 -26 0
-1831 -126 -143 0
-1831 -126 -200 0
-1831 -127 0
-1832 70 0
-1832 319 0
-1832 -119 0
-1832 -122 0
-1832 -123 0
-1832 -124 324 0
-1832 -124 -62 -67 0
-1832 -124 -30 0
-1832 -124 -147 0
-1832 -124 -204 0
-1832 -125 325 0
-1832 -125 -62 -68 0
-1832 -125 -32 0
-1832 -125 -149 0
-1832 -125 -206 0
-1832 -126 326 0
-1832 -126 -62 -69 0
-1832 -126 -34 0
-1832 -126 -151 0
-1832 -126 -208 0
-1832 -127 0
-1833 70 0
-1833 320 0
-1833 -119 0
-1833 -120 0
-1833 -123 0
-1833 -124 324 0
-1833 -124 -63 -67 0
-1833 -124 -38 0
-1833 -124 -155 0
-1833 -124 -212 0
-1833 -125 325 0
-1833 -125 -63 -68 0
-1833 -125 -40 0
-1833 -125 -157 0
-1833 -125 -214 0
-1833 -126 326 0
-1833 -126 -63 -69 0
-1833 -126 -42 0
-1833 -126 -159 0
-1833 -126 -216 0
-1833 -127 0
-1834 70 0
-1834 321 0
-1834 -119 0
-1834 -120 0
-1834 -121 0
-1834 -124 324 0
-1834 -124 -64 -67 0
-1834 -124 -46 0
-1834 -124 -163 0
-1834 -124 -220 0
-1834 -125 325 0
-1834 -125 -64 -68 0
-1834 -125 -48 0
-1834 -125 -165 0
-1834 -125 -222 0
-1834 -126 326 0
-1834 -126 -64 -69 0
-1834 -126 -50 0
-1834 -126 -167 0
-1834 -126 -224 0
-1834 -127 0
-1835 70 0
-1835 322 0
-1835 -119 0
-1835 -120 0
-1835 -121 0
-1835 -122 0
-1835 -124 324 0
-1835 -124 -65 -67 0
-1835 -124 -54 0
-1835 -124 -171 0
-1835 -124 -228 0
-1835 -125 325 0
-1835 -125 -65 -68 0
-1835 -125 -56 0
-1835 -125 -173 0
-1835 -125 -230 0
-1835 -126 326 0
-1835 -126 -65 -69 0
-1835 -126 -58 0
-1835 -126 -175 0
-1835 -126 -232 0
-1835 -127 0
-1836 70 0
-1836 317 0
-1836 -178 0
-1836 -179 0
-1836 -180 0
-1836 -181 324 0
-1836 -181 -60 -67 0
-1836 -181 -14 0
-1836 -181 -131 0
-1836 -181 -188 0
-1836 -182 325 0
-1836 -182 -60 -68 0
-1836 -182 -16 0
-1836 -182 -133 0
-1836 -182 -190 0
-1836 -183 326 0
-1836 -183 -60 -69 0
-1836 -183 -18 0
-1836 -183 -135 0
-1836 -183 -192 0
-1836 -184 0
-1837 70 0
-1837 318 0
-1837 -179 0
-1837 -180 0
-1837 -181 324 0
-1837 -181 -61 -67 0
-1837 -181 -22 0
-1837 -181 -139 0
-1837 -181 -196 0
-1837 -182 325 0
-1837 -182 -61 -68 0
-1837 -182 -24 0
-1837 -182 -141 0
-1837 -182 -198 0
-1837 -183 326 0
-1837 -183 -61 -69 0
-1837 -183 -26 0
-1837 -183 -143 0
-1837 -183 -200 0
-1837 -184 0
-1838 70 0
-1838 319 0
-1838 -180 0
-1838 -181 324 0
-1838 -181 -62 -67 0
-1838 -181 -30 0
-1838 -181 -147 0
-1838 -181 -204 0
-1838 -182 325 0
-1838 -182 -62 -68 0
-1838 -182 -32 0
-1838 -182 -149 0
-1838 -182 -206 0
-1838 -183 326 0
-1838 -183 -62 -69 0
-1838 -183 -34 0
-1838 -183 -151 0
-1838 -183 -208 0
-1838 -184 0
-1839 70 0
-1839 320 0
-1839 -177 0
-1839 -181 324 0
-1839 -181 -63 -67 0
-1839 -181 -38 0
-1839 -181 -155 0
-1839 -181 -212 0
-1839 -182 325 0
-1839 -182 -63 -68 0
-1839 -182 -40 0
-1839 -182 -157 0
-1839 -182 -214 0
-1839 -183 326 0
-1839 -183 -63 -69 0
-1839 -183 -42 0
-1839 -183 -159 0
-1839 -183 -216 0
-1839 -184 0
-1840 70 0
-1840 321 0
-1840 -177 0
-1840 -178 0
-1840 -181 324 0
-1840 -181 -64 -67 0
-1840 -181 -46 0
-1840 -181 -163 0
-1840 -181 -220 0
-1840 -182 325 0
-1840 -182 -64 -68 0
-1840 -182 -48 0
-1840 -182 -165 0
-1840 -182 -222 0
-1840 -183 326 0
-1840 -183 -64 -69 0
-1840 -183 -50 0
-1840 -183 -167 0
-1840 -183 -224 0
-1840 -184 0
-1841 70 0
-1841 322 0
-1841 -177 0
-1841 -178 0
-1841 -179 0
-1841 -181 324 0
-1841 -181 -65 -67 0
-1841 -181 -54 0
-1841 -181 -171 0
-1841 -181 -228 0
-1841 -182 325 0
-1841 -182 -65 -68 0
-1841 -182 -56 0
-1841 -182 -173 0
-1841 -182 -230 0
-1841 -183 326 0
-1841 -183 -65 -69 0
-1841 -183 -58 0
-1841 -183 -175 0
-1841 -183 -232 0
-1841 -184 0
-1842 70 0
-1842 317 0
-1842 323 0
-1842 -60 -66 0
-1842 -12 0
-1842 -129 0
-1842 -186 0
-1843 70 0
-1843 318 0
-1843 323 0
-1843 -61 -66 0
-1843 -20 0
-1843 -137 0
-1843 -194 0
-1844 70 0
-1844 319 0
-1844 323 0
-1844 -62 -66 0
-1844 -28 0
-1844 -145 0
-1844 -202 0
-1845 70 0
-1845 320 0
-1845 323 0
-1845 -63 -66 0
-1845 -36 0
-1845 -153 0
-1845 -210 0
-1846 70 0
-1846 321 0
-1846 323 0
-1846 -64 -66 0
-1846 -44 0
-1846 -161 0
-1846 -218 0
-1847 70 0
-1847 322 0
-1847 323 0
-1847 -65 -66 0
-1847 -52 0
-1847 -169 0
-1847 -226 0
-1848 128 0
-1848 376 0
-1848 -3 0
-1848 -4 0
-1848 -5 0
-1848 -6 0
-1848 -7 382 0
-1848 -7 -119 -125 0
-1848 -7 -14 0
-1848 -7 -22 0
-1848 -7 -73 0
-1848 -7 -81 0
-1848 -7 -188 0
-1848 -7 -196 0
-1848 -8 383 0
-1848 -8 -119 -126 0
-1848 -8 -16 0
-1848 -8 -24 0
-1848 -8 -75 0
-1848 -8 -83 0
-1848 -8 -190 0
-1848 -8 -198 0
-1848 -9 384 0
-1848 -9 -119 -127 0
-1848 -9 -18 0
-1848 -9 -26 0
-1848 -9 -77 0
-1848 -9 -85 0
-1848 -9 -192 0
-1848 -9 -200 0
-1848 -10 0
-1849 128 0
-1849 377 0
-1849 -1 0
-1849 -4 0
-1849 -5 0
-1849 -6 0
-1849 -7 382 0
-1849 -7 -120 -125 0
-1849 -7 -22 0
-1849 -7 -30 0
-1849 -7 -81 0
-1849 -7 -89 0
-1849 -7 -196 0
-1849 -7 -204 0
-1849 -8 383 0
-1849 -8 -120 -126 0
-1849 -8 -24 0
-1849 -8 -32 0
-1849 -8 -83 0
-1849 -8 -91 0
-1849 -8 -198 0
-1849 -8 -206 0
-1849 -9 384 0
-1849 -9 -120 -127 0
-1849 -9 -26 0
-1849 -9 -34 0
-1849 -9 -85 0
-1849 -9 -93 0
-1849 -9 -200 0
-1849 -9 -208 0
-1849 -10 0
-1850 128 0
-1850 378 0
-1850 -1 0
-1850 -2 0
-1850 -5 0
-1850 -6 0
-1850 -7 382 0
-1850 -7 -121 -125 0
-1850 -7 -30 0
-1850 -7 -38 0
-1850 -7 -89 0
-1850 -7 -97 0
-1850 -7 -204 0
-1850 -7 -212 0
-1850 -8 383 0
-1850 -8 -121 -126 0
-1850 -8 -32 0
-1850 -8 -40 0
-1850 -8 -91 0
-1850 -8 -99 0
-1850 -8 -206 0
-1850 -8 -214 0
-1850 -9 384 0
-1850 -9 -121 -127 0
-1850 -9 -34 0
-1850 -9 -42 0
-1850 -9 -93 0
-1850 -9 -101 0
-1850 -9 -208 0
-1850 -9 -216 0
-1850 -10 0
-1851 128 0
-1851 379 0
-1851 -1 0
-1851 -2 0
-1851 -3 0
-1851 -6 0
-1851 -7 382 0
-1851 -7 -122 -125 0
-1851 -7 -38 0
-1851 -7 -46 0
-1851 -7 -97 0
-1851 -7 -105 0
-1851 -7 -212 0
-1851 -7 -220 0
-1851 -8 383 0
-1851 -8 -122 -126 0
-1851 -8 -40 0
-1851 -8 -48 0
-1851 -8 -99 0
-1851 -8 -107 0
-1851 -8 -214 0
-1851 -8 -222 0
-1851 -9 384 0
-1851 -9 -122 -127 0
-1851 -9 -42 0
-1851 -9 -50 0
-1851 -9 -101 0
-1851 -9 -109 0
-1851 -9 -216 0
-1851 -9 -224 0
-1851 -10 0
-1852 128 0
-1852 380 0
-1852 -1 0
-1852 -2 0
-1852 -3 0
-1852 -4 0
-1852 -7 382 0
-1852 -7 -123 -125 0
-1852 -7 -46 0
-1852 -7 -54 0
-1852 -7 -105 0
-1852 -7 -113 0
-1852 -7 -220 0
-1852 -7 -228 0
-1852 -8 383 0
-1852 -8 -123 -126 0
-1852 -8 -48 0
-1852 -8 -56 0
-1852 -8 -107 0
-1852 -8 -115 0
-1852 -8 -222 0
-1852 -8 -230 0
-1852 -9 384 0
-1852 -9 -123 -127 0
-1852 -9 -50 0
-1852 -9 -58 0
-1852 -9 -109 0
-1852 -9 -117 0
-1852 -9 -224 0
-1852 -9 -232 0
-1852 -10 0
-1853 128 0
-1853 376 0
-1853 -62 0
-1853 -63 0
-1853 -64 0
-1853 -65 0
-1853 -66 382 0
-1853 -66 -119 -125 0
-1853 -66 -14 0
-1853 -66 -22 0
-1853 -66 -73 0
-1853 -66 -81 0
-1853 -66 -188 0
-1853 -66 -196 0
-1853 -67 383 0
-1853 -67 -119 -126 0
-1853 -67 -16 0
-1853 -67 -24 0
-1853 -67 -75 0
-1853 -67 -83 0
-1853 -67 -190 0
-1853 -67 -198 0
-1853 -68 384 0
-1853 -68 -119 -127 0
-1853 -68 -18 0
-1853 -68 -26 0
-1853 -68 -77 0
-1853 -68 -85 0
-1853 -68 -192 0
-1853 -68 -200 0
-1853 -69 0
-1854 128 0
-1854 377 0
-1854 -60 0
-1854 -63 0
-1854 -64 0
-1854 -65 0
-1854 -66 382 0
-1854 -66 -120 -125 0
-1854 -66 -22 0
-1854 -66 -30 0
-1854 -66 -81 0
-1854 -66 -89 0
-1854 -66 -196 0
-1854 -66 -204 0
-1854 -67 383 0
-1854 -67 -120 -126 0
-1854 -67 -24 0
-1854 -67 -32 0
-1854 -67 -83 0
-1854 -67 -91 0
-1854 -67 -198 0
-1854 -67 -206 0
-1854 -68 384 0
-1854 -68 -120 -127 0
-1854 -68 -26 0
-1854 -68 -34 0
-1854 -68 -85 0
-1854 -68 -93 0
-1854 -68 -200 0
-1854 -68 -208 0
-1854 -69 0
-1855 128 0
-1855 378 0
-1855 -60 0
-1855 -61 0
-1855 -64 0
-1855 -65 0
-1855 -66 382 0
-1855 -66 -121 -125 0
-1855 -66 -30 0
-1855 -66 -38 0
-1855 -66 -89 0
-1855 -66 -97 0
-1855 -66 -204 0
-1855 -66 -212 0
-1855 -67 383 0
-1855 -67 -121 -126 0
-1855 -67 -32 0
-1855 -67 -40 0
-1855 -67 -91 0
-1855 -67 -99 0
-1855 -67 -206 0
-1855 -67 -214 0
-1855 -68 384 0
-1855 -68 -121 -127 0
-1855 -68 -34 0
-1855 -68 -42 0
-1855 -68 -93 0
-1855 -68 -101 0
-1855 -68 -208 0
-1855 -68 -216 0
-1855 -69 0
-1856 128 0
-1856 379 0
-1856 -60 0
-1856 -61 0
-1856 -62 0
-1856 -65 0
-1856 -66 382 0
-1856 -66 -122 -125 0
-1856 -66 -38 0
-1856 -66 -46 0
-1856 -66 -97 0
-1856 -66 -105 0
-1856 -66 -212 0
-1856 -66 -220 0
-1856 -67 383 0
-1856 -67 -122 -126 0
-1856 -67 -40 0
-1856 -67 -48 0
-1856 -67 -99 0
-1856 -67 -107 0
-1856 -67 -214 0
-1856 -67 -222 0
-1856 -68 384 0
-1856 -68 -122 -127 0
-1856 -68 -42 0
-1856 -68 -50 0
-1856 -68 -101 0
-1856 -68 -109 0
-1856 -68 -216 0
-1856 -68 -224 0
-1856 -69 0
-1857 128 0
-1857 380 0
-1857 -60 0
-1857 -61 0
-1857 -62 0
-1857 -63 0
-1857 -66 382 0
-1857 -66 -123 -125 0
-1857 -66 -46 0
-1857 -66 -54 0
-1857 -66 -105 0
-1857 -66 -113 0
-1857 -66 -220 0
-1857 -66 -228 0
-1857 -67 383 0
-1857 -67 -123 -126 0
-1857 -67 -48 0
-1857 -67 -56 0
-1857 -67 -107 0
-1857 -67 -115 0
-1857 -67 -222 0
-1857 -67 -230 0
-1857 -68 384 0
-1857 -68 -123 -127 0
-1857 -68 -50 0
-1857 -68 -58 0
-1857 -68 -109 0
-1857 -68 -117 0
-1857 -68 -224 0
-1857 -68 -232 0
-1857 -69 0
-1858 128 0
-1858 376 0
-1858 -179 0
-1858 -180 0
-1858 -181 382 0
-1858 -181 -119 -125 0
-1858 -181 -14 0
-1858 -181 -22 0
-1858 -181 -73 0
-1858 -181 -81 0
-1858 -181 -188 0
-1858 -181 -196 0
-1858 -182 383 0
-1858 -182 -119 -126 0
-1858 -182 -16 0
-1858 -182 -24 0
-1858 -182 -75 0
-1858 -182 -83 0
-1858 -182 -190 0
-1858 -182 -198 0
-1858 -183 384 0
-1858 -183 -119 -127 0
-1858 -183 -18 0
-1858 -183 -26 0
-1858 -183 -77 0
-1858 -183 -85 0
-1858 -183 -192 0
-1858 -183 -200 0
-1858 -184 0
-1859 128 0
-1859 377 0
-1859 -180 0
-1859 -181 382 0
-1859 -181 -120 -125 0
-1859 -181 -22 0
-1859 -181 -30 0
-1859 -181 -81 0
-1859 -181 -89 0
-1859 -181 -196 0
-1859 -181 -204 0
-1859 -182 383 0
-1859 -182 -120 -126 0
-1859 -182 -24 0
-1859 -182 -32 0
-1859 -182 -83 0
-1859 -182 -91 0
-1859 -182 -198 0
-1859 -182 -206 0
-1859 -183 384 0
-1859 -183 -120 -127 0
-1859 -183 -26 0
-1859 -183 -34 0
-1859 -183 -85 0
-1859 -183 -93 0
-1859 -183 -200 0
-1859 -183 -208 0
-1859 -184 0
-1860 128 0
-1860 378 0
-1860 -181 382 0
-1860 -181 -121 -125 0
-1860 -181 -30 0
-1860 -181 -38 0
-1860 -181 -89 0
-1860 -181 -97 0
-1860 -181 -204 0
-1860 -181 -212 0
-1860 -182 383 0
-1860 -182 -121 -126 0
-1860 -182 -32 0
-1860 -182 -40 0
-1860 -182 -91 0
-1860 -182 -99 0
-1860 -182 -206 0
-1860 -182 -214 0
-1860 -183 384 0
-1860 -183 -121 -127 0
-1860 -183 -34 0
-1860 -183 -42 0
-1860 -183 -93 0
-1860 -183 -101 0
-1860 -183 -208 0
-1860 -183 -216 0
-1860 -184 0
-1861 128 0
-1861 379 0
-1861 -177 0
-1861 -181 382 0
-1861 -181 -122 -125 0
-1861 -181 -38 0
-1861 -181 -46 0
-1861 -181 -97 0
-1861 -181 -105 0
-1861 -181 -212 0
-1861 -181 -220 0
-1861 -182 383 0
-1861 -182 -122 -126 0
-1861 -182 -40 0
-1861 -182 -48 0
-1861 -182 -99 0
-1861 -182 -107 0
-1861 -182 -214 0
-1861 -182 -222 0
-1861 -183 384 0
-1861 -183 -122 -127 0
-1861 -183 -42 0
-1861 -183 -50 0
-1861 -183 -101 0
-1861 -183 -109 0
-1861 -183 -216 0
-1861 -183 -224 0
-1861 -184 0
-1862 128 0
-1862 380 0
-1862 -177 0
-1862 -178 0
-1862 -181 382 0
-1862 -181 -123 -125 0
-1862 -181 -46 0
-1862 -181 -54 0
-1862 -181 -105 0
-1862 -181 -113 0
-1862 -181 -220 0
-1862 -181 -228 0
-1862 -182 383 0
-1862 -182 -123 -126 0
-1862 -182 -48 0
-1862 -182 -56 0
-1862 -182 -107 0
-1862 -182 -115 0
-1862 -182 -222 0
-1862 -182 -230 0
-1862 -183 384 0
-1862 -183 -123 -127 0
-1862 -183 -50 0
-1862 -183 -58 0
-1862 -183 -109 0
-1862 -183 -117 0
-1862 -183 -224 0
-1862 -183 -232 0
-1862 -184 0
-1863 128 0
-1863 376 0
-1863 381 0
-1863 -119 -124 0
-1863 -12 0
-1863 -20 0
-1863 -71 0
-1863 -79 0
-1863 -186 0
-1863 -194 0
-1864 128 0
-1864 377 0
-1864 381 0
-1864 -120 -124 0
-1864 -20 0
-1864 -28 0
-1864 -79 0
-1864 -87 0
-1864 -194 0
-1864 -202 0
-1865 128 0
-1865 378 0
-1865 381 0
-1865 -121 -124 0
-1865 -28 0
-1865 -36 0
-1865 -87 0
-1865 -95 0
-1865 -202 0
-1865 -210 0
-1866 128 0
-1866 379 0
-1866 381 0
-1866 -122 -124 0
-1866 -36 0
-1866 -44 0
-1866 -95 0
-1866 -103 0
-1866 -210 0
-1866 -218 0
-1867 128 0
-1867 380 0
-1867 381 0
-1867 -123 -124 0
-1867 -44 0
-1867 -52 0
-1867 -103 0
-1867 -111 0
-1867 -218 0
-1867 -226 0
-1868 185 0
-1868 434 0
-1868 -4 0
-1868 -5 0
-1868 -6 0
-1868 -7 439 0
-1868 -7 -177 -182 0
-1868 -7 -14 0
-1868 -7 -22 0
-1868 -7 -30 0
-1868 -7 -73 0
-1868 -7 -81 0
-1868 -7 -89 0
-1868 -7 -131 0
-1868 -7 -139 0
-1868 -7 -147 0
-1868 -8 440 0
-1868 -8 -177 -183 0
-1868 -8 -16 0
-1868 -8 -24 0
-1868 -8 -32 0
-1868 -8 -75 0
-1868 -8 -83 0
-1868 -8 -91 0
-1868 -8 -133 0
-1868 -8 -141 0
-1868 -8 -149 0
-1868 -9 441 0
-1868 -9 -177 -184 0
-1868 -9 -18 0
-1868 -9 -26 0
-1868 -9 -34 0
-1868 -9 -77 0
-1868 -9 -85 0
-1868 -9 -93 0
-1868 -9 -135 0
-1868 -9 -143 0
-1868 -9 -151 0
-1868 -10 0
-1869 185 0
-1869 435 0
-1869 -1 0
-1869 -5 0
-1869 -6 0
-1869 -7 439 0
-1869 -7 -178 -182 0
-1869 -7 -22 0
-1869 -7 -30 0
-1869 -7 -38 0
-1869 -7 -81 0
-1869 -7 -89 0
-1869 -7 -97 0
-1869 -7 -139 0
-1869 -7 -147 0
-1869 -7 -155 0
-1869 -8 440 0
-1869 -8 -178 -183 0
-1869 -8 -24 0
-1869 -8 -32 0
-1869 -8 -40 0
-1869 -8 -83 0
-1869 -8 -91 0
-1869 -8 -99 0
-1869 -8 -141 0
-1869 -8 -149 0
-1869 -8 -157 0
-1869 -9 441 0
-1869 -9 -178 -184 0
-1869 -9 -26 0
-1869 -9 -34 0
-1869 -9 -42 0
-1869 -9 -85 0
-1869 -9 -93 0
-1869 -9 -101 0
-1869 -9 -143 0
-1869 -9 -151 0
-1869 -9 -159 0
-1869 -10 0
-1870 185 0
-1870 436 0
-1870 -1 0
-1870 -2 0
-1870 -6 0
-1870 -7 439 0
-1870 -7 -179 -182 0
-1870 -7 -30 0
-1870 -7 -38 0
-1870 -7 -46 0
-1870 -7 -89 0
-1870 -7 -97 0
-1870 -7 -105 0
-1870 -7 -147 0
-1870 -7 -155 0
-1870 -7 -163 0
-1870 -8 440 0
-1870 -8 -179 -183 0
-1870 -8 -32 0
-1870 -8 -40 0
-1870 -8 -48 0
-1870 -8 -91 0
-1870 -8 -99 0
-1870 -8 -107 0
-1870 -8 -149 0
-1870 -8 -157 0
-1870 -8 -165 0
-1870 -9 441 0
-1870 -9 -179 -184 0
-1870 -9 -34 0
-1870 -9 -42 0
-1870 -9 -50 0
-1870 -9 -93 0
-1870 -9 -101 0
-1870 -9 -109 0
-1870 -9 -151 0
-1870 -9 -159 0
-1870 -9 -167 0
-1870 -10 0
-1871 185 0
-1871 437 0
-1871 -1 0
-1871 -2 0
-1871 -3 0
-1871 -7 439 0
-1871 -7 -180 -182 0
-1871 -7 -38 0
-1871 -7 -46 0
-1871 -7 -54 0
-1871 -7 -97 0
-1871 -7 -105 0
-1871 -7 -113 0
-1871 -7 -155 0
-1871 -7 -163 0
-1871 -7 -171 0
-1871 -8 440 0
-1871 -8 -180 -183 0
-1871 -8 -40 0
-1871 -8 -48 0
-1871 -8 -56 0
-1871 -8 -99 0
-1871 -8 -107 0
-1871 -8 -115 0
-1871 -8 -157 0
-1871 -8 -165 0
-1871 -8 -173 0
-1871 -9 441 0
-1871 -9 -180 -184 0
-1871 -9 -42 0
-1871 -9 -50 0
-1871 -9 -58 0
-1871 -9 -101 0
-1871 -9 -109 0
-1871 -9 -117 0
-1871 -9 -159 0
-1871 -9 -167 0
-1871 -9 -175 0
-1871 -10 0
-1872 185 0
-1872 434 0
-1872 -63 0
-1872 -64 0
-1872 -65 0
-1872 -66 439 0
-1872 -66 -177 -182 0
-1872 -66 -14 0
-1872 -66 -22 0
-1872 -66 -30 0
-1872 -66 -73 0
-1872 -66 -81 0
-1872 -66 -89 0
-1872 -66 -131 0
-1872 -66 -139 0
-1872 -66 -147 0
-1872 -67 440 0
-1872 -67 -177 -183 0
-1872 -67 -16 0
-1872 -67 -24 0
-1872 -67 -32 0
-1872 -67 -75 0
-1872 -67 -83 0
-1872 -67 -91 0
-1872 -67 -133 0
-1872 -67 -141 0
-1872 -67 -149 0
-1872 -68 441 0
-1872 -68 -177 -184 0
-1872 -68 -18 0
-1872 -68 -26 0
-1872 -68 -34 0
-1872 -68 -77 0
-1872 -68 -85 0
-1872 -68 -93 0
-1872 -68 -135 0
-1872 -68 -143 0
-1872 -68 -151 0
-1872 -69 0
-1873 185 0
-1873 435 0
-1873 -60 0
-1873 -64 0
-1873 -65 0
-1873 -66 439 0
-1873 -66 -178 -182 0
-1873 -66 -22 0
-1873 -66 -30 0
-1873 -66 -38 0
-1873 -66 -81 0
-1873 -66 -89 0
-1873 -66 -97 0
-1873 -66 -139 0
-1873 -66 -147 0
-1873 -66 -155 0
-1873 -67 440 0
-1873 -67 -178 -183 0
-1873 -67 -24 0
-1873 -67 -32 0
-1873 -67 -40 0
-1873 -67 -83 0
-1873 -67 -91 0
-1873 -67 -99 0
-1873 -67 -141 0
-1873 -67 -149 0
-1873 -67 -157 0
-1873 -68 441 0
-1873 -68 -178 -184 0
-1873 -68 -26 0
-1873 -68 -34 0
-1873 -68 -42 0
-1873 -68 -85 0
-1873 -68 -93 0
-1873 -68 -101 0
-1873 -68 -143 0
-1873 -68 -151 0
-1873 -68 -159 0
-1873 -69 0
-1874 185 0
-1874 436 0
-1874 -60 0
-1874 -61 0
-1874 -65 0
-1874 -66 439 0
-1874 -66 -179 -182 0
-1874 -66 -30 0
-1874 -66 -38 0
-1874 -66 -46 0
-1874 -66 -89 0
-1874 -66 -97 0
-1874 -66 -105 0
-1874 -66 -147 0
-1874 -66 -155 0
-1874 -66 -163 0
-1874 -67 440 0
-1874 -67 -179 -183 0
-1874 -67 -32 0
-1874 -67 -40 0
-1874 -67 -48 0
-1874 -67 -91 0
-1874 -67 -99 0
-1874 -67 -107 0
-1874 -67 -149 0
-1874 -67 -157 0
-1874 -67 -165 0
-1874 -68 441 0
-1874 -68 -179 -184 0
-1874 -68 -34 0
-1874 -68 -42 0
-1874 -68 -50 0
-1874 -68 -93 0
-1874 -68 -101 0
-1874 -68 -109 0
-1874 -68 -151 0
-1874 -68 -159 0
-1874 -68 -167 0
-1874 -69 0
-1875 185 0
-1875 437 0
-1875 -60 0
-1875 -61 0
-1875 -62 0
-1875 -66 439 0
-1875 -66 -180 -182 0
-1875 -66 -38 0
-1875 -66 -46 0
-1875 -66 -54 0
-1875 -66 -97 0
-1875 -66 -105 0
-1875 -66 -113 0
-1875 -66 -155 0
-1875 -66 -163 0
-1875 -66 -171 0
-1875 -67 440 0
-1875 -67 -180 -183 0
-1875 -67 -40 0
-1875 -67 -48 0
-1875 -67 -56 0
-1875 -67 -99 0
-1875 -67 -107 0
-1875 -67 -115 0
-1875 -67 -157 0
-1875 -67 -165 0
-1875 -67 -173 0
-1875 -68 441 0
-1875 -68 -180 -184 0
-1875 -68 -42 0
-1875 -68 -50 0
-1875 -68 -58 0
-1875 -68 -101 0
-1875 -68 -109 0
-1875 -68 -117 0
-1875 -68 -159 0
-1875 -68 -167 0
-1875 -68 -175 0
-1875 -69 0
-1876 185 0
-1876 434 0
-1876 -122 0
-1876 -123 0
-1876 -124 439 0
-1876 -124 -177 -182 0
-1876 -124 -14 0
-1876 -124 -22 0
-1876 -124 -30 0
-1876 -124 -73 0
-1876 -124 -81 0
-1876 -124 -89 0
-1876 -124 -131 0
-1876 -124 -139 0
-1876 -124 -147 0
-1876 -125 440 0
-1876 -125 -177 -183 0
-1876 -125 -16 0
-1876 -125 -24 0
-1876 -125 -32 0
-1876 -125 -75 0
-1876 -125 -83 0
-1876 -125 -91 0
-1876 -125 -133 0
-1876 -125 -141 0
-1876 -125 -149 0
-1876 -126 441 0
-1876 -126 -177 -184 0
-1876 -126 -18 0
-1876 -126 -26 0
-1876 -126 -34 0
-1876 -126 -77 0
-1876 -126 -85 0
-1876 -126 -93 0
-1876 -126 -135 0
-1876 -126 -143 0
-1876 -126 -151 0
-1876 -127 0
-1877 185 0
-1877 435 0
-1877 -123 0
-1877 -124 439 0
-1877 -124 -178 -182 0
-1877 -124 -22 0
-1877 -124 -30 0
-1877 -124 -38 0
-1877 -124 -81 0
-1877 -124 -89 0
-1877 -124 -97 0
-1877 -124 -139 0
-1877 -124 -147 0
-1877 -124 -155 0
-1877 -125 440 0
-1877 -125 -178 -183 0
-1877 -125 -24 0
-1877 -125 -32 0
-1877 -125 -40 0
-1877 -125 -83 0
-1877 -125 -91 0
-1877 -125 -99 0
-1877 -125 -141 0
-1877 -125 -149 0
-1877 -125 -157 0
-1877 -126 441 0
-1877 -126 -178 -184 0
-1877 -126 -26 0
-1877 -126 -34 0
-1877 -126 -42 0
-1877 -126 -85 0
-1877 -126 -93 0
-1877 -126 -101 0
-1877 -126 -143 0
-1877 -126 -151 0
-1877 -126 -159 0
-1877 -127 0
-1878 185 0
-1878 436 0
-1878 -119 0
-1878 -124 439 0
-1878 -124 -179 -182 0
-1878 -124 -30 0
-1878 -124 -38 0
-1878 -124 -46 0
-1878 -124 -89 0
-1878 -124 -97 0
-1878 -124 -105 0
-1878 -124 -147 0
-1878 -124 -155 0
-1878 -124 -163 0
-1878 -125 440 0
-1878 -125 -179 -183 0
-1878 -125 -32 0
-1878 -125 -40 0
-1878 -125 -48 0
-1878 -125 -91 0
-1878 -125 -99 0
-1878 -125 -107 0
-1878 -125 -149 0
-1878 -125 -157 0
-1878 -125 -165 0
-1878 -126 441 0
-1878 -126 -179 -184 0
-1878 -126 -34 0
-1878 -126 -42 0
-1878 -126 -50 0
-1878 -126 -93 0
-1878 -126 -101 0
-1878 -126 -109 0
-1878 -126 -151 0
-1878 -126 -159 0
-1878 -126 -167 0
-1878 -127 0
-1879 185 0
-1879 437 0
-1879 -119 0
-1879 -120 0
-1879 -124 439 0
-1879 -124 -180 -182 0
-1879 -124 -38 0
-1879 -124 -46 0
-1879 -124 -54 0
-1879 -124 -97 0
-1879 -124 -105 0
-1879 -124 -113 0
-1879 -124 -155 0
-1879 -124 -163 0
-1879 -124 -171 0
-1879 -125 440 0
-1879 -125 -180 -183 0
-1879 -125 -40 0
-1879 -125 -48 0
-1879 -125 -56 0
-1879 -125 -99 0
-1879 -125 -107 0
-1879 -125 -115 0
-1879 -125 -157 0
-1879 -125 -165 0
-1879 -125 -173 0
-1879 -126 441 0
-1879 -126 -180 -184 0
-1879 -126 -42 0
-1879 -126 -50 0
-1879 -126 -58 0
-1879 -126 -101 0
-1879 -126 -109 0
-1879 -126 -117 0
-1879 -126 -159 0
-1879 -126 -167 0
-1879 -126 -175 0
-1879 -127 0
-1880 185 0
-1880 434 0
-1880 438 0
-1880 -177 -181 0
-1880 -12 0
-1880 -20 0
-1880 -28 0
-1880 -71 0
-1880 -79 0
-1880 -87 0
-1880 -129 0
-1880 -137 0
-1880 -145 0
-1881 185 0
-1881 435 0
-1881 438 0
-1881 -178 -181 0
-1881 -20 0
-1881 -28 0
-1881 -36 0
-1881 -79 0
-1881 -87 0
-1881 -95 0
-1881 -137 0
-1881 -145 0
-1881 -153 0
-1882 185 0
-1882 436 0
-1882 438 0
-1882 -179 -181 0
-1882 -28 0
-1882 -36 0
-1882 -44 0
-1882 -87 0
-1882 -95 0
-1882 -103 0
-1882 -145 0
-1882 -153 0
-1882 -161 0
-1883 185 0
-1883 437 0
-1883 438 0
-1883 -180 -181 0
-1883 -36 0
-1883 -44 0
-1883 -52 0
-1883 -95 0
-1883 -103 0
-1883 -111 0
-1883 -153 0
-1883 -161 0
-1883 -169 0
-1 258 1800 1801 1802 1803 1804 1805 1806 1807 1808 1809 1810 1811 1812 1813 1814 1815 1816 1817 1818 1819 1820 1821 1822 1823 0
-2 259 1800 1801 1802 1803 1804 1805 1806 1807 1808 1809 1810 1811 1812 1813 1814 1815 1816 1817 1818 1819 1820 1821 1822 1823 0
-3 260 1800 1801 1802 1803 1804 1805 1806 1807 1808 1809 1810 1811 1812 1813 1814 1815 1816 1817 1818 1819 1820 1821 1822 1823 0
-4 261 1800 1801 1802 1803 1804 1805 1806 1807 1808 1809 1810 1811 1812 1813 1814 1815 1816 1817 1818 1819 1820 1821 1822 1823 0
-5 262 1800 1801 1802 1803 1804 1805 1806 1807 1808 1809 1810 1811 1812 1813 1814 1815 1816 1817 1818 1819 1820 1821 1822 1823 0
-6 263 1800 1801 1802 1803 1804 1805 1806 1807 1808 1809 1810 1811 1812 1813 1814 1815 1816 1817 1818 1819 1820 1821 1822 1823 0
-7 264 1800 1801 1802 1803 1804 1805 1806 1807 1808 1809 1810 1811 1812 1813 1814 1815 1816 1817 1818 1819 1820 1821 1822 1823 0
-8 265 1800 1801 1802 1803 1804 1805 1806 1807 1808 1809 1810 1811 1812 1813 1814 1815 1816 1817 1818 1819 1820 1821 1822 1823 0
-9 266 1800 1801 1802 1803 1804 1805 1806 1807 1808 1809 1810 1811 1812 1813 1814 1815 1816 1817 1818 1819 1820 1821 1822 1823 0
-10 267 1800 1801 1802 1803 1804 1805 1806 1807 1808 1809 1810 1811 1812 1813 1814 1815 1816 1817 1818 1819 1820 1821 1822 1823 0
-60 317 1824 1825 1826 1827 1828 1829 1830 1831 1832 1833 1834 1835 1836 1837 1838 1839 1840 1841 1842 1843 1844 1845 1846 1847 0
-61 318 1824 1825 1826 1827 1828 1829 1830 1831 1832 1833 1834 1835 1836 1837 1838 1839 1840 1841 1842 1843 1844 1845 1846 1847 0
-62 319 1824 1825 1826 1827 1828 1829 1830 1831 1832 1833 1834 1835 1836 1837 1838 1839 1840 1841 1842 1843 1844 1845 1846 1847 0
-63 320 1824 1825 1826 1827 1828 1829 1830 1831 1832 1833 1834 1835 1836 1837 1838 1839 1840 1841 1842 1843 1844 1845 1846 1847 0
-64 321 1824 1825 1826 1827 1828 1829 1830 1831 1832 1833 1834 1835 1836 1837 1838 1839 1840 1841 1842 1843 1844 1845 1846 1847 0
-65 322 1824 1825 1826 1827 1828 1829 1830 1831 1832 1833 1834 1835 1836 1837 1838 1839 1840 1841 1842 1843 1844 1845 1846 1847 0
-66 323 1824 1825 1826 1827 1828 1829 1830 1831 1832 1833 1834 1835 1836 1837 1838 1839 1840 1841 1842 1843 1844 1845 1846 1847 0
-67 324 1824 1825 1826 1827 1828 1829 1830 1831 1832 1833 1834 1835 1836 1837 1838 1839 1840 1841 1842 1843 1844 1845 1846 1847 0
-68 325 1824 1825 1826 1827 1828 1829 1830 1831 1832 1833 1834 1835 1836 1837 1838 1839 1840 1841 1842 1843 1844 1845 1846 1847 0
-69 326 1824 1825 1826 1827 1828 1829 1830 1831 1832 1833 1834 1835 1836 1837 1838 1839 1840 1841 1842 1843 1844 1845 1846 1847 0
-119 376 1848 1849 1850 1851 1852 1853 1854 1855 1856 1857 1858 1859 1860 1861 1862 1863 1864 1865 1866 1867 0
-120 377 1848 1849 1850 1851 1852 1853 1854 1855 1856 1857 1858 1859 1860 1861 1862 1863 1864 1865 1866 1867 0
-121 378 1848 1849 1850 1851 1852 1853 1854 1855 1856 1857 1858 1859 1860 1861 1862 1863 1864 1865 1866 1867 0
-122 379 1848 1849 1850 1851 1852 1853 1854 1855 1856 1857 1858 1859 1860 1861 1862 1863 1864 1865 1866 1867 0
-123 380 1848 1849 1850 1851 1852 1853 1854 1855 1856 1857 1858 1859 1860 1861 1862 1863 1864 1865 1866 1867 0
-124 381 1848 1849 1850 1851 1852 1853 1854 1855 1856 1857 1858 1859 1860 1861 1862 1863 1864 1865 1866 1867 0
-125 382 1848 1849 1850 1851 1852 1853 1854 1855 1856 1857 1858 1859 1860 1861 1862 1863 1864 1865 1866 1867 0
-126 383 1848 1849 1850 1851 1852 1853 1854 1855 1856 1857 1858 1859 1860 1861 1862 1863 1864 1865 1866 1867 0
-127 384 1848 1849 1850 1851 1852 1853 1854 1855 1856 1857 1858 1859 1860 1861 1862 1863 1864 1865 1866 1867 0
-177 434 1868 1869 1870 1871 1872 1873 1874 1875 1876 1877 1878 1879 1880 1881 1882 1883 0
-178 435 1868 1869 1870 1871 1872 1873 1874 1875 1876 1877 1878 1879 1880 1881 1882 1883 0
-179 436 1868 1869 1870 1871 1872 1873 1874 1875 1876 1877 1878 1879 1880 1881 1882 1883 0
-180 437 1868 1869 1870 1871 1872 1873 1874 1875 1876 1877 1878 1879 1880 1881 1882 1883 0
-181 438 1868 1869 1870 1871 1872 1873 1874 1875 1876 1877 1878 1879 1880 1881 1882 1883 0
-182 439 1868 1869 1870 1871 1872 1873 1874 1875 1876 1877 1878 1879 1880 1881 1882 1883 0
-183 440 1868 1869 1870 1871 1872 1873 1874 1875 1876 1877 1878 1879 1880 1881 1882 1883 0
-184 441 1868 1869 1870 1871 1872 1873 1874 1875 1876 1877 1878 1879 1880 1881 1882 1883 0
-1884 -1885 0
-1884 -1886 0
-1884 -1887 0
-1884 -1888 0
-1884 -1889 0
-1884 -1890 0
-1884 -1891 0
-1884 -1892 0
-1884 -1893 0
-1884 -1894 0
-1884 -1895 0
-1884 -1896 0
-1884 -1897 0
-1884 -1898 0
-1884 -1899 0
-1884 -1900 0
-1884 -1901 0
-1884 -1902 0
-1884 -1903 0
-1884 -1904 0
-1884 -1905 0
-1884 -1906 0
-1884 -1907 0
-1884 -1908 0
-1884 -1909 0
-1884 -1910 0
-1884 -1911 0
-1884 -1912 0
-1884 -1913 0
-1884 -1914 0
-1884 -1915 0
-1884 -1916 0
-1884 -1917 0
-1884 -1918 0
-1884 -1919 0
-1884 -1920 0
-1884 -1921 0
-1884 -1922 0
-1884 -1923 0
-1884 -1924 0
-1884 -1925 0
-1884 -1926 0
-1884 -1927 0
-1884 -1928 0
-1884 -1929 0
-1884 -1930 0
-1884 -1931 0
-1884 -1932 0
-1884 -1933 0
-1884 -1934 0
-1884 -1935 0
-1884 -1936 0
-1884 -1937 0
-1884 -1938 0
-1884 -1939 0
-1884 -1940 0
-1884 -1941 0
-1884 -1942 0
-1884 -1943 0
-1884 -1944 0
-1884 -1945 0
-1884 -1946 0
-1884 -1947 0
-1884 -1948 0
-1884 -1949 0
-1884 -1950 0
-1884 -1951 0
-1884 -1952 0
-1884 -1953 0
-1884 -1954 0
-1884 -1955 0
-1884 -1956 0
-1884 -1957 0
-1884 -1958 0
-1884 -1959 0
-1884 -1960 0
-1884 -1961 0
-1884 -1962 0
-1884 -1963 0
-1884 -1964 0
-1884 -1965 0
-1884 -1966 0
-1884 -1967 0
-1885 -1886 0
-1885 -1887 0
-1885 -1888 0
-1885 -1889 0
-1885 -1890 0
-1885 -1891 0
-1885 -1892 0
-1885 -1893 0
-1885 -1894 0
-1885 -1895 0
-1885 -1896 0
-1885 -1897 0
-1885 -1898 0
-1885 -1899 0
-1885 -1900 0
-1885 -1901 0
-1885 -1902 0
-1885 -1903 0
-1885 -1904 0
-1885 -1905 0
-1885 -1906 0
-1885 -1907 0
-1885 -1908 0
-1885 -1909 0
-1885 -1910 0
-1885 -1911 0
-1885 -1912 0
-1885 -1913 0
-1885 -1914 0
-1885 -1915 0
-1885 -1916 0
-1885 -1917 0
-1885 -1918 0
-1885 -1919 0
-1885 -1920 0
-1885 -1921 0
-1885 -1922 0
-1885 -1923 0
-1885 -1924 0
-1885 -1925 0
-1885 -1926 0
-1885 -1927 0
-1885 -1928 0
-1885 -1929 0
-1885 -1930 0
-1885 -1931 0
-1885 -1932 0
-1885 -1933 0
-1885 -1934 0
-1885 -1935 0
-1885 -1936 0
-1885 -1937 0
-1885 -1938 0
-1885 -1939 0
-1885 -1940 0
-1885 -1941 0
-1885 -1942 0
-1885 -1943 0
-1885 -1944 0
-1885 -1945 0
-1885 -1946 0
-1885 -1947 0
-1885 -1948 0
-1885 -1949 0
-1885 -1950 0
-1885 -1951 0
-1885 -1952 0
-1885 -1953 0
-1885 -1954 0
-1885 -1955 0
-1885 -1956 0
-1885 -1957 0
-1885 -1958 0
-1885 -1959 0
-1885 -1960 0
-1885 -1961 0
-1885 -1962 0
-1885 -1963 0
-1885 -1964 0
-1885 -1965 0
-1885 -1966 0
-1885 -1967 0
-1886 -1887 0
-1886 -1888 0
-1886 -1889 0
-1886 -1890 0
-1886 -1891 0
-1886 -1892 0
-1886 -1893 0
-1886 -1894 0
-1886 -1895 0
-1886 -1896 0
-1886 -1897 0
-1886 -1898 0
-1886 -1899 0
-1886 -1900 0
-1886 -1901 0
-1886 -1902 0
-1886 -1903 0
-1886 -1904 0
-1886 -1905 0
-1886 -1906 0
-1886 -1907 0
-1886 -1908 0
-1886 -1909 0
-1886 -1910 0
-1886 -1911 0
-1886 -1912 0
-1886 -1913 0
-1886 -1914 0
-1886 -1915 0
-1886 -1916 0
-1886 -1917 0
-1886 -1918 0
-1886 -1919 0
-1886 -1920 0
-1886 -1921 0
-1886 -1922 0
-1886 -1923 0
-1886 -1924 0
-1886 -1925 0
-1886 -1926 0
-1886 -1927 0
-1886 -1928 0
-1886 -1929 0
-1886 -1930 0
-1886 -1931 0
-1886 -1932 0
-1886 -1933 0
-1886 -1934 0
-1886 -1935 0
-1886 -1936 0
-1886 -1937 0
-1886 -1938 0
-1886 -1939 0
-1886 -1940 0
-1886 -1941 0
-1886 -1942 0
-1886 -1943 0
-1886 -1944 0
-1886 -1945 0
-1886 -1946 0
-1886 -1947 0
-1886 -1948 0
-1886 -1949 0
-1886 -1950 0
-1886 -1951 0
-1886 -1952 0
-1886 -1953 0
-1886 -1954 0
-1886 -1955 0
-1886 -1956 0
-1886 -1957 0
-1886 -1958 0
-1886 -1959 0
-1886 -1960 0
-1886 -1961 0
-1886 -1962 0
-1886 -1963 0
-1886 -1964 0
-1886 -1965 0
-1886 -1966 0
-1886 -1967 0
-1887 -1888 0
-1887 -1889 0
-1887 -1890 0
-1887 -1891 0
-1887 -1892 0
-1887 -1893 0
-1887 -1894 0
-1887 -1895 0
-1887 -1896 0
-1887 -1897 0
-1887 -1898 0
-1887 -1899 0
-1887 -1900 0
-1887 -1901 0
-1887 -1902 0
-1887 -1903 0
-1887 -1904 0
-1887 -1905 0
-1887 -1906 0
-1887 -1907 0
-1887 -1908 0
-1887 -1909 0
-1887 -1910 0
-1887 -1911 0
-1887 -1912 0
-1887 -1913 0
-1887 -1914 0
-1887 -1915 0
-1887 -1916 0
-1887 -1917 0
-1887 -1918 0
-1887 -1919 0
-1887 -1920 0
-1887 -1921 0
-1887 -1922 0
-1887 -1923 0
-1887 -1924 0
-1887 -1925 0
-1887 -1926 0
-1887 -1927 0
-1887 -1928 0
-1887 -1929 0
-1887 -1930 0
-1887 -1931 0
-1887 -1932 0
-1887 -1933 0
-1887 -1934 0
-1887 -1935 0
-1887 -1936 0
-1887 -1937 0
-1887 -1938 0
-1887 -1939 0
-1887 -1940 0
-1887 -1941 0
-1887 -1942 0
-1887 -1943 0
-1887 -1944 0
-1887 -1945 0
-1887 -1946 0
-1887 -1947 0
-1887 -1948 0
-1887 -1949 0
-1887 -1950 0
-1887 -1951 0
-1887 -1952 0
-1887 -1953 0
-1887 -1954 0
-1887 -1955 0
-1887 -1956 0
-1887 -1957 0
-1887 -1958 0
-1887 -1959 0
-1887 -1960 0
-1887 -1961 0
-1887 -1962 0
-1887 -1963 0
-1887 -1964 0
-1887 -1965 0
-1887 -1966 0
-1887 -1967 0
-1888 -1889 0
-1888 -1890 0
-1888 -1891 0
-1888 -1892 0
-1888 -1893 0
-1888 -1894 0
-1888 -1895 0
-1888 -1896 0
-1888 -1897 0
-1888 -1898 0
-1888 -1899 0
-1888 -1900 0
-1888 -1901 0
-1888 -1902 0
-1888 -1903 0
-1888 -1904 0
-1888 -1905 0
-1888 -1906 0
-1888 -1907 0
-1888 -1908 0
-1888 -1909 0
-1888 -1910 0
-1888 -1911 0
-1888 -1912 0
-1888 -1913 0
-1888 -1914 0
-1888 -1915 0
-1888 -1916 0
-1888 -1917 0
-1888 -1918 0
-1888 -1919 0
-1888 -1920 0
-1888 -1921 0
-1888 -1922 0
-1888 -1923 0
-1888 -1924 0
-1888 -1925 0
-1888 -1926 0
-1888 -1927 0
-1888 -1928 0
-1888 -1929 0
-1888 -1930 0
-1888 -1931 0
-1888 -1932 0
-1888 -1933 0
-1888 -1934 0
-1888 -1935 0
-1888 -1936 0
-1888 -1937 0
-1888 -1938 0
-1888 -1939 0
-1888 -1940 0
-1888 -1941 0
-1888 -1942 0
-1888 -1943 0
-1888 -1944 0
-1888 -1945 0
-1888 -1946 0
-1888 -1947 0
-1888 -1948 0
-1888 -1949 0
-1888 -1950 0
-1888 -1951 0
-1888 -1952 0
-1888 -1953 0
-1888 -1954 0
-1888 -1955 0
-1888 -1956 0
-1888 -1957 0
-1888 -1958 0
-1888 -1959 0
-1888 -1960 0
-1888 -1961 0
-1888 -1962 0
-1888 -1963 0
-1888 -1964 0
-1888 -1965 0
-1888 -1966 0
-1888 -1967 0
-1889 -1890 0
-1889 -1891 0
-1889 -1892 0
-1889 -1893 0
-1889 -1894 0
-1889 -1895 0
-1889 -1896 0
-1889 -1897 0
-1889 -1898 0
-1889 -1899 0
-1889 -1900 0
-1889 -1901 0
-1889 -1902 0
-1889 -1903 0
-1889 -1904 0
-1889 -1905 0
-1889 -1906 0
-1889 -1907 0
-1889 -1908 0
-1889 -1909 0
-1889 -1910 0
-1889 -1911 0
-1889 -1912 0
-1889 -1913 0
-1889 -1914 0
-1889 -1915 0
-1889 -1916 0
-1889 -1917 0
-1889 -1918 0
-1889 -1919 0
-1889 -1920 0
-1889 -1921 0
-1889 -1922 0
-1889 -1923 0
-1889 -1924 0
-1889 -1925 0
-1889 -1926 0
-1889 -1927 0
-1889 -1928 0
-1889 -1929 0
-1889 -1930 0
-1889 -1931 0
-1889 -1932 0
-1889 -1933 0
-1889 -1934 0
-1889 -1935 0
-1889 -1936 0
-1889 -1937 0
-1889 -1938 0
-1889 -1939 0
-1889 -1940 0
-1889 -1941 0
-1889 -1942 0
-1889 -1943 0
-1889 -1944 0
-1889 -1945 0
-1889 -1946 0
-1889 -1947 0
-1889 -1948 0
-1889 -1949 0
-1889 -1950 0
-1889 -1951 0
-1889 -1952 0
-1889 -1953 0
-1889 -1954 0
-1889 -1955 0
-1889 -1956 0
-1889 -1957 0
-1889 -1958 0
-1889 -1959 0
-1889 -1960 0
-1889 -1961 0
-1889 -1962 0
-1889 -1963 0
-1889 -1964 0
-1889 -1965 0
-1889 -1966 0
-1889 -1967 0
-1890 -1891 0
-1890 -1892 0
-1890 -1893 0
-1890 -1894 0
-1890 -1895 0
-1890 -1896 0
-1890 -1897 0
-1890 -1898 0
-1890 -1899 0
-1890 -1900 0
-1890 -1901 0
-1890 -1902 0
-1890 -1903 0
-1890 -1904 0
-1890 -1905 0
-1890 -1906 0
-1890 -1907 0
-1890 -1908 0
-1890 -1909 0
-1890 -1910 0
-1890 -1911 0
-1890 -1912 0
-1890 -1913 0
-1890 -1914 0
-1890 -1915 0
-1890 -1916 0
-1890 -1917 0
-1890 -1918 0
-1890 -1919 0
-1890 -1920 0
-1890 -1921 0
-1890 -1922 0
-1890 -1923 0
-1890 -1924 0
-1890 -1925 0
-1890 -1926 0
-1890 -1927 0
-1890 -1928 0
-1890 -1929 0
-1890 -1930 0
-1890 -1931 0
-1890 -1932 0
-1890 -1933 0
-1890 -1934 0
-1890 -1935 0
-1890 -1936 0
-1890 -1937 0
-1890 -1938 0
-1890 -1939 0
-1890 -1940 0
-1890 -1941 0
-1890 -1942 0
-1890 -1943 0
-1890 -1944 0
-1890 -1945 0
-1890 -1946 0
-1890 -1947 0
-1890 -1948 0
-1890 -1949 0
-1890 -1950 0
-1890 -1951 0
-1890 -1952 0
-1890 -1953 0
-1890 -1954 0
-1890 -1955 0
-1890 -1956 0
-1890 -1957 0
-1890 -1958 0
-1890 -1959 0
-1890 -1960 0
-1890 -1961 0
-1890 -1962 0
-1890 -1963 0
-1890 -1964 0
-1890 -1965 0
-1890 -1966 0
-1890 -1967 0
-1891 -1892 0
-1891 -1893 0
-1891 -1894 0
-1891 -1895 0
-1891 -1896 0
-1891 -1897 0
-1891 -1898 0
-1891 -1899 0
-1891 -1900 0
-1891 -1901 0
-1891 -1902 0
-1891 -1903 0
-1891 -1904 0
-1891 -1905 0
-1891 -1906 0
-1891 -1907 0
-1891 -1908 0
-1891 -1909 0
-1891 -1910 0
-1891 -1911 0
-1891 -1912 0
-1891 -1913 0
-1891 -1914 0
-1891 -1915 0
-1891 -1916 0
-1891 -1917 0
-1891 -1918 0
-1891 -1919 0
-1891 -1920 0
-1891 -1921 0
-1891 -1922 0
-1891 -1923 0
-1891 -1924 0
-1891 -1925 0
-1891 -1926 0
-1891 -1927 0
-1891 -1928 0
-1891 -1929 0
-1891 -1930 0
-1891 -1931 0
-1891 -1932 0
-1891 -1933 0
-1891 -1934 0
-1891 -1935 0
-1891 -1936 0
-1891 -1937 0
-1891 -1938 0
-1891 -1939 0
-1891 -1940 0
-1891 -1941 0
-1891 -1942 0
-1891 -1943 0
-1891 -1944 0
-1891 -1945 0
-1891 -1946 0
-1891 -1947 0
-1891 -1948 0
-1891 -1949 0
-1891 -1950 0
-1891 -1951 0
-1891 -1952 0
-1891 -1953 0
-1891 -1954 0
-1891 -1955 0
-1891 -1956 0
-1891 -1957 0
-1891 -1958 0
-1891 -1959 0
-1891 -1960 0
-1891 -1961 0
-1891 -1962 0
-1891 -1963 0
-1891 -1964 0
-1891 -1965 0
-1891 -1966 0
-1891 -1967 0
-1892 -1893 0
-1892 -1894 0
-1892 -1895 0
-1892 -1896 0
-1892 -1897 0
-1892 -1898 0
-1892 -1899 0
-1892 -1900 0
-1892 -1901 0
-1892 -1902 0
-1892 -1903 0
-1892 -1904 0
-1892 -1905 0
-1892 -1906 0
-1892 -1907 0
-1892 -1908 0
-1892 -1909 0
-1892 -1910 0
-1892 -1911 0
-1892 -1912 0
-1892 -1913 0
-1892 -1914 0
-1892 -1915 0
-1892 -1916 0
-1892 -1917 0
-1892 -1918 0
-1892 -1919 0
-1892 -1920 0
-1892 -1921 0
-1892 -1922 0
-1892 -1923 0
-1892 -1924 0
-1892 -1925 0
-1892 -1926 0
-1892 -1927 0
-1892 -1928 0
-1892 -1929 0
-1892 -1930 0
-1892 -1931 0
-1892 -1932 0
-1892 -1933 0
-1892 -1934 0
-1892 -1935 0
-1892 -1936 0
-1892 -1937 0
-1892 -1938 0
-1892 -1939 0
-1892 -1940 0
-1892 -1941 0
-1892 -1942 0
-1892 -1943 0
-1892 -1944 0
-1892 -1945 0
-1892 -1946 0
-1892 -1947 0
-1892 -1948 0
-1892 -1949 0
-1892 -1950 0
-1892 -1951 0
-1892 -1952 0
-1892 -1953 0
-1892 -1954 0
-1892 -1955 0
-1892 -1956 0
-1892 -1957 0
-1892 -1958 0
-1892 -1959 0
-1892 -1960 0
-1892 -1961 0
-1892 -1962 0
-1892 -1963 0
-1892 -1964 0
-1892 -1965 0
-1892 -1966 0
-1892 -1967 0
-1893 -1894 0
-1893 -1895 0
-1893 -1896 0
-1893 -1897 0
-1893 -1898 0
-1893 -1899 0
-1893 -1900 0
-1893 -1901 0
-1893 -1902 0
-1893 -1903 0
-1893 -1904 0
-1893 -1905 0
-1893 -1906 0
-1893 -1907 0
-1893 -1908 0
-1893 -1909 0
-1893 -1910 0
-1893 -1911 0
-1893 -1912 0
-1893 -1913 0
-1893 -1914 0
-1893 -1915 0
-1893 -1916 0
-1893 -1917 0
-1893 -1918 0
-1893 -1919 0
-1893 -1920 0
-1893 -1921 0
-1893 -1922 0
-1893 -1923 0
-1893 -1924 0
-1893 -1925 0
-1893 -1926 0
-1893 -1927 0
-1893 -1928 0
-1893 -1929 0
-1893 -1930 0
-1893 -1931 0
-1893 -1932 0
-1893 -1933 0
-1893 -1934 0
-1893 -1935 0
-1893 -1936 0
-1893 -1937 0
-1893 -1938 0
-1893 -1939 0
-1893 -1940 0
-1893 -1941 0
-1893 -1942 0
-1893 -1943 0
-1893 -1944 0
-1893 -1945 0
-1893 -1946 0
-1893 -1947 0
-1893 -1948 0
-1893 -1949 0
-1893 -1950 0
-1893 -1951 0
-1893 -1952 0
-1893 -1953 0
-1893 -1954 0
-1893 -1955 0
-1893 -1956 0
-1893 -1957 0
-1893 -1958 0
-1893 -1959 0
-1893 -1960 0
-1893 -1961 0
-1893 -1962 0
-1893 -1963 0
-1893 -1964 0
-1893 -1965 0
-1893 -1966 0
-1893 -1967 0
-1894 -1895 0
-1894 -1896 0
-1894 -1897 0
-1894 -1898 0
-1894 -1899 0
-1894 -1900 0
-1894 -1901 0
-1894 -1902 0
-1894 -1903 0
-1894 -1904 0
-1894 -1905 0
-1894 -1906 0
-1894 -1907 0
-1894 -1908 0
-1894 -1909 0
-1894 -1910 0
-1894 -1911 0
-1894 -1912 0
-1894 -1913 0
-1894 -1914 0
-1894 -1915 0
-1894 -1916 0
-1894 -1917 0
-1894 -1918 0
-1894 -1919 0
-1894 -1920 0
-1894 -1921 0
-1894 -1922 0
-1894 -1923 0
-1894 -1924 0
-1894 -1925 0
-1894 -1926 0
-1894 -1927 0
-1894 -1928 0
-1894 -1929 0
-1894 -1930 0
-1894 -1931 0
-1894 -1932 0
-1894 -1933 0
-1894 -1934 0
-1894 -1935 0
-1894 -1936 0
-1894 -1937 0
-1894 -1938 0
-1894 -1939 0
-1894 -1940 0
-1894 -1941 0
-1894 -1942 0
-1894 -1943 0
-1894 -1944 0
-1894 -1945 0
-1894 -1946 0
-1894 -1947 0
-1894 -1948 0
-1894 -1949 0
-1894 -1950 0
-1894 -1951 0
-1894 -1952 0
-1894 -1953 0
-1894 -1954 0
-1894 -1955 0
-1894 -1956 0
-1894 -1957 0
-1894 -1958 0
-1894 -1959 0
-1894 -1960 0
-1894 -1961 0
-1894 -1962 0
-1894 -1963 0
-1894 -1964 0
-1894 -1965 0
-1894 -1966 0
-1894 -1967 0
-1895 -1896 0
-1895 -1897 0
-1895 -1898 0
-1895 -1899 0
-1895 -1900 0
-1895 -1901 0
-1895 -1902 0
-1895 -1903 0
-1895 -1904 0
-1895 -1905 0
-1895 -1906 0
-1895 -1907 0
-1895 -1908 0
-1895 -1909 0
-1895 -1910 0
-1895 -1911 0
-1895 -1912 0
-1895 -1913 0
-1895 -1914 0
-1895 -1915 0
-1895 -1916 0
-1895 -1917 0
-1895 -1918 0
-1895 -1919 0
-1895 -1920 0
-1895 -1921 0
-1895 -1922 0
-1895 -1923 0
-1895 -1924 0
-1895 -1925 0
-1895 -1926 0
-1895 -1927 0
-1895 -1928 0
-1895 -1929 0
-1895 -1930 0
-1895 -1931 0
-1895 -1932 0
-1895 -1933 0
-1895 -1934 0
-1895 -1935 0
-1895 -1936 0
-1895 -1937 0
-1895 -1938 0
-1895 -1939 0
-1895 -1940 0
-1895 -1941 0
-1895 -1942 0
-1895 -1943 0
-1895 -1944 0
-1895 -1945 0
-1895 -1946 0
-1895 -1947 0
-1895 -1948 0
-1895 -1949 0
-1895 -1950 0
-1895 -1951 0
-1895 -1952 0
-1895 -1953 0
-1895 -1954 0
-1895 -1955 0
-1895 -1956 0
-1895 -1957 0
-1895 -1958 0
-1895 -1959 0
-1895 -1960 0
-1895 -1961 0
-1895 -1962 0
-1895 -1963 0
-1895 -1964 0
-1895 -1965 0
-1895 -1966 0
-1895 -1967 0
-1896 -1897 0
-1896 -1898 0
-1896 -1899 0
-1896 -1900 0
-1896 -1901 0
-1896 -1902 0
-1896 -1903 0
-1896 -1904 0
-1896 -1905 0
-1896 -1906 0
-1896 -1907 0
-1896 -1908 0
-1896 -1909 0
-1896 -1910 0
-1896 -1911 0
-1896 -1912 0
-1896 -1913 0
-1896 -1914 0
-1896 -1915 0
-1896 -1916 0
-1896 -1917 0
-1896 -1918 0
-1896 -1919 0
-1896 -1920 0
-1896 -1921 0
-1896 -1922 0
-1896 -1923 0
-1896 -1924 0
-1896 -1925 0
-1896 -1926 0
-1896 -1927 0
-1896 -1928 0
-1896 -1929 0
-1896 -1930 0
-1896 -1931 0
-1896 -1932 0
-1896 -1933 0
-1896 -1934 0
-1896 -1935 0
-1896 -1936 0
-1896 -1937 0
-1896 -1938 0
-1896 -1939 0
-1896 -1940 0
-1896 -1941 0
-1896 -1942 0
-1896 -1943 0
-1896 -1944 0
-1896 -1945 0
-1896 -1946 0
-1896 -1947 0
-1896 -1948 0
-1896 -1949 0
-1896 -1950 0
-1896 -1951 0
-1896 -1952 0
-1896 -1953 0
-1896 -1954 0
-1896 -1955 0
-1896 -1956 0
-1896 -1957 0
-1896 -1958 0
-1896 -1959 0
-1896 -1960 0
-1896 -1961 0
-1896 -1962 0
-1896 -1963 0
-1896 -1964 0
-1896 -1965 0
-1896 -1966 0
-1896 -1967 0
-1897 -1898 0
-1897 -1899 0
-1897 -1900 0
-1897 -1901 0
-1897 -1902 0
-1897 -1903 0
-1897 -1904 0
-1897 -1905 0
-1897 -1906 0
-1897 -1907 0
-1897 -1908 0
-1897 -1909 0
-1897 -1910 0
-1897 -1911 0
-1897 -1912 0
-1897 -1913 0
-1897 -1914 0
-1897 -1915 0
-1897 -1916 0
-1897 -1917 0
-1897 -1918 0
-1897 -1919 0
-1897 -1920 0
-1897 -1921 0
-1897 -1922 0
-1897 -1923 0
-1897 -1924 0
-1897 -1925 0
-1897 -1926 0
-1897 -1927 0
-1897 -1928 0
-1897 -1929 0
-1897 -1930 0
-1897 -1931 0
-1897 -1932 0
-1897 -1933 0
-1897 -1934 0
-1897 -1935 0
-1897 -1936 0
-1897 -1937 0
-1897 -1938 0
-1897 -1939 0
-1897 -1940 0
-1897 -1941 0
-1897 -1942 0
-1897 -1943 0
-1897 -1944 0
-1897 -1945 0
-1897 -1946 0
-1897 -1947 0
-1897 -1948 0
-1897 -1949 0
-1897 -1950 0
-1897 -1951 0
-1897 -1952 0
-1897 -1953 0
-1897 -1954 0
-1897 -1955 0
-1897 -1956 0
-1897 -1957 0
-1897 -1958 0
-1897 -1959 0
-1897 -1960 0
-1897 -1961 0
-1897 -1962 0
-1897 -1963 0
-1897 -1964 0
-1897 -1965 0
-1897 -1966 0
-1897 -1967 0
-1898 -1899 0
-1898 -1900 0
-1898 -1901 0
-1898 -1902 0
-1898 -1903 0
-1898 -1904 0
-1898 -1905 0
-1898 -1906 0
-1898 -1907 0
-1898 -1908 0
-1898 -1909 0
-1898 -1910 0
-1898 -1911 0
-1898 -1912 0
-1898 -1913 0
-1898 -1914 0
-1898 -1915 0
-1898 -1916 0
-1898 -1917 0
-1898 -1918 0
-1898 -1919 0
-1898 -1920 0
-1898 -1921 0
-1898 -1922 0
-1898 -1923 0
-1898 -1924 0
-1898 -1925 0
-1898 -1926 0
-1898 -1927 0
-1898 -1928 0
-1898 -1929 0
-1898 -1930 0
-1898 -1931 0
-1898 -1932 0
-1898 -1933 0
-1898 -1934 0
-1898 -1935 0
-1898 -1936 0
-1898 -1937 0
-1898 -1938 0
-1898 -1939 0
-1898 -1940 0
-1898 -1941 0
-1898 -1942 0
-1898 -1943 0
-1898 -1944 0
-1898 -1945 0
-1898 -1946 0
-1898 -1947 0
-1898 -1948 0
-1898 -1949 0
-1898 -1950 0
-1898 -1951 0
-1898 -1952 0
-1898 -1953 0
-1898 -1954 0
-1898 -1955 0
-1898 -1956 0
-1898 -1957 0
-1898 -1958 0
-1898 -1959 0
-1898 -1960 0
-1898 -1961 0
-1898 -1962 0
-1898 -1963 0
-1898 -1964 0
-1898 -1965 0
-1898 -1966 0
-1898 -1967 0
-1899 -1900 0
-1899 -1901 0
-1899 -1902 0
-1899 -1903 0
-1899 -1904 0
-1899 -1905 0
-1899 -1906 0
-1899 -1907 0
-1899 -1908 0
-1899 -1909 0
-1899 -1910 0
-1899 -1911 0
-1899 -1912 0
-1899 -1913 0
-1899 -1914 0
-1899 -1915 0
-1899 -1916 0
-1899 -1917 0
-1899 -1918 0
-1899 -1919 0
-1899 -1920 0
-1899 -1921 0
-1899 -1922 0
-1899 -1923 0
-1899 -1924 0
-1899 -1925 0
-1899 -1926 0
-1899 -1927 0
-1899 -1928 0
-1899 -1929 0
-1899 -1930 0
-1899 -1931 0
-1899 -1932 0
-1899 -1933 0
-1899 -1934 0
-1899 -1935 0
-1899 -1936 0
-1899 -1937 0
-1899 -1938 0
-1899 -1939 0
-1899 -1940 0
-1899 -1941 0
-1899 -1942 0
-1899 -1943 0
-1899 -1944 0
-1899 -1945 0
-1899 -1946 0
-1899 -1947 0
-1899 -1948 0
-1899 -1949 0
-1899 -1950 0
-1899 -1951 0
-1899 -1952 0
-1899 -1953 0
-1899 -1954 0
-1899 -1955 0
-1899 -1956 0
-1899 -1957 0
-1899 -1958 0
-1899 -1959 0
-1899 -1960 0
-1899 -1961 0
-1899 -1962 0
-1899 -1963 0
-1899 -1964 0
-1899 -1965 0
-1899 -1966 0
-1899 -1967 0
-1900 -1901 0
-1900 -1902 0
-1900 -1903 0
-1900 -1904 0
-1900 -1905 0
-1900 -1906 0
-1900 -1907 0
-1900 -1908 0
-1900 -1909 0
-1900 -1910 0
-1900 -1911 0
-1900 -1912 0
-1900 -1913 0
-1900 -1914 0
-1900 -1915 0
-1900 -1916 0
-1900 -1917 0
-1900 -1918 0
-1900 -1919 0
-1900 -1920 0
-1900 -1921 0
-1900 -1922 0
-1900 -1923 0
-1900 -1924 0
-1900 -1925 0
-1900 -1926 0
-1900 -1927 0
-1900 -1928 0
-1900 -1929 0
-1900 -1930 0
-1900 -1931 0
-1900 -1932 0
-1900 -1933 0
-1900 -1934 0
-1900 -1935 0
-1900 -1936 0
-1900 -1937 0
-1900 -1938 0
-1900 -1939 0
-1900 -1940 0
-1900 -1941 0
-1900 -1942 0
-1900 -1943 0
-1900 -1944 0
-1900 -1945 0
-1900 -1946 0
-1900 -1947 0
-1900 -1948 0
-1900 -1949 0
-1900 -1950 0
-1900 -1951 0
-1900 -1952 0
-1900 -1953 0
-1900 -1954 0
-1900 -1955 0
-1900 -1956 0
-1900 -1957 0
-1900 -1958 0
-1900 -1959 0
-1900 -1960 0
-1900 -1961 0
-1900 -1962 0
-1900 -1963 0
-1900 -1964 0
-1900 -1965 0
-1900 -1966 0
-1900 -1967 0
-1901 -1902 0
-1901 -1903 0
-1901 -1904 0
-1901 -1905 0
-1901 -1906 0
-1901 -1907 0
-1901 -1908 0
-1901 -1909 0
-1901 -1910 0
-1901 -1911 0
-1901 -1912 0
-1901 -1913 0
-1901 -1914 0
-1901 -1915 0
-1901 -1916 0
-1901 -1917 0
-1901 -1918 0
-1901 -1919 0
-1901 -1920 0
-1901 -1921 0
-1901 -1922 0
-1901 -1923 0
-1901 -1924 0
-1901 -1925 0
-1901 -1926 0
-1901 -1927 0
-1901 -1928 0
-1901 -1929 0
-1901 -1930 0
-1901 -1931 0
-1901 -1932 0
-1901 -1933 0
-1901 -1934 0
-1901 -1935 0
-1901 -1936 0
-1901 -1937 0
-1901 -1938 0
-1901 -1939 0
-1901 -1940 0
-1901 -1941 0
-1901 -1942 0
-1901 -1943 0
-1901 -1944 0
-1901 -1945 0
-1901 -1946 0
-1901 -1947 0
-1901 -1948 0
-1901 -1949 0
-1901 -1950 0
-1901 -1951 0
-1901 -1952 0
-1901 -1953 0
-1901 -1954 0
-1901 -1955 0
-1901 -1956 0
-1901 -1957 0
-1901 -1958 0
-1901 -1959 0
-1901 -1960 0
-1901 -1961 0
-1901 -1962 0
-1901 -1963 0
-1901 -1964 0
-1901 -1965 0
-1901 -1966 0
-1901 -1967 0
-1902 -1903 0
-1902 -1904 0
-1902 -1905 0
-1902 -1906 0
-1902 -1907 0
-1902 -1908 0
-1902 -1909 0
-1902 -1910 0
-1902 -1911 0
-1902 -1912 0
-1902 -1913 0
-1902 -1914 0
-1902 -1915 0
-1902 -1916 0
-1902 -1917 0
-1902 -1918 0
-1902 -1919 0
-1902 -1920 0
-1902 -1921 0
-1902 -1922 0
-1902 -1923 0
-1902 -1924 0
-1902 -1925 0
-1902 -1926 0
-1902 -1927 0
-1902 -1928 0
-1902 -1929 0
-1902 -1930 0
-1902 -1931 0
-1902 -1932 0
-1902 -1933 0
-1902 -1934 0
-1902 -1935 0
-1902 -1936 0
-1902 -1937 0
-1902 -1938 0
-1902 -1939 0
-1902 -1940 0
-1902 -1941 0
-1902 -1942 0
-1902 -1943 0
-1902 -1944 0
-1902 -1945 0
-1902 -1946 0
-1902 -1947 0
-1902 -1948 0
-1902 -1949 0
-1902 -1950 0
-1902 -1951 0
-1902 -1952 0
-1902 -1953 0
-1902 -1954 0
-1902 -1955 0
-1902 -1956 0
-1902 -1957 0
-1902 -1958 0
-1902 -1959 0
-1902 -1960 0
-1902 -1961 0
-1902 -1962 0
-1902 -1963 0
-1902 -1964 0
-1902 -1965 0
-1902 -1966 0
-1902 -1967 0
-1903 -1904 0
-1903 -1905 0
-1903 -1906 0
-1903 -1907 0
-1903 -1908 0
-1903 -1909 0
-1903 -1910 0
-1903 -1911 0
-1903 -1912 0
-1903 -1913 0
-1903 -1914 0
-1903 -1915 0
-1903 -1916 0
-1903 -1917 0
-1903 -1918 0
-1903 -1919 0
-1903 -1920 0
-1903 -1921 0
-1903 -1922 0
-1903 -1923 0
-1903 -1924 0
-1903 -1925 0
-1903 -1926 0
-1903 -1927 0
-1903 -1928 0
-1903 -1929 0
-1903 -1930 0
-1903 -1931 0
-1903 -1932 0
-1903 -1933 0
-1903 -1934 0
-1903 -1935 0
-1903 -1936 0
-1903 -1937 0
-1903 -1938 0
-1903 -1939 0
-1903 -1940 0
-1903 -1941 0
-1903 -1942 0
-1903 -1943 0
-1903 -1944 0
-1903 -1945 0
-1903 -1946 0
-1903 -1947 0
-1903 -1948 0
-1903 -1949 0
-1903 -1950 0
-1903 -1951 0
-1903 -1952 0
-1903 -1953 0
-1903 -1954 0
-1903 -1955 0
-1903 -1956 0
-1903 -1957 0
-1903 -1958 0
-1903 -1959 0
-1903 -1960 0
-1903 -1961 0
-1903 -1962 0
-1903 -1963 0
-1903 -1964 0
-1903 -1965 0
-1903 -1966 0
-1903 -1967 0
-1904 -1905 0
-1904 -1906 0
-1904 -1907 0
-1904 -1908 0
-1904 -1909 0
-1904 -1910 0
-1904 -1911 0
-1904 -1912 0
-1904 -1913 0
-1904 -1914 0
-1904 -1915 0
-1904 -1916 0
-1904 -1917 0
-1904 -1918 0
-1904 -1919 0
-1904 -1920 0
-1904 -1921 0
-1904 -1922 0
-1904 -1923 0
-1904 -1924 0
-1904 -1925 0
-1904 -1926 0
-1904 -1927 0
-1904 -1928 0
-1904 -1929 0
-1904 -1930 0
-1904 -1931 0
-1904 -1932 0
-1904 -1933 0
-1904 -1934 0
-1904 -1935 0
-1904 -1936 0
-1904 -1937 0
-1904 -1938 0
-1904 -1939 0
-1904 -1940 0
-1904 -1941 0
-1904 -1942 0
-1904 -1943 0
-1904 -1944 0
-1904 -1945 0
-1904 -1946 0
-1904 -1947 0
-1904 -1948 0
-1904 -1949 0
-1904 -1950 0
-1904 -1951 0
-1904 -1952 0
-1904 -1953 0
-1904 -1954 0
-1904 -1955 0
-1904 -1956 0
-1904 -1957 0
-1904 -1958 0
-1904 -1959 0
-1904 -1960 0
-1904 -1961 0
-1904 -1962 0
-1904 -1963 0
-1904 -1964 0
-1904 -1965 0
-1904 -1966 0
-1904 -1967 0
-1905 -1906 0
-1905 -1907 0
-1905 -1908 0
-1905 -1909 0
-1905 -1910 0
-1905 -1911 0
-1905 -1912 0
-1905 -1913 0
-1905 -1914 0
-1905 -1915 0
-1905 -1916 0
-1905 -1917 0
-1905 -1918 0
-1905 -1919 0
-1905 -1920 0
-1905 -1921 0
-1905 -1922 0
-1905 -1923 0
-1905 -1924 0
-1905 -1925 0
-1905 -1926 0
-1905 -1927 0
-1905 -1928 0
-1905 -1929 0
-1905 -1930 0
-1905 -1931 0
-1905 -1932 0
-1905 -1933 0
-1905 -1934 0
-1905 -1935 0
-1905 -1936 0
-1905 -1937 0
-1905 -1938 0
-1905 -1939 0
-1905 -1940 0
-1905 -1941 0
-1905 -1942 0
-1905 -1943 0
-1905 -1944 0
-1905 -1945 0
-1905 -1946 0
-1905 -1947 0
-1905 -1948 0
-1905 -1949 0
-1905 -1950 0
-1905 -1951 0
-1905 -1952 0
-1905 -1953 0
-1905 -1954 0
-1905 -1955 0
-1905 -1956 0
-1905 -1957 0
-1905 -1958 0
-1905 -1959 0
-1905 -1960 0
-1905 -1961 0
-1905 -1962 0
-1905 -1963 0
-1905 -1964 0
-1905 -1965 0
-1905 -1966 0
-1905 -1967 0
-1906 -1907 0
-1906 -1908 0
-1906 -1909 0
-1906 -1910 0
-1906 -1911 0
-1906 -1912 0
-1906 -1913 0
-1906 -1914 0
-1906 -1915 0
-1906 -1916 0
-1906 -1917 0
-1906 -1918 0
-1906 -1919 0
-1906 -1920 0
-1906 -1921 0
-1906 -1922 0
-1906 -1923 0
-1906 -1924 0
-1906 -1925 0
-1906 -1926 0
-1906 -1927 0
-1906 -1928 0
-1906 -1929 0
-1906 -1930 0
-1906 -1931 0
-1906 -1932 0
-1906 -1933 0
-1906 -1934 0
-1906 -1935 0
-1906 -1936 0
-1906 -1937 0
-1906 -1938 0
-1906 -1939 0
-1906 -1940 0
-1906 -1941 0
-1906 -1942 0
-1906 -1943 0
-1906 -1944 0
-1906 -1945 0
-1906 -1946 0
-1906 -1947 0
-1906 -1948 0
-1906 -1949 0
-1906 -1950 0
-1906 -1951 0
-1906 -1952 0
-1906 -1953 0
-1906 -1954 0
-1906 -1955 0
-1906 -1956 0
-1906 -1957 0
-1906 -1958 0
-1906 -1959 0
-1906 -1960 0
-1906 -1961 0
-1906 -1962 0
-1906 -1963 0
-1906 -1964 0
-1906 -1965 0
-1906 -1966 0
-1906 -1967 0
-1907 -1908 0
-1907 -1909 0
-1907 -1910 0
-1907 -1911 0
-1907 -1912 0
-1907 -1913 0
-1907 -1914 0
-1907 -1915 0
-1907 -1916 0
-1907 -1917 0
-1907 -1918 0
-1907 -1919 0
-1907 -1920 0
-1907 -1921 0
-1907 -1922 0
-1907 -1923 0
-1907 -1924 0
-1907 -1925 0
-1907 -1926 0
-1907 -1927 0
-1907 -1928 0
-1907 -1929 0
-1907 -1930 0
-1907 -1931 0
-1907 -1932 0
-1907 -1933 0
-1907 -1934 0
-1907 -1935 0
-1907 -1936 0
-1907 -1937 0
-1907 -1938 0
-1907 -1939 0
-1907 -1940 0
-1907 -1941 0
-1907 -1942 0
-1907 -1943 0
-1907 -1944 0
-1907 -1945 0
-1907 -1946 0
-1907 -1947 0
-1907 -1948 0
-1907 -1949 0
-1907 -1950 0
-1907 -1951 0
-1907 -1952 0
-1907 -1953 0
-1907 -1954 0
-1907 -1955 0
-1907 -1956 0
-1907 -1957 0
-1907 -1958 0
-1907 -1959 0
-1907 -1960 0
-1907 -1961 0
-1907 -1962 0
-1907 -1963 0
-1907 -1964 0
-1907 -1965 0
-1907 -1966 0
-1907 -1967 0
-1908 -1909 0
-1908 -1910 0
-1908 -1911 0
-1908 -1912 0
-1908 -1913 0
-1908 -1914 0
-1908 -1915 0
-1908 -1916 0
-1908 -1917 0
-1908 -1918 0
-1908 -1919 0
-1908 -1920 0
-1908 -1921 0
-1908 -1922 0
-1908 -1923 0
-1908 -1924 0
-1908 -1925 0
-1908 -1926 0
-1908 -1927 0
-1908 -1928 0
-1908 -1929 0
-1908 -1930 0
-1908 -1931 0
-1908 -1932 0
-1908 -1933 0
-1908 -1934 0
-1908 -1935 0
-1908 -1936 0
-1908 -1937 0
-1908 -1938 0
-1908 -1939 0
-1908 -1940 0
-1908 -1941 0
-1908 -1942 0
-1908 -1943 0
-1908 -1944 0
-1908 -1945 0
-1908 -1946 0
-1908 -1947 0
-1908 -1948 0
-1908 -1949 0
-1908 -1950 0
-1908 -1951 0
-1908 -1952 0
-1908 -1953 0
-1908 -1954 0
-1908 -1955 0
-1908 -1956 0
-1908 -1957 0
-1908 -1958 0
-1908 -1959 0
-1908 -1960 0
-1908 -1961 0
-1908 -1962 0
-1908 -1963 0
-1908 -1964 0
-1908 -1965 0
-1908 -1966 0
-1908 -1967 0
-1909 -1910 0
-1909 -1911 0
-1909 -1912 0
-1909 -1913 0
-1909 -1914 0
-1909 -1915 0
-1909 -1916 0
-1909 -1917 0
-1909 -1918 0
-1909 -1919 0
-1909 -1920 0
-1909 -1921 0
-1909 -1922 0
-1909 -1923 0
-1909 -1924 0
-1909 -1925 0
-1909 -1926 0
-1909 -1927 0
-1909 -1928 0
-1909 -1929 0
-1909 -1930 0
-1909 -1931 0
-1909 -1932 0
-1909 -1933 0
-1909 -1934 0
-1909 -1935 0
-1909 -1936 0
-1909 -1937 0
-1909 -1938 0
-1909 -1939 0
-1909 -1940 0
-1909 -1941 0
-1909 -1942 0
-1909 -1943 0
-1909 -1944 0
-1909 -1945 0
-1909 -1946 0
-1909 -1947 0
-1909 -1948 0
-1909 -1949 0
-1909 -1950 0
-1909 -1951 0
-1909 -1952 0
-1909 -1953 0
-1909 -1954 0
-1909 -1955 0
-1909 -1956 0
-1909 -1957 0
-1909 -1958 0
-1909 -1959 0
-1909 -1960 0
-1909 -1961 0
-1909 -1962 0
-1909 -1963 0
-1909 -1964 0
-1909 -1965 0
-1909 -1966 0
-1909 -1967 0
-1910 -1911 0
-1910 -1912 0
-1910 -1913 0
-1910 -1914 0
-1910 -1915 0
-1910 -1916 0
-1910 -1917 0
-1910 -1918 0
-1910 -1919 0
-1910 -1920 0
-1910 -1921 0
-1910 -1922 0
-1910 -1923 0
-1910 -1924 0
-1910 -1925 0
-1910 -1926 0
-1910 -1927 0
-1910 -1928 0
-1910 -1929 0
-1910 -1930 0
-1910 -1931 0
-1910 -1932 0
-1910 -1933 0
-1910 -1934 0
-1910 -1935 0
-1910 -1936 0
-1910 -1937 0
-1910 -1938 0
-1910 -1939 0
-1910 -1940 0
-1910 -1941 0
-1910 -1942 0
-1910 -1943 0
-1910 -1944 0
-1910 -1945 0
-1910 -1946 0
-1910 -1947 0
-1910 -1948 0
-1910 -1949 0
-1910 -1950 0
-1910 -1951 0
-1910 -1952 0
-1910 -1953 0
-1910 -1954 0
-1910 -1955 0
-1910 -1956 0
-1910 -1957 0
-1910 -1958 0
-1910 -1959 0
-1910 -1960 0
-1910 -1961 0
-1910 -1962 0
-1910 -1963 0
-1910 -1964 0
-1910 -1965 0
-1910 -1966 0
-1910 -1967 0
-1911 -1912 0
-1911 -1913 0
-1911 -1914 0
-1911 -1915 0
-1911 -1916 0
-1911 -1917 0
-1911 -1918 0
-1911 -1919 0
-1911 -1920 0
-1911 -1921 0
-1911 -1922 0
-1911 -1923 0
-1911 -1924 0
-1911 -1925 0
-1911 -1926 0
-1911 -1927 0
-1911 -1928 0
-1911 -1929 0
-1911 -1930 0
-1911 -1931 0
-1911 -1932 0
-1911 -1933 0
-1911 -1934 0
-1911 -1935 0
-1911 -1936 0
-1911 -1937 0
-1911 -1938 0
-1911 -1939 0
-1911 -1940 0
-1911 -1941 0
-1911 -1942 0
-1911 -1943 0
-1911 -1944 0
-1911 -1945 0
-1911 -1946 0
-1911 -1947 0
-1911 -1948 0
-1911 -1949 0
-1911 -1950 0
-1911 -1951 0
-1911 -1952 0
-1911 -1953 0
-1911 -1954 0
-1911 -1955 0
-1911 -1956 0
-1911 -1957 0
-1911 -1958 0
-1911 -1959 0
-1911 -1960 0
-1911 -1961 0
-1911 -1962 0
-1911 -1963 0
-1911 -1964 0
-1911 -1965 0
-1911 -1966 0
-1911 -1967 0
-1912 -1913 0
-1912 -1914 0
-1912 -1915 0
-1912 -1916 0
-1912 -1917 0
-1912 -1918 0
-1912 -1919 0
-1912 -1920 0
-1912 -1921 0
-1912 -1922 0
-1912 -1923 0
-1912 -1924 0
-1912 -1925 0
-1912 -1926 0
-1912 -1927 0
-1912 -1928 0
-1912 -1929 0
-1912 -1930 0
-1912 -1931 0
-1912 -1932 0
-1912 -1933 0
-1912 -1934 0
-1912 -1935 0
-1912 -1936 0
-1912 -1937 0
-1912 -1938 0
-1912 -1939 0
-1912 -1940 0
-1912 -1941 0
-1912 -1942 0
-1912 -1943 0
-1912 -1944 0
-1912 -1945 0
-1912 -1946 0
-1912 -1947 0
-1912 -1948 0
-1912 -1949 0
-1912 -1950 0
-1912 -1951 0
-1912 -1952 0
-1912 -1953 0
-1912 -1954 0
-1912 -1955 0
-1912 -1956 0
-1912 -1957 0
-1912 -1958 0
-1912 -1959 0
-1912 -1960 0
-1912 -1961 0
-1912 -1962 0
-1912 -1963 0
-1912 -1964 0
-1912 -1965 0
-1912 -1966 0
-1912 -1967 0
-1913 -1914 0
-1913 -1915 0
-1913 -1916 0
-1913 -1917 0
-1913 -1918 0
-1913 -1919 0
-1913 -1920 0
-1913 -1921 0
-1913 -1922 0
-1913 -1923 0
-1913 -1924 0
-1913 -1925 0
-1913 -1926 0
-1913 -1927 0
-1913 -1928 0
-1913 -1929 0
-1913 -1930 0
-1913 -1931 0
-1913 -1932 0
-1913 -1933 0
-1913 -1934 0
-1913 -1935 0
-1913 -1936 0
-1913 -1937 0
-1913 -1938 0
-1913 -1939 0
-1913 -1940 0
-1913 -1941 0
-1913 -1942 0
-1913 -1943 0
-1913 -1944 0
-1913 -1945 0
-1913 -1946 0
-1913 -1947 0
-1913 -1948 0
-1913 -1949 0
-1913 -1950 0
-1913 -1951 0
-1913 -1952 0
-1913 -1953 0
-1913 -1954 0
-1913 -1955 0
-1913 -1956 0
-1913 -1957 0
-1913 -1958 0
-1913 -1959 0
-1913 -1960 0
-1913 -1961 0
-1913 -1962 0
-1913 -1963 0
-1913 -1964 0
-1913 -1965 0
-1913 -1966 0
-1913 -1967 0
-1914 -1915 0
-1914 -1916 0
-1914 -1917 0
-1914 -1918 0
-1914 -1919 0
-1914 -1920 0
-1914 -1921 0
-1914 -1922 0
-1914 -1923 0
-1914 -1924 0
-1914 -1925 0
-1914 -1926 0
-1914 -1927 0
-1914 -1928 0
-1914 -1929 0
-1914 -1930 0
-1914 -1931 0
-1914 -1932 0
-1914 -1933 0
-1914 -1934 0
-1914 -1935 0
-1914 -1936 0
-1914 -1937 0
-1914 -1938 0
-1914 -1939 0
-1914 -1940 0
-1914 -1941 0
-1914 -1942 0
-1914 -1943 0
-1914 -1944 0
-1914 -1945 0
-1914 -1946 0
-1914 -1947 0
-1914 -1948 0
-1914 -1949 0
-1914 -1950 0
-1914 -1951 0
-1914 -1952 0
-1914 -1953 0
-1914 -1954 0
-1914 -1955 0
-1914 -1956 0
-1914 -1957 0
-1914 -1958 0
-1914 -1959 0
-1914 -1960 0
-1914 -1961 0
-1914 -1962 0
-1914 -1963 0
-1914 -1964 0
-1914 -1965 0
-1914 -1966 0
-1914 -1967 0
-1915 -1916 0
-1915 -1917 0
-1915 -1918 0
-1915 -1919 0
-1915 -1920 0
-1915 -1921 0
-1915 -1922 0
-1915 -1923 0
-1915 -1924 0
-1915 -1925 0
-1915 -1926 0
-1915 -1927 0
-1915 -1928 0
-1915 -1929 0
-1915 -1930 0
-1915 -1931 0
-1915 -1932 0
-1915 -1933 0
-1915 -1934 0
-1915 -1935 0
-1915 -1936 0
-1915 -1937 0
-1915 -1938 0
-1915 -1939 0
-1915 -1940 0
-1915 -1941 0
-1915 -1942 0
-1915 -1943 0
-1915 -1944 0
-1915 -1945 0
-1915 -1946 0
-1915 -1947 0
-1915 -1948 0
-1915 -1949 0
-1915 -1950 0
-1915 -1951 0
-1915 -1952 0
-1915 -1953 0
-1915 -1954 0
-1915 -1955 0
-1915 -1956 0
-1915 -1957 0
-1915 -1958 0
-1915 -1959 0
-1915 -1960 0
-1915 -1961 0
-1915 -1962 0
-1915 -1963 0
-1915 -1964 0
-1915 -1965 0
-1915 -1966 0
-1915 -1967 0
-1916 -1917 0
-1916 -1918 0
-1916 -1919 0
-1916 -1920 0
-1916 -1921 0
-1916 -1922 0
-1916 -1923 0
-1916 -1924 0
-1916 -1925 0
-1916 -1926 0
-1916 -1927 0
-1916 -1928 0
-1916 -1929 0
-1916 -1930 0
-1916 -1931 0
-1916 -1932 0
-1916 -1933 0
-1916 -1934 0
-1916 -1935 0
-1916 -1936 0
-1916 -1937 0
-1916 -1938 0
-1916 -1939 0
-1916 -1940 0
-1916 -1941 0
-1916 -1942 0
-1916 -1943 0
-1916 -1944 0
-1916 -1945 0
-1916 -1946 0
-1916 -1947 0
-1916 -1948 0
-1916 -1949 0
-1916 -1950 0
-1916 -1951 0
-1916 -1952 0
-1916 -1953 0
-1916 -1954 0
-1916 -1955 0
-1916 -1956 0
-1916 -1957 0
-1916 -1958 0
-1916 -1959 0
-1916 -1960 0
-1916 -1961 0
-1916 -1962 0
-1916 -1963 0
-1916 -1964 0
-1916 -1965 0
-1916 -1966 0
-1916 -1967 0
-1917 -1918 0
-1917 -1919 0
-1917 -1920 0
-1917 -1921 0
-1917 -1922 0
-1917 -1923 0
-1917 -1924 0
-1917 -1925 0
-1917 -1926 0
-1917 -1927 0
-1917 -1928 0
-1917 -1929 0
-1917 -1930 0
-1917 -1931 0
-1917 -1932 0
-1917 -1933 0
-1917 -1934 0
-1917 -1935 0
-1917 -1936 0
-1917 -1937 0
-1917 -1938 0
-1917 -1939 0
-1917 -1940 0
-1917 -1941 0
-1917 -1942 0
-1917 -1943 0
-1917 -1944 0
-1917 -1945 0
-1917 -1946 0
-1917 -1947 0
-1917 -1948 0
-1917 -1949 0
-1917 -1950 0
-1917 -1951 0
-1917 -1952 0
-1917 -1953 0
-1917 -1954 0
-1917 -1955 0
-1917 -1956 0
-1917 -1957 0
-1917 -1958 0
-1917 -1959 0
-1917 -1960 0
-1917 -1961 0
-1917 -1962 0
-1917 -1963 0
-1917 -1964 0
-1917 -1965 0
-1917 -1966 0
-1917 -1967 0
-1918 -1919 0
-1918 -1920 0
-1918 -1921 0
-1918 -1922 0
-1918 -1923 0
-1918 -1924 0
-1918 -1925 0
-1918 -1926 0
-1918 -1927 0
-1918 -1928 0
-1918 -1929 0
-1918 -1930 0
-1918 -1931 0
-1918 -1932 0
-1918 -1933 0
-1918 -1934 0
-1918 -1935 0
-1918 -1936 0
-1918 -1937 0
-1918 -1938 0
-1918 -1939 0
-1918 -1940 0
-1918 -1941 0
-1918 -1942 0
-1918 -1943 0
-1918 -1944 0
-1918 -1945 0
-1918 -1946 0
-1918 -1947 0
-1918 -1948 0
-1918 -1949 0
-1918 -1950 0
-1918 -1951 0
-1918 -1952 0
-1918 -1953 0
-1918 -1954 0
-1918 -1955 0
-1918 -1956 0
-1918 -1957 0
-1918 -1958 0
-1918 -1959 0
-1918 -1960 0
-1918 -1961 0
-1918 -1962 0
-1918 -1963 0
-1918 -1964 0
-1918 -1965 0
-1918 -1966 0
-1918 -1967 0
-1919 -1920 0
-1919 -1921 0
-1919 -1922 0
-1919 -1923 0
-1919 -1924 0
-1919 -1925 0
-1919 -1926 0
-1919 -1927 0
-1919 -1928 0
-1919 -1929 0
-1919 -1930 0
-1919 -1931 0
-1919 -1932 0
-1919 -1933 0
-1919 -1934 0
-1919 -1935 0
-1919 -1936 0
-1919 -1937 0
-1919 -1938 0
-1919 -1939 0
-1919 -1940 0
-1919 -1941 0
-1919 -1942 0
-1919 -1943 0
-1919 -1944 0
-1919 -1945 0
-1919 -1946 0
-1919 -1947 0
-1919 -1948 0
-1919 -1949 0
-1919 -1950 0
-1919 -1951 0
-1919 -1952 0
-1919 -1953 0
-1919 -1954 0
-1919 -1955 0
-1919 -1956 0
-1919 -1957 0
-1919 -1958 0
-1919 -1959 0
-1919 -1960 0
-1919 -1961 0
-1919 -1962 0
-1919 -1963 0
-1919 -1964 0
-1919 -1965 0
-1919 -1966 0
-1919 -1967 0
-1920 -1921 0
-1920 -1922 0
-1920 -1923 0
-1920 -1924 0
-1920 -1925 0
-1920 -1926 0
-1920 -1927 0
-1920 -1928 0
-1920 -1929 0
-1920 -1930 0
-1920 -1931 0
-1920 -1932 0
-1920 -1933 0
-1920 -1934 0
-1920 -1935 0
-1920 -1936 0
-1920 -1937 0
-1920 -1938 0
-1920 -1939 0
-1920 -1940 0
-1920 -1941 0
-1920 -1942 0
-1920 -1943 0
-1920 -1944 0
-1920 -1945 0
-1920 -1946 0
-1920 -1947 0
-1920 -1948 0
-1920 -1949 0
-1920 -1950 0
-1920 -1951 0
-1920 -1952 0
-1920 -1953 0
-1920 -1954 0
-1920 -1955 0
-1920 -1956 0
-1920 -1957 0
-1920 -1958 0
-1920 -1959 0
-1920 -1960 0
-1920 -1961 0
-1920 -1962 0
-1920 -1963 0
-1920 -1964 0
-1920 -1965 0
-1920 -1966 0
-1920 -1967 0
-1921 -1922 0
-1921 -1923 0
-1921 -1924 0
-1921 -1925 0
-1921 -1926 0
-1921 -1927 0
-1921 -1928 0
-1921 -1929 0
-1921 -1930 0
-1921 -1931 0
-1921 -1932 0
-1921 -1933 0
-1921 -1934 0
-1921 -1935 0
-1921 -1936 0
-1921 -1937 0
-1921 -1938 0
-1921 -1939 0
-1921 -1940 0
-1921 -1941 0
-1921 -1942 0
-1921 -1943 0
-1921 -1944 0
-1921 -1945 0
-1921 -1946 0
-1921 -1947 0
-1921 -1948 0
-1921 -1949 0
-1921 -1950 0
-1921 -1951 0
-1921 -1952 0
-1921 -1953 0
-1921 -1954 0
-1921 -1955 0
-1921 -1956 0
-1921 -1957 0
-1921 -1958 0
-1921 -1959 0
-1921 -1960 0
-1921 -1961 0
-1921 -1962 0
-1921 -1963 0
-1921 -1964 0
-1921 -1965 0
-1921 -1966 0
-1921 -1967 0
-1922 -1923 0
-1922 -1924 0
-1922 -1925 0
-1922 -1926 0
-1922 -1927 0
-1922 -1928 0
-1922 -1929 0
-1922 -1930 0
-1922 -1931 0
-1922 -1932 0
-1922 -1933 0
-1922 -1934 0
-1922 -1935 0
-1922 -1936 0
-1922 -1937 0
-1922 -1938 0
-1922 -1939 0
-1922 -1940 0
-1922 -1941 0
-1922 -1942 0
-1922 -1943 0
-1922 -1944 0
-1922 -1945 0
-1922 -1946 0
-1922 -1947 0
-1922 -1948 0
-1922 -1949 0
-1922 -1950 0
-1922 -1951 0
-1922 -1952 0
-1922 -1953 0
-1922 -1954 0
-1922 -1955 0
-1922 -1956 0
-1922 -1957 0
-1922 -1958 0
-1922 -1959 0
-1922 -1960 0
-1922 -1961 0
-1922 -1962 0
-1922 -1963 0
-1922 -1964 0
-1922 -1965 0
-1922 -1966 0
-1922 -1967 0
-1923 -1924 0
-1923 -1925 0
-1923 -1926 0
-1923 -1927 0
-1923 -1928 0
-1923 -1929 0
-1923 -1930 0
-1923 -1931 0
-1923 -1932 0
-1923 -1933 0
-1923 -1934 0
-1923 -1935 0
-1923 -1936 0
-1923 -1937 0
-1923 -1938 0
-1923 -1939 0
-1923 -1940 0
-1923 -1941 0
-1923 -1942 0
-1923 -1943 0
-1923 -1944 0
-1923 -1945 0
-1923 -1946 0
-1923 -1947 0
-1923 -1948 0
-1923 -1949 0
-1923 -1950 0
-1923 -1951 0
-1923 -1952 0
-1923 -1953 0
-1923 -1954 0
-1923 -1955 0
-1923 -1956 0
-1923 -1957 0
-1923 -1958 0
-1923 -1959 0
-1923 -1960 0
-1923 -1961 0
-1923 -1962 0
-1923 -1963 0
-1923 -1964 0
-1923 -1965 0
-1923 -1966 0
-1923 -1967 0
-1924 -1925 0
-1924 -1926 0
-1924 -1927 0
-1924 -1928 0
-1924 -1929 0
-1924 -1930 0
-1924 -1931 0
-1924 -1932 0
-1924 -1933 0
-1924 -1934 0
-1924 -1935 0
-1924 -1936 0
-1924 -1937 0
-1924 -1938 0
-1924 -1939 0
-1924 -1940 0
-1924 -1941 0
-1924 -1942 0
-1924 -1943 0
-1924 -1944 0
-1924 -1945 0
-1924 -1946 0
-1924 -1947 0
-1924 -1948 0
-1924 -1949 0
-1924 -1950 0
-1924 -1951 0
-1924 -1952 0
-1924 -1953 0
-1924 -1954 0
-1924 -1955 0
-1924 -1956 0
-1924 -1957 0
-1924 -1958 0
-1924 -1959 0
-1924 -1960 0
-1924 -1961 0
-1924 -1962 0
-1924 -1963 0
-1924 -1964 0
-1924 -1965 0
-1924 -1966 0
-1924 -1967 0
-1925 -1926 0
-1925 -1927 0
-1925 -1928 0
-1925 -1929 0
-1925 -1930 0
-1925 -1931 0
-1925 -1932 0
-1925 -1933 0
-1925 -1934 0
-1925 -1935 0
-1925 -1936 0
-1925 -1937 0
-1925 -1938 0
-1925 -1939 0
-1925 -1940 0
-1925 -1941 0
-1925 -1942 0
-1925 -1943 0
-1925 -1944 0
-1925 -1945 0
-1925 -1946 0
-1925 -1947 0
-1925 -1948 0
-1925 -1949 0
-1925 -1950 0
-1925 -1951 0
-1925 -1952 0
-1925 -1953 0
-1925 -1954 0
-1925 -1955 0
-1925 -1956 0
-1925 -1957 0
-1925 -1958 0
-1925 -1959 0
-1925 -1960 0
-1925 -1961 0
-1925 -1962 0
-1925 -1963 0
-1925 -1964 0
-1925 -1965 0
-1925 -1966 0
-1925 -1967 0
-1926 -1927 0
-1926 -1928 0
-1926 -1929 0
-1926 -1930 0
-1926 -1931 0
-1926 -1932 0
-1926 -1933 0
-1926 -1934 0
-1926 -1935 0
-1926 -1936 0
-1926 -1937 0
-1926 -1938 0
-1926 -1939 0
-1926 -1940 0
-1926 -1941 0
-1926 -1942 0
-1926 -1943 0
-1926 -1944 0
-1926 -1945 0
-1926 -1946 0
-1926 -1947 0
-1926 -1948 0
-1926 -1949 0
-1926 -1950 0
-1926 -1951 0
-1926 -1952 0
-1926 -1953 0
-1926 -1954 0
-1926 -1955 0
-1926 -1956 0
-1926 -1957 0
-1926 -1958 0
-1926 -1959 0
-1926 -1960 0
-1926 -1961 0
-1926 -1962 0
-1926 -1963 0
-1926 -1964 0
-1926 -1965 0
-1926 -1966 0
-1926 -1967 0
-1927 -1928 0
-1927 -1929 0
-1927 -1930 0
-1927 -1931 0
-1927 -1932 0
-1927 -1933 0
-1927 -1934 0
-1927 -1935 0
-1927 -1936 0
-1927 -1937 0
-1927 -1938 0
-1927 -1939 0
-1927 -1940 0
-1927 -1941 0
-1927 -1942 0
-1927 -1943 0
-1927 -1944 0
-1927 -1945 0
-1927 -1946 0
-1927 -1947 0
-1927 -1948 0
-1927 -1949 0
-1927 -1950 0
-1927 -1951 0
-1927 -1952 0
-1927 -1953 0
-1927 -1954 0
-1927 -1955 0
-1927 -1956 0
-1927 -1957 0
-1927 -1958 0
-1927 -1959 0
-1927 -1960 0
-1927 -1961 0
-1927 -1962 0
-1927 -1963 0
-1927 -1964 0
-1927 -1965 0
-1927 -1966 0
-1927 -1967 0
-1928 -1929 0
-1928 -1930 0
-1928 -1931 0
-1928 -1932 0
-1928 -1933 0
-1928 -1934 0
-1928 -1935 0
-1928 -1936 0
-1928 -1937 0
-1928 -1938 0
-1928 -1939 0
-1928 -1940 0
-1928 -1941 0
-1928 -1942 0
-1928 -1943 0
-1928 -1944 0
-1928 -1945 0
-1928 -1946 0
-1928 -1947 0
-1928 -1948 0
-1928 -1949 0
-1928 -1950 0
-1928 -1951 0
-1928 -1952 0
-1928 -1953 0
-1928 -1954 0
-1928 -1955 0
-1928 -1956 0
-1928 -1957 0
-1928 -1958 0
-1928 -1959 0
-1928 -1960 0
-1928 -1961 0
-1928 -1962 0
-1928 -1963 0
-1928 -1964 0
-1928 -1965 0
-1928 -1966 0
-1928 -1967 0
-1929 -1930 0
-1929 -1931 0
-1929 -1932 0
-1929 -1933 0
-1929 -1934 0
-1929 -1935 0
-1929 -1936 0
-1929 -1937 0
-1929 -1938 0
-1929 -1939 0
-1929 -1940 0
-1929 -1941 0
-1929 -1942 0
-1929 -1943 0
-1929 -1944 0
-1929 -1945 0
-1929 -1946 0
-1929 -1947 0
-1929 -1948 0
-1929 -1949 0
-1929 -1950 0
-1929 -1951 0
-1929 -1952 0
-1929 -1953 0
-1929 -1954 0
-1929 -1955 0
-1929 -1956 0
-1929 -1957 0
-1929 -1958 0
-1929 -1959 0
-1929 -1960 0
-1929 -1961 0
-1929 -1962 0
-1929 -1963 0
-1929 -1964 0
-1929 -1965 0
-1929 -1966 0
-1929 -1967 0
-1930 -1931 0
-1930 -1932 0
-1930 -1933 0
-1930 -1934 0
-1930 -1935 0
-1930 -1936 0
-1930 -1937 0
-1930 -1938 0
-1930 -1939 0
-1930 -1940 0
-1930 -1941 0
-1930 -1942 0
-1930 -1943 0
-1930 -1944 0
-1930 -1945 0
-1930 -1946 0
-1930 -1947 0
-1930 -1948 0
-1930 -1949 0
-1930 -1950 0
-1930 -1951 0
-1930 -1952 0
-1930 -1953 0
-1930 -1954 0
-1930 -1955 0
-1930 -1956 0
-1930 -1957 0
-1930 -1958 0
-1930 -1959 0
-1930 -1960 0
-1930 -1961 0
-1930 -1962 0
-1930 -1963 0
-1930 -1964 0
-1930 -1965 0
-1930 -1966 0
-1930 -1967 0
-1931 -1932 0
-1931 -1933 0
-1931 -1934 0
-1931 -1935 0
-1931 -1936 0
-1931 -1937 0
-1931 -1938 0
-1931 -1939 0
-1931 -1940 0
-1931 -1941 0
-1931 -1942 0
-1931 -1943 0
-1931 -1944 0
-1931 -1945 0
-1931 -1946 0
-1931 -1947 0
-1931 -1948 0
-1931 -1949 0
-1931 -1950 0
-1931 -1951 0
-1931 -1952 0
-1931 -1953 0
-1931 -1954 0
-1931 -1955 0
-1931 -1956 0
-1931 -1957 0
-1931 -1958 0
-1931 -1959 0
-1931 -1960 0
-1931 -1961 0
-1931 -1962 0
-1931 -1963 0
-1931 -1964 0
-1931 -1965 0
-1931 -1966 0
-1931 -1967 0
-1932 -1933 0
-1932 -1934 0
-1932 -1935 0
-1932 -1936 0
-1932 -1937 0
-1932 -1938 0
-1932 -1939 0
-1932 -1940 0
-1932 -1941 0
-1932 -1942 0
-1932 -1943 0
-1932 -1944 0
-1932 -1945 0
-1932 -1946 0
-1932 -1947 0
-1932 -1948 0
-1932 -1949 0
-1932 -1950 0
-1932 -1951 0
-1932 -1952 0
-1932 -1953 0
-1932 -1954 0
-1932 -1955 0
-1932 -1956 0
-1932 -1957 0
-1932 -1958 0
-1932 -1959 0
-1932 -1960 0
-1932 -1961 0
-1932 -1962 0
-1932 -1963 0
-1932 -1964 0
-1932 -1965 0
-1932 -1966 0
-1932 -1967 0
-1933 -1934 0
-1933 -1935 0
-1933 -1936 0
-1933 -1937 0
-1933 -1938 0
-1933 -1939 0
-1933 -1940 0
-1933 -1941 0
-1933 -1942 0
-1933 -1943 0
-1933 -1944 0
-1933 -1945 0
-1933 -1946 0
-1933 -1947 0
-1933 -1948 0
-1933 -1949 0
-1933 -1950 0
-1933 -1951 0
-1933 -1952 0
-1933 -1953 0
-1933 -1954 0
-1933 -1955 0
-1933 -1956 0
-1933 -1957 0
-1933 -1958 0
-1933 -1959 0
-1933 -1960 0
-1933 -1961 0
-1933 -1962 0
-1933 -1963 0
-1933 -1964 0
-1933 -1965 0
-1933 -1966 0
-1933 -1967 0
-1934 -1935 0
-1934 -1936 0
-1934 -1937 0
-1934 -1938 0
-1934 -1939 0
-1934 -1940 0
-1934 -1941 0
-1934 -1942 0
-1934 -1943 0
-1934 -1944 0
-1934 -1945 0
-1934 -1946 0
-1934 -1947 0
-1934 -1948 0
-1934 -1949 0
-1934 -1950 0
-1934 -1951 0
-1934 -1952 0
-1934 -1953 0
-1934 -1954 0
-1934 -1955 0
-1934 -1956 0
-1934 -1957 0
-1934 -1958 0
-1934 -1959 0
-1934 -1960 0
-1934 -1961 0
-1934 -1962 0
-1934 -1963 0
-1934 -1964 0
-1934 -1965 0
-1934 -1966 0
-1934 -1967 0
-1935 -1936 0
-1935 -1937 0
-1935 -1938 0
-1935 -1939 0
-1935 -1940 0
-1935 -1941 0
-1935 -1942 0
-1935 -1943 0
-1935 -1944 0
-1935 -1945 0
-1935 -1946 0
-1935 -1947 0
-1935 -1948 0
-1935 -1949 0
-1935 -1950 0
-1935 -1951 0
-1935 -1952 0
-1935 -1953 0
-1935 -1954 0
-1935 -1955 0
-1935 -1956 0
-1935 -1957 0
-1935 -1958 0
-1935 -1959 0
-1935 -1960 0
-1935 -1961 0
-1935 -1962 0
-1935 -1963 0
-1935 -1964 0
-1935 -1965 0
-1935 -1966 0
-1935 -1967 0
-1936 -1937 0
-1936 -1938 0
-1936 -1939 0
-1936 -1940 0
-1936 -1941 0
-1936 -1942 0
-1936 -1943 0
-1936 -1944 0
-1936 -1945 0
-1936 -1946 0
-1936 -1947 0
-1936 -1948 0
-1936 -1949 0
-1936 -1950 0
-1936 -1951 0
-1936 -1952 0
-1936 -1953 0
-1936 -1954 0
-1936 -1955 0
-1936 -1956 0
-1936 -1957 0
-1936 -1958 0
-1936 -1959 0
-1936 -1960 0
-1936 -1961 0
-1936 -1962 0
-1936 -1963 0
-1936 -1964 0
-1936 -1965 0
-1936 -1966 0
-1936 -1967 0
-1937 -1938 0
-1937 -1939 0
-1937 -1940 0
-1937 -1941 0
-1937 -1942 0
-1937 -1943 0
-1937 -1944 0
-1937 -1945 0
-1937 -1946 0
-1937 -1947 0
-1937 -1948 0
-1937 -1949 0
-1937 -1950 0
-1937 -1951 0
-1937 -1952 0
-1937 -1953 0
-1937 -1954 0
-1937 -1955 0
-1937 -1956 0
-1937 -1957 0
-1937 -1958 0
-1937 -1959 0
-1937 -1960 0
-1937 -1961 0
-1937 -1962 0
-1937 -1963 0
-1937 -1964 0
-1937 -1965 0
-1937 -1966 0
-1937 -1967 0
-1938 -1939 0
-1938 -1940 0
-1938 -1941 0
-1938 -1942 0
-1938 -1943 0
-1938 -1944 0
-1938 -1945 0
-1938 -1946 0
-1938 -1947 0
-1938 -1948 0
-1938 -1949 0
-1938 -1950 0
-1938 -1951 0
-1938 -1952 0
-1938 -1953 0
-1938 -1954 0
-1938 -1955 0
-1938 -1956 0
-1938 -1957 0
-1938 -1958 0
-1938 -1959 0
-1938 -1960 0
-1938 -1961 0
-1938 -1962 0
-1938 -1963 0
-1938 -1964 0
-1938 -1965 0
-1938 -1966 0
-1938 -1967 0
-1939 -1940 0
-1939 -1941 0
-1939 -1942 0
-1939 -1943 0
-1939 -1944 0
-1939 -1945 0
-1939 -1946 0
-1939 -1947 0
-1939 -1948 0
-1939 -1949 0
-1939 -1950 0
-1939 -1951 0
-1939 -1952 0
-1939 -1953 0
-1939 -1954 0
-1939 -1955 0
-1939 -1956 0
-1939 -1957 0
-1939 -1958 0
-1939 -1959 0
-1939 -1960 0
-1939 -1961 0
-1939 -1962 0
-1939 -1963 0
-1939 -1964 0
-1939 -1965 0
-1939 -1966 0
-1939 -1967 0
-1940 -1941 0
-1940 -1942 0
-1940 -1943 0
-1940 -1944 0
-1940 -1945 0
-1940 -1946 0
-1940 -1947 0
-1940 -1948 0
-1940 -1949 0
-1940 -1950 0
-1940 -1951 0
-1940 -1952 0
-1940 -1953 0
-1940 -1954 0
-1940 -1955 0
-1940 -1956 0
-1940 -1957 0
-1940 -1958 0
-1940 -1959 0
-1940 -1960 0
-1940 -1961 0
-1940 -1962 0
-1940 -1963 0
-1940 -1964 0
-1940 -1965 0
-1940 -1966 0
-1940 -1967 0
-1941 -1942 0
-1941 -1943 0
-1941 -1944 0
-1941 -1945 0
-1941 -1946 0
-1941 -1947 0
-1941 -1948 0
-1941 -1949 0
-1941 -1950 0
-1941 -1951 0
-1941 -1952 0
-1941 -1953 0
-1941 -1954 0
-1941 -1955 0
-1941 -1956 0
-1941 -1957 0
-1941 -1958 0
-1941 -1959 0
-1941 -1960 0
-1941 -1961 0
-1941 -1962 0
-1941 -1963 0
-1941 -1964 0
-1941 -1965 0
-1941 -1966 0
-1941 -1967 0
-1942 -1943 0
-1942 -1944 0
-1942 -1945 0
-1942 -1946 0
-1942 -1947 0
-1942 -1948 0
-1942 -1949 0
-1942 -1950 0
-1942 -1951 0
-1942 -1952 0
-1942 -1953 0
-1942 -1954 0
-1942 -1955 0
-1942 -1956 0
-1942 -1957 0
-1942 -1958 0
-1942 -1959 0
-1942 -1960 0
-1942 -1961 0
-1942 -1962 0
-1942 -1963 0
-1942 -1964 0
-1942 -1965 0
-1942 -1966 0
-1942 -1967 0
-1943 -1944 0
-1943 -1945 0
-1943 -1946 0
-1943 -1947 0
-1943 -1948 0
-1943 -1949 0
-1943 -1950 0
-1943 -1951 0
-1943 -1952 0
-1943 -1953 0
-1943 -1954 0
-1943 -1955 0
-1943 -1956 0
-1943 -1957 0
-1943 -1958 0
-1943 -1959 0
-1943 -1960 0
-1943 -1961 0
-1943 -1962 0
-1943 -1963 0
-1943 -1964 0
-1943 -1965 0
-1943 -1966 0
-1943 -1967 0
-1944 -1945 0
-1944 -1946 0
-1944 -1947 0
-1944 -1948 0
-1944 -1949 0
-1944 -1950 0
-1944 -1951 0
-1944 -1952 0
-1944 -1953 0
-1944 -1954 0
-1944 -1955 0
-1944 -1956 0
-1944 -1957 0
-1944 -1958 0
-1944 -1959 0
-1944 -1960 0
-1944 -1961 0
-1944 -1962 0
-1944 -1963 0
-1944 -1964 0
-1944 -1965 0
-1944 -1966 0
-1944 -1967 0
-1945 -1946 0
-1945 -1947 0
-1945 -1948 0
-1945 -1949 0
-1945 -1950 0
-1945 -1951 0
-1945 -1952 0
-1945 -1953 0
-1945 -1954 0
-1945 -1955 0
-1945 -1956 0
-1945 -1957 0
-1945 -1958 0
-1945 -1959 0
-1945 -1960 0
-1945 -1961 0
-1945 -1962 0
-1945 -1963 0
-1945 -1964 0
-1945 -1965 0
-1945 -1966 0
-1945 -1967 0
-1946 -1947 0
-1946 -1948 0
-1946 -1949 0
-1946 -1950 0
-1946 -1951 0
-1946 -1952 0
-1946 -1953 0
-1946 -1954 0
-1946 -1955 0
-1946 -1956 0
-1946 -1957 0
-1946 -1958 0
-1946 -1959 0
-1946 -1960 0
-1946 -1961 0
-1946 -1962 0
-1946 -1963 0
-1946 -1964 0
-1946 -1965 0
-1946 -1966 0
-1946 -1967 0
-1947 -1948 0
-1947 -1949 0
-1947 -1950 0
-1947 -1951 0
-1947 -1952 0
-1947 -1953 0
-1947 -1954 0
-1947 -1955 0
-1947 -1956 0
-1947 -1957 0
-1947 -1958 0
-1947 -1959 0
-1947 -1960 0
-1947 -1961 0
-1947 -1962 0
-1947 -1963 0
-1947 -1964 0
-1947 -1965 0
-1947 -1966 0
-1947 -1967 0
-1948 -1949 0
-1948 -1950 0
-1948 -1951 0
-1948 -1952 0
-1948 -1953 0
-1948 -1954 0
-1948 -1955 0
-1948 -1956 0
-1948 -1957 0
-1948 -1958 0
-1948 -1959 0
-1948 -1960 0
-1948 -1961 0
-1948 -1962 0
-1948 -1963 0
-1948 -1964 0
-1948 -1965 0
-1948 -1966 0
-1948 -1967 0
-1949 -1950 0
-1949 -1951 0
-1949 -1952 0
-1949 -1953 0
-1949 -1954 0
-1949 -1955 0
-1949 -1956 0
-1949 -1957 0
-1949 -1958 0
-1949 -1959 0
-1949 -1960 0
-1949 -1961 0
-1949 -1962 0
-1949 -1963 0
-1949 -1964 0
-1949 -1965 0
-1949 -1966 0
-1949 -1967 0
-1950 -1951 0
-1950 -1952 0
-1950 -1953 0
-1950 -1954 0
-1950 -1955 0
-1950 -1956 0
-1950 -1957 0
-1950 -1958 0
-1950 -1959 0
-1950 -1960 0
-1950 -1961 0
-1950 -1962 0
-1950 -1963 0
-1950 -1964 0
-1950 -1965 0
-1950 -1966 0
-1950 -1967 0
-1951 -1952 0
-1951 -1953 0
-1951 -1954 0
-1951 -1955 0
-1951 -1956 0
-1951 -1957 0
-1951 -1958 0
-1951 -1959 0
-1951 -1960 0
-1951 -1961 0
-1951 -1962 0
-1951 -1963 0
-1951 -1964 0
-1951 -1965 0
-1951 -1966 0
-1951 -1967 0
-1952 -1953 0
-1952 -1954 0
-1952 -1955 0
-1952 -1956 0
-1952 -1957 0
-1952 -1958 0
-1952 -1959 0
-1952 -1960 0
-1952 -1961 0
-1952 -1962 0
-1952 -1963 0
-1952 -1964 0
-1952 -1965 0
-1952 -1966 0
-1952 -1967 0
-1953 -1954 0
-1953 -1955 0
-1953 -1956 0
-1953 -1957 0
-1953 -1958 0
-1953 -1959 0
-1953 -1960 0
-1953 -1961 0
-1953 -1962 0
-1953 -1963 0
-1953 -1964 0
-1953 -1965 0
-1953 -1966 0
-1953 -1967 0
-1954 -1955 0
-1954 -1956 0
-1954 -1957 0
-1954 -1958 0
-1954 -1959 0
-1954 -1960 0
-1954 -1961 0
-1954 -1962 0
-1954 -1963 0
-1954 -1964 0
-1954 -1965 0
-1954 -1966 0
-1954 -1967 0
-1955 -1956 0
-1955 -1957 0
-1955 -1958 0
-1955 -1959 0
-1955 -1960 0
-1955 -1961 0
-1955 -1962 0
-1955 -1963 0
-1955 -1964 0
-1955 -1965 0
-1955 -1966 0
-1955 -1967 0
-1956 -1957 0
-1956 -1958 0
-1956 -1959 0
-1956 -1960 0
-1956 -1961 0
-1956 -1962 0
-1956 -1963 0
-1956 -1964 0
-1956 -1965 0
-1956 -1966 0
-1956 -1967 0
-1957 -1958 0
-1957 -1959 0
-1957 -1960 0
-1957 -1961 0
-1957 -1962 0
-1957 -1963 0
-1957 -1964 0
-1957 -1965 0
-1957 -1966 0
-1957 -1967 0
-1958 -1959 0
-1958 -1960 0
-1958 -1961 0
-1958 -1962 0
-1958 -1963 0
-1958 -1964 0
-1958 -1965 0
-1958 -1966 0
-1958 -1967 0
-1959 -1960 0
-1959 -1961 0
-1959 -1962 0
-1959 -1963 0
-1959 -1964 0
-1959 -1965 0
-1959 -1966 0
-1959 -1967 0
-1960 -1961 0
-1960 -1962 0
-1960 -1963 0
-1960 -1964 0
-1960 -1965 0
-1960 -1966 0
-1960 -1967 0
-1961 -1962 0
-1961 -1963 0
-1961 -1964 0
-1961 -1965 0
-1961 -1966 0
-1961 -1967 0
-1962 -1963 0
-1962 -1964 0
-1962 -1965 0
-1962 -1966 0
-1962 -1967 0
-1963 -1964 0
-1963 -1965 0
-1963 -1966 0
-1963 -1967 0
-1964 -1965 0
-1964 -1966 0
-1964 -1967 0
-1965 -1966 0
-1965 -1967 0
-1966 -1967 0
-1884 268 0
-1884 515 0
-1884 -318 0
-1884 -319 0
-1884 -320 0
-1884 -321 0
-1884 -322 0
-1884 -323 522 0
-1884 -323 -258 -265 0
-1884 -323 -330 0
-1884 -323 -388 0
-1884 -323 -445 0
-1884 -324 523 0
-1884 -324 -258 -266 0
-1884 -324 -332 0
-1884 -324 -390 0
-1884 -324 -447 0
-1884 -325 524 0
-1884 -325 -258 -267 0
-1884 -325 -334 0
-1884 -325 -392 0
-1884 -325 -449 0
-1884 -326 0
-1885 268 0
-1885 516 0
-1885 -317 0
-1885 -319 0
-1885 -320 0
-1885 -321 0
-1885 -322 0
-1885 -323 522 0
-1885 -323 -259 -265 0
-1885 -323 -338 0
-1885 -323 -396 0
-1885 -323 -453 0
-1885 -324 523 0
-1885 -324 -259 -266 0
-1885 -324 -340 0
-1885 -324 -398 0
-1885 -324 -455 0
-1885 -325 524 0
-1885 -325 -259 -267 0
-1885 -325 -342 0
-1885 -325 -400 0
-1885 -325 -457 0
-1885 -326 0
-1886 268 0
-1886 517 0
-1886 -317 0
-1886 -318 0
-1886 -320 0
-1886 -321 0
-1886 -322 0
-1886 -323 522 0
-1886 -323 -260 -265 0
-1886 -323 -346 0
-1886 -323 -404 0
-1886 -323 -461 0
-1886 -324 523 0
-1886 -324 -260 -266 0
-1886 -324 -348 0
-1886 -324 -406 0
-1886 -324 -463 0
-1886 -325 524 0
-1886 -325 -260 -267 0
-1886 -325 -350 0
-1886 -325 -408 0
-1886 -325 -465 0
-1886 -326 0
-1887 268 0
-1887 518 0
-1887 -317 0
-1887 -318 0
-1887 -319 0
-1887 -321 0
-1887 -322 0
-1887 -323 522 0
-1887 -323 -261 -265 0
-1887 -323 -354 0
-1887 -323 -412 0
-1887 -323 -469 0
-1887 -324 523 0
-1887 -324 -261 -266 0
-1887 -324 -356 0
-1887 -324 -414 0
-1887 -324 -471 0
-1887 -325 524 0
-1887 -325 -261 -267 0
-1887 -325 -358 0
-1887 -325 -416 0
-1887 -325 -473 0
-1887 -326 0
-1888 268 0
-1888 519 0
-1888 -317 0
-1888 -318 0
-1888 -319 0
-1888 -320 0
-1888 -322 0
-1888 -323 522 0
-1888 -323 -262 -265 0
-1888 -323 -362 0
-1888 -323 -420 0
-1888 -323 -477 0
-1888 -324 523 0
-1888 -324 -262 -266 0
-1888 -324 -364 0
-1888 -324 -422 0
-1888 -324 -479 0
-1888 -325 524 0
-1888 -325 -262 -267 0
-1888 -325 -366 0
-1888 -325 -424 0
-1888 -325 -481 0
-1888 -326 0
-1889 268 0
-1889 520 0
-1889 -317 0
-1889 -318 0
-1889 -319 0
-1889 -320 0
-1889 -321 0
-1889 -323 522 0
-1889 -323 -263 -265 0
-1889 -323 -370 0
-1889 -323 -428 0
-1889 -323 -485 0
-1889 -324 523 0
-1889 -324 -263 -266 0
-1889 -324 -372 0
-1889 -324 -430 0
-1889 -324 -487 0
-1889 -325 524 0
-1889 -325 -263 -267 0
-1889 -325 -374 0
-1889 -325 -432 0
-1889 -325 -489 0
-1889 -326 0
-1890 268 0
-1890 515 0
-1890 -377 0
-1890 -378 0
-1890 -379 0
-1890 -380 0
-1890 -381 522 0
-1890 -381 -258 -265 0
-1890 -381 -330 0
-1890 -381 -388 0
-1890 -381 -445 0
-1890 -382 523 0
-1890 -382 -258 -266 0
-1890 -382 -332 0
-1890 -382 -390 0
-1890 -382 -447 0
-1890 -383 524 0
-1890 -383 -258 -267 0
-1890 -383 -334 0
-1890 -383 -392 0
-1890 -383 -449 0
-1890 -384 0
-1891 268 0
-1891 516 0
-1891 -378 0
-1891 -379 0
-1891 -380 0
-1891 -381 522 0
-1891 -381 -259 -265 0
-1891 -381 -338 0
-1891 -381 -396 0
-1891 -381 -453 0
-1891 -382 523 0
-1891 -382 -259 -266 0
-1891 -382 -340 0
-1891 -382 -398 0
-1891 -382 -455 0
-1891 -383 524 0
-1891 -383 -259 -267 0
-1891 -383 -342 0
-1891 -383 -400 0
-1891 -383 -457 0
-1891 -384 0
-1892 268 0
-1892 517 0
-1892 -376 0
-1892 -379 0
-1892 -380 0
-1892 -381 522 0
-1892 -381 -260 -265 0
-1892 -381 -346 0
-1892 -381 -404 0
-1892 -381 -461 0
-1892 -382 523 0
-1892 -382 -260 -266 0
-1892 -382 -348 0
-1892 -382 -406 0
-1892 -382 -463 0
-1892 -383 524 0
-1892 -383 -260 -267 0
-1892 -383 -350 0
-1892 -383 -408 0
-1892 -383 -465 0
-1892 -384 0
-1893 268 0
-1893 518 0
-1893 -376 0
-1893 -377 0
-1893 -380 0
-1893 -381 522 0
-1893 -381 -261 -265 0
-1893 -381 -354 0
-1893 -381 -412 0
-1893 -381 -469 0
-1893 -382 523 0
-1893 -382 -261 -266 0
-1893 -382 -356 0
-1893 -382 -414 0
-1893 -382 -471 0
-1893 -383 524 0
-1893 -383 -261 -267 0
-1893 -383 -358 0
-1893 -383 -416 0
-1893 -383 -473 0
-1893 -384 0
-1894 268 0
-1894 519 0
-1894 -376 0
-1894 -377 0
-1894 -378 0
-1894 -381 522 0
-1894 -381 -262 -265 0
-1894 -381 -362 0
-1894 -381 -420 0
-1894 -381 -477 0
-1894 -382 523 0
-1894 -382 -262 -266 0
-1894 -382 -364 0
-1894 -382 -422 0
-1894 -382 -479 0
-1894 -383 524 0
-1894 -383 -262 -267 0
-1894 -383 -366 0
-1894 -383 -424 0
-1894 -383 -481 0
-1894 -384 0
-1895 268 0
-1895 520 0
-1895 -376 0
-1895 -377 0
-1895 -378 0
-1895 -379 0
-1895 -381 522 0
-1895 -381 -263 -265 0
-1895 -381 -370 0
-1895 -381 -428 0
-1895 -381 -485 0
-1895 -382 523 0
-1895 -382 -263 -266 0
-1895 -382 -372 0
-1895 -382 -430 0
-1895 -382 -487 0
-1895 -383 524 0
-1895 -383 -263 -267 0
-1895 -383 -374 0
-1895 -383 -432 0
-1895 -383 -489 0
-1895 -384 0
-1896 268 0
-1896 515 0
-1896 -435 0
-1896 -436 0
-1896 -437 0
-1896 -438 522 0
-1896 -438 -258 -265 0
-1896 -438 -330 0
-1896 -438 -388 0
-1896 -438 -445 0
-1896 -439 523 0
-1896 -439 -258 -266 0
-1896 -439 -332 0
-1896 -439 -390 0
-1896 -439 -447 0
-1896 -440 524 0
-1896 -440 -258 -267 0
-1896 -440 -334 0
-1896 -440 -392 0
-1896 -440 -449 0
-1896 -441 0
-1897 268 0
-1897 516 0
-1897 -436 0
-1897 -437 0
-1897 -438 522 0
-1897 -438 -259 -265 0
-1897 -438 -338 0
-1897 -438 -396 0
-1897 -438 -453 0
-1897 -439 523 0
-1897 -439 -259 -266 0
-1897 -439 -340 0
-1897 -439 -398 0
-1897 -439 -455 0
-1897 -440 524 0
-1897 -440 -259 -267 0
-1897 -440 -342 0
-1897 -440 -400 0
-1897 -440 -457 0
-1897 -441 0
-1898 268 0
-1898 517 0
-1898 -437 0
-1898 -438 522 0
-1898 -438 -260 -265 0
-1898 -438 -346 0
-1898 -438 -404 0
-1898 -438 -461 0
-1898 -439 523 0
-1898 -439 -260 -266 0
-1898 -439 -348 0
-1898 -439 -406 0
-1898 -439 -463 0
-1898 -440 524 0
-1898 -440 -260 -267 0
-1898 -440 -350 0
-1898 -440 -408 0
-1898 -440 -465 0
-1898 -441 0
-1899 268 0
-1899 518 0
-1899 -434 0
-1899 -438 522 0
-1899 -438 -261 -265 0
-1899 -438 -354 0
-1899 -438 -412 0
-1899 -438 -469 0
-1899 -439 523 0
-1899 -439 -261 -266 0
-1899 -439 -356 0
-1899 -439 -414 0
-1899 -439 -471 0
-1899 -440 524 0
-1899 -440 -261 -267 0
-1899 -440 -358 0
-1899 -440 -416 0
-1899 -440 -473 0
-1899 -441 0
-1900 268 0
-1900 519 0
-1900 -434 0
-1900 -435 0
-1900 -438 522 0
-1900 -438 -262 -265 0
-1900 -438 -362 0
-1900 -438 -420 0
-1900 -438 -477 0
-1900 -439 523 0
-1900 -439 -262 -266 0
-1900 -439 -364 0
-1900 -439 -422 0
-1900 -439 -479 0
-1900 -440 524 0
-1900 -440 -262 -267 0
-1900 -440 -366 0
-1900 -440 -424 0
-1900 -440 -481 0
-1900 -441 0
-1901 268 0
-1901 520 0
-1901 -434 0
-1901 -435 0
-1901 -436 0
-1901 -438 522 0
-1901 -438 -263 -265 0
-1901 -438 -370 0
-1901 -438 -428 0
-1901 -438 -485 0
-1901 -439 523 0
-1901 -439 -263 -266 0
-1901 -439 -372 0
-1901 -439 -430 0
-1901 -439 -487 0
-1901 -440 524 0
-1901 -440 -263 -267 0
-1901 -440 -374 0
-1901 -440 -432 0
-1901 -440 -489 0
-1901 -441 0
-1902 268 0
-1902 515 0
-1902 521 0
-1902 -258 -264 0
-1902 -328 0
-1902 -386 0
-1902 -443 0
-1903 268 0
-1903 516 0
-1903 521 0
-1903 -259 -264 0
-1903 -336 0
-1903 -394 0
-1903 -451 0
-1904 268 0
-1904 517 0
-1904 521 0
-1904 -260 -264 0
-1904 -344 0
-1904 -402 0
-1904 -459 0
-1905 268 0
-1905 518 0
-1905 521 0
-1905 -261 -264 0
-1905 -352 0
-1905 -410 0
-1905 -467 0
-1906 268 0
-1906 519 0
-1906 521 0
-1906 -262 -264 0
-1906 -360 0
-1906 -418 0
-1906 -475 0
-1907 268 0
-1907 520 0
-1907 521 0
-1907 -263 -264 0
-1907 -368 0
-1907 -426 0
-1907 -483 0
-1908 327 0
-1908 574 0
-1908 -259 0
-1908 -260 0
-1908 -261 0
-1908 -262 0
-1908 -263 0
-1908 -264 581 0
-1908 -264 -317 -324 0
-1908 -264 -271 0
-1908 -264 -388 0
-1908 -264 -445 0
-1908 -265 582 0
-1908 -265 -317 -325 0
-1908 -265 -273 0
-1908 -265 -390 0
-1908 -265 -447 0
-1908 -266 583 0
-1908 -266 -317 -326 0
-1908 -266 -275 0
-1908 -266 -392 0
-1908 -266 -449 0
-1908 -267 0
-1909 327 0
-1909 575 0
-1909 -258 0
-1909 -260 0
-1909 -261 0
-1909 -262 0
-1909 -263 0
-1909 -264 581 0
-1909 -264 -318 -324 0
-1909 -264 -279 0
-1909 -264 -396 0
-1909 -264 -453 0
-1909 -265 582 0
-1909 -265 -318 -325 0
-1909 -265 -281 0
-1909 -265 -398 0
-1909 -265 -455 0
-1909 -266 583 0
-1909 -266 -318 -326 0
-1909 -266 -283 0
-1909 -266 -400 0
-1909 -266 -457 0
-1909 -267 0
-1910 327 0
-1910 576 0
-1910 -258 0
-1910 -259 0
-1910 -261 0
-1910 -262 0
-1910 -263 0
-1910 -264 581 0
-1910 -264 -319 -324 0
-1910 -264 -287 0
-1910 -264 -404 0
-1910 -264 -461 0
-1910 -265 582 0
-1910 -265 -319 -325 0
-1910 -265 -289 0
-1910 -265 -406 0
-1910 -265 -463 0
-1910 -266 583 0
-1910 -266 -319 -326 0
-1910 -266 -291 0
-1910 -266 -408 0
-1910 -266 -465 0
-1910 -267 0
-1911 327 0
-1911 577 0
-1911 -258 0
-1911 -259 0
-1911 -260 0
-1911 -262 0
-1911 -263 0
-1911 -264 581 0
-1911 -264 -320 -324 0
-1911 -264 -295 0
-1911 -264 -412 0
-1911 -264 -469 0
-1911 -265 582 0
-1911 -265 -320 -325 0
-1911 -265 -297 0
-1911 -265 -414 0
-1911 -265 -471 0
-1911 -266 583 0
-1911 -266 -320 -326 0
-1911 -266 -299 0
-1911 -266 -416 0
-1911 -266 -473 0
-1911 -267 0
-1912 327 0
-1912 578 0
-1912 -258 0
-1912 -259 0
-1912 -260 0
-1912 -261 0
-1912 -263 0
-1912 -264 581 0
-1912 -264 -321 -324 0
-1912 -264 -303 0
-1912 -264 -420 0
-1912 -264 -477 0
-1912 -265 582 0
-1912 -265 -321 -325 0
-1912 -265 -305 0
-1912 -265 -422 0
-1912 -265 -479 0
-1912 -266 583 0
-1912 -266 -321 -326 0
-1912 -266 -307 0
-1912 -266 -424 0
-1912 -266 -481 0
-1912 -267 0
-1913 327 0
-1913 579 0
-1913 -258 0
-1913 -259 0
-1913 -260 0
-1913 -261 0
-1913 -262 0
-1913 -264 581 0
-1913 -264 -322 -324 0
-1913 -264 -311 0
-1913 -264 -428 0
-1913 -264 -485 0
-1913 -265 582 0
-1913 -265 -322 -325 0
-1913 -265 -313 0
-1913 -265 -430 0
-1913 -265 -487 0
-1913 -266 583 0
-1913 -266 -322 -326 0
-1913 -266 -315 0
-1913 -266 -432 0
-1913 -266 -489 0
-1913 -267 0
-1914 327 0
-1914 574 0
-1914 -377 0
-1914 -378 0
-1914 -379 0
-1914 -380 0
-1914 -381 581 0
-1914 -381 -317 -324 0
-1914 -381 -271 0
-1914 -381 -388 0
-1914 -381 -445 0
-1914 -382 582 0
-1914 -382 -317 -325 0
-1914 -382 -273 0
-1914 -382 -390 0
-1914 -382 -447 0
-1914 -383 583 0
-1914 -383 -317 -326 0
-1914 -383 -275 0
-1914 -383 -392 0
-1914 -383 -449 0
-1914 -384 0
-1915 327 0
-1915 575 0
-1915 -378 0
-1915 -379 0
-1915 -380 0
-1915 -381 581 0
-1915 -381 -318 -324 0
-1915 -381 -279 0
-1915 -381 -396 0
-1915 -381 -453 0
-1915 -382 582 0
-1915 -382 -318 -325 0
-1915 -382 -281 0
-1915 -382 -398 0
-1915 -382 -455 0
-1915 -383 583 0
-1915 -383 -318 -326 0
-1915 -383 -283 0
-1915 -383 -400 0
-1915 -383 -457 0
-1915 -384 0
-1916 327 0
-1916 576 0
-1916 -376 0
-1916 -379 0
-1916 -380 0
-1916 -381 581 0
-1916 -381 -319 -324 0
-1916 -381 -287 0
-1916 -381 -404 0
-1916 -381 -461 0
-1916 -382 582 0
-1916 -382 -319 -325 0
-1916 -382 -289 0
-1916 -382 -406 0
-1916 -382 -463 0
-1916 -383 583 0
-1916 -383 -319 -326 0
-1916 -383 -291 0
-1916 -383 -408 0
-1916 -383 -465 0
-1916 -384 0
-1917 327 0
-1917 577 0
-1917 -376 0
-1917 -377 0
-1917 -380 0
-1917 -381 581 0
-1917 -381 -320 -324 0
-1917 -381 -295 0
-1917 -381 -412 0
-1917 -381 -469 0
-1917 -382 582 0
-1917 -382 -320 -325 0
-1917 -382 -297 0
-1917 -382 -414 0
-1917 -382 -471 0
-1917 -383 583 0
-1917 -383 -320 -326 0
-1917 -383 -299 0
-1917 -383 -416 0
-1917 -383 -473 0
-1917 -384 0
-1918 327 0
-1918 578 0
-1918 -376 0
-1918 -377 0
-1918 -378 0
-1918 -381 581 0
-1918 -381 -321 -324 0
-1918 -381 -303 0
-1918 -381 -420 0
-1918 -381 -477 0
-1918 -382 582 0
-1918 -382 -321 -325 0
-1918 -382 -305 0
-1918 -382 -422 0
-1918 -382 -479 0
-1918 -383 583 0
-1918 -383 -321 -326 0
-1918 -383 -307 0
-1918 -383 -424 0
-1918 -383 -481 0
-1918 -384 0
-1919 327 0
-1919 579 0
-1919 -376 0
-1919 -377 0
-1919 -378 0
-1919 -379 0
-1919 -381 581 0
-1919 -381 -322 -324 0
-1919 -381 -311 0
-1919 -381 -428 0
-1919 -381 -485 0
-1919 -382 582 0
-1919 -382 -322 -325 0
-1919 -382 -313 0
-1919 -382 -430 0
-1919 -382 -487 0
-1919 -383 583 0
-1919 -383 -322 -326 0
-1919 -383 -315 0
-1919 -383 -432 0
-1919 -383 -489 0
-1919 -384 0
-1920 327 0
-1920 574 0
-1920 -435 0
-1920 -436 0
-1920 -437 0
-1920 -438 581 0
-1920 -438 -317 -324 0
-1920 -438 -271 0
-1920 -438 -388 0
-1920 -438 -445 0
-1920 -439 582 0
-1920 -439 -317 -325 0
-1920 -439 -273 0
-1920 -439 -390 0
-1920 -439 -447 0
-1920 -440 583 0
-1920 -440 -317 -326 0
-1920 -440 -275 0
-1920 -440 -392 0
-1920 -440 -449 0
-1920 -441 0
-1921 327 0
-1921 575 0
-1921 -436 0
-1921 -437 0
-1921 -438 581 0
-1921 -438 -318 -324 0
-1921 -438 -279 0
-1921 -438 -396 0
-1921 -438 -453 0
-1921 -439 582 0
-1921 -439 -318 -325 0
-1921 -439 -281 0
-1921 -439 -398 0
-1921 -439 -455 0
-1921 -440 583 0
-1921 -440 -318 -326 0
-1921 -440 -283 0
-1921 -440 -400 0
-1921 -440 -457 0
-1921 -441 0
-1922 327 0
-1922 576 0
-1922 -437 0
-1922 -438 581 0
-1922 -438 -319 -324 0
-1922 -438 -287 0
-1922 -438 -404 0
-1922 -438 -461 0
-1922 -439 582 0
-1922 -439 -319 -325 0
-1922 -439 -289 0
-1922 -439 -406 0
-1922 -439 -463 0
-1922 -440 583 0
-1922 -440 -319 -326 0
-1922 -440 -291 0
-1922 -440 -408 0
-1922 -440 -465 0
-1922 -441 0
-1923 327 0
-1923 577 0
-1923 -434 0
-1923 -438 581 0
-1923 -438 -320 -324 0
-1923 -438 -295 0
-1923 -438 -412 0
-1923 -438 -469 0
-1923 -439 582 0
-1923 -439 -320 -325 0
-1923 -439 -297 0
-1923 -439 -414 0
-1923 -439 -471 0
-1923 -440 583 0
-1923 -440 -320 -326 0
-1923 -440 -299 0
-1923 -440 -416 0
-1923 -440 -473 0
-1923 -441 0
-1924 327 0
-1924 578 0
-1924 -434 0
-1924 -435 0
-1924 -438 581 0
-1924 -438 -321 -324 0
-1924 -438 -303 0
-1924 -438 -420 0
-1924 -438 -477 0
-1924 -439 582 0
-1924 -439 -321 -325 0
-1924 -439 -305 0
-1924 -439 -422 0
-1924 -439 -479 0
-1924 -440 583 0
-1924 -440 -321 -326 0
-1924 -440 -307 0
-1924 -440 -424 0
-1924 -440 -481 0
-1924 -441 0
-1925 327 0
-1925 579 0
-1925 -434 0
-1925 -435 0
-1925 -436 0
-1925 -438 581 0
-1925 -438 -322 -324 0
-1925 -438 -311 0
-1925 -438 -428 0
-1925 -438 -485 0
-1925 -439 582 0
-1925 -439 -322 -325 0
-1925 -439 -313 0
-1925 -439 -430 0
-1925 -439 -487 0
-1925 -440 583 0
-1925 -440 -322 -326 0
-1925 -440 -315 0
-1925 -440 -432 0
-1925 -440 -489 0
-1925 -441 0
-1926 327 0
-1926 574 0
-1926 580 0
-1926 -317 -323 0
-1926 -269 0
-1926 -386 0
-1926 -443 0
-1927 327 0
-1927 575 0
-1927 580 0
-1927 -318 -323 0
-1927 -277 0
-1927 -394 0
-1927 -451 0
-1928 327 0
-1928 576 0
-1928 580 0
-1928 -319 -323 0
-1928 -285 0
-1928 -402 0
-1928 -459 0
-1929 327 0
-1929 577 0
-1929 580 0
-1929 -320 -323 0
-1929 -293 0
-1929 -410 0
-1929 -467 0
-1930 327 0
-1930 578 0
-1930 580 0
-1930 -321 -323 0
-1930 -301 0
-1930 -418 0
-1930 -475 0
-1931 327 0
-1931 579 0
-1931 580 0
-1931 -322 -323 0
-1931 -309 0
-1931 -426 0
-1931 -483 0
-1932 385 0
-1932 633 0
-1932 -260 0
-1932 -261 0
-1932 -262 0
-1932 -263 0
-1932 -264 639 0
-1932 -264 -376 -382 0
-1932 -264 -271 0
-1932 -264 -279 0
-1932 -264 -330 0
-1932 -264 -338 0
-1932 -264 -445 0
-1932 -264 -453 0
-1932 -265 640 0
-1932 -265 -376 -383 0
-1932 -265 -273 0
-1932 -265 -281 0
-1932 -265 -332 0
-1932 -265 -340 0
-1932 -265 -447 0
-1932 -265 -455 0
-1932 -266 641 0
-1932 -266 -376 -384 0
-1932 -266 -275 0
-1932 -266 -283 0
-1932 -266 -334 0
-1932 -266 -342 0
-1932 -266 -449 0
-1932 -266 -457 0
-1932 -267 0
-1933 385 0
-1933 634 0
-1933 -258 0
-1933 -261 0
-1933 -262 0
-1933 -263 0
-1933 -264 639 0
-1933 -264 -377 -382 0
-1933 -264 -279 0
-1933 -264 -287 0
-1933 -264 -338 0
-1933 -264 -346 0
-1933 -264 -453 0
-1933 -264 -461 0
-1933 -265 640 0
-1933 -265 -377 -383 0
-1933 -265 -281 0
-1933 -265 -289 0
-1933 -265 -340 0
-1933 -265 -348 0
-1933 -265 -455 0
-1933 -265 -463 0
-1933 -266 641 0
-1933 -266 -377 -384 0
-1933 -266 -283 0
-1933 -266 -291 0
-1933 -266 -342 0
-1933 -266 -350 0
-1933 -266 -457 0
-1933 -266 -465 0
-1933 -267 0
-1934 385 0
-1934 635 0
-1934 -258 0
-1934 -259 0
-1934 -262 0
-1934 -263 0
-1934 -264 639 0
-1934 -264 -378 -382 0
-1934 -264 -287 0
-1934 -264 -295 0
-1934 -264 -346 0
-1934 -264 -354 0
-1934 -264 -461 0
-1934 -264 -469 0
-1934 -265 640 0
-1934 -265 -378 -383 0
-1934 -265 -289 0
-1934 -265 -297 0
-1934 -265 -348 0
-1934 -265 -356 0
-1934 -265 -463 0
-1934 -265 -471 0
-1934 -266 641 0
-1934 -266 -378 -384 0
-1934 -266 -291 0
-1934 -266 -299 0
-1934 -266 -350 0
-1934 -266 -358 0
-1934 -266 -465 0
-1934 -266 -473 0
-1934 -267 0
-1935 385 0
-1935 636 0
-1935 -258 0
-1935 -259 0
-1935 -260 0
-1935 -263 0
-1935 -264 639 0
-1935 -264 -379 -382 0
-1935 -264 -295 0
-1935 -264 -303 0
-1935 -264 -354 0
-1935 -264 -362 0
-1935 -264 -469 0
-1935 -264 -477 0
-1935 -265 640 0
-1935 -265 -379 -383 0
-1935 -265 -297 0
-1935 -265 -305 0
-1935 -265 -356 0
-1935 -265 -364 0
-1935 -265 -471 0
-1935 -265 -479 0
-1935 -266 641 0
-1935 -266 -379 -384 0
-1935 -266 -299 0
-1935 -266 -307 0
-1935 -266 -358 0
-1935 -266 -366 0
-1935 -266 -473 0
-1935 -266 -481 0
-1935 -267 0
-1936 385 0
-1936 637 0
-1936 -258 0
-1936 -259 0
-1936 -260 0
-1936 -261 0
-1936 -264 639 0
-1936 -264 -380 -382 0
-1936 -264 -303 0
-1936 -264 -311 0
-1936 -264 -362 0
-1936 -264 -370 0
-1936 -264 -477 0
-1936 -264 -485 0
-1936 -265 640 0
-1936 -265 -380 -383 0
-1936 -265 -305 0
-1936 -265 -313 0
-1936 -265 -364 0
-1936 -265 -372 0
-1936 -265 -479 0
-1936 -265 -487 0
-1936 -266 641 0
-1936 -266 -380 -384 0
-1936 -266 -307 0
-1936 -266 -315 0
-1936 -266 -366 0
-1936 -266 -374 0
-1936 -266 -481 0
-1936 -266 -489 0
-1936 -267 0
-1937 385 0
-1937 633 0
-1937 -319 0
-1937 -320 0
-1937 -321 0
-1937 -322 0
-1937 -323 639 0
-1937 -323 -376 -382 0
-1937 -323 -271 0
-1937 -323 -279 0
-1937 -323 -330 0
-1937 -323 -338 0
-1937 -323 -445 0
-1937 -323 -453 0
-1937 -324 640 0
-1937 -324 -376 -383 0
-1937 -324 -273 0
-1937 -324 -281 0
-1937 -324 -332 0
-1937 -324 -340 0
-1937 -324 -447 0
-1937 -324 -455 0
-1937 -325 641 0
-1937 -325 -376 -384 0
-1937 -325 -275 0
-1937 -325 -283 0
-1937 -325 -334 0
-1937 -325 -342 0
-1937 -325 -449 0
-1937 -325 -457 0
-1937 -326 0
-1938 385 0
-1938 634 0
-1938 -317 0
-1938 -320 0
-1938 -321 0
-1938 -322 0
-1938 -323 639 0
-1938 -323 -377 -382 0
-1938 -323 -279 0
-1938 -323 -287 0
-1938 -323 -338 0
-1938 -323 -346 0
-1938 -323 -453 0
-1938 -323 -461 0
-1938 -324 640 0
-1938 -324 -377 -383 0
-1938 -324 -281 0
-1938 -324 -289 0
-1938 -324 -340 0
-1938 -324 -348 0
-1938 -324 -455 0
-1938 -324 -463 0
-1938 -325 641 0
-1938 -325 -377 -384 0
-1938 -325 -283 0
-1938 -325 -291 0
-1938 -325 -342 0
-1938 -325 -350 0
-1938 -325 -457 0
-1938 -325 -465 0
-1938 -326 0
-1939 385 0
-1939 635 0
-1939 -317 0
-1939 -318 0
-1939 -321 0
-1939 -322 0
-1939 -323 639 0
-1939 -323 -378 -382 0
-1939 -323 -287 0
-1939 -323 -295 0
-1939 -323 -346 0
-1939 -323 -354 0
-1939 -323 -461 0
-1939 -323 -469 0
-1939 -324 640 0
-1939 -324 -378 -383 0
-1939 -324 -289 0
-1939 -324 -297 0
-1939 -324 -348 0
-1939 -324 -356 0
-1939 -324 -463 0
-1939 -324 -471 0
-1939 -325 641 0
-1939 -325 -378 -384 0
-1939 -325 -291 0
-1939 -325 -299 0
-1939 -325 -350 0
-1939 -325 -358 0
-1939 -325 -465 0
-1939 -325 -473 0
-1939 -326 0
-1940 385 0
-1940 636 0
-1940 -317 0
-1940 -318 0
-1940 -319 0
-1940 -322 0
-1940 -323 639 0
-1940 -323 -379 -382 0
-1940 -323 -295 0
-1940 -323 -303 0
-1940 -323 -354 0
-1940 -323 -362 0
-1940 -323 -469 0
-1940 -323 -477 0
-1940 -324 640 0
-1940 -324 -379 -383 0
-1940 -324 -297 0
-1940 -324 -305 0
-1940 -324 -356 0
-1940 -324 -364 0
-1940 -324 -471 0
-1940 -324 -479 0
-1940 -325 641 0
-1940 -325 -379 -384 0
-1940 -325 -299 0
-1940 -325 -307 0
-1940 -325 -358 0
-1940 -325 -366 0
-1940 -325 -473 0
-1940 -325 -481 0
-1940 -326 0
-1941 385 0
-1941 637 0
-1941 -317 0
-1941 -318 0
-1941 -319 0
-1941 -320 0
-1941 -323 639 0
-1941 -323 -380 -382 0
-1941 -323 -303 0
-1941 -323 -311 0
-1941 -323 -362 0
-1941 -323 -370 0
-1941 -323 -477 0
-1941 -323 -485 0
-1941 -324 640 0
-1941 -324 -380 -383 0
-1941 -324 -305 0
-1941 -324 -313 0
-1941 -324 -364 0
-1941 -324 -372 0
-1941 -324 -479 0
-1941 -324 -487 0
-1941 -325 641 0
-1941 -325 -380 -384 0
-1941 -325 -307 0
-1941 -325 -315 0
-1941 -325 -366 0
-1941 -325 -374 0
-1941 -325 -481 0
-1941 -325 -489 0
-1941 -326 0
-1942 385 0
-1942 633 0
-1942 -436 0
-1942 -437 0
-1942 -438 639 0
-1942 -438 -376 -382 0
-1942 -438 -271 0
-1942 -438 -279 0
-1942 -438 -330 0
-1942 -438 -338 0
-1942 -438 -445 0
-1942 -438 -453 0
-1942 -439 640 0
-1942 -439 -376 -383 0
-1942 -439 -273 0
-1942 -439 -281 0
-1942 -439 -332 0
-1942 -439 -340 0
-1942 -439 -447 0
-1942 -439 -455 0
-1942 -440 641 0
-1942 -440 -376 -384 0
-1942 -440 -275 0
-1942 -440 -283 0
-1942 -440 -334 0
-1942 -440 -342 0
-1942 -440 -449 0
-1942 -440 -457 0
-1942 -441 0
-1943 385 0
-1943 634 0
-1943 -437 0
-1943 -438 639 0
-1943 -438 -377 -382 0
-1943 -438 -279 0
-1943 -438 -287 0
-1943 -438 -338 0
-1943 -438 -346 0
-1943 -438 -453 0
-1943 -438 -461 0
-1943 -439 640 0
-1943 -439 -377 -383 0
-1943 -439 -281 0
-1943 -439 -289 0
-1943 -439 -340 0
-1943 -439 -348 0
-1943 -439 -455 0
-1943 -439 -463 0
-1943 -440 641 0
-1943 -440 -377 -384 0
-1943 -440 -283 0
-1943 -440 -291 0
-1943 -440 -342 0
-1943 -440 -350 0
-1943 -440 -457 0
-1943 -440 -465 0
-1943 -441 0
-1944 385 0
-1944 635 0
-1944 -438 639 0
-1944 -438 -378 -382 0
-1944 -438 -287 0
-1944 -438 -295 0
-1944 -438 -346 0
-1944 -438 -354 0
-1944 -438 -461 0
-1944 -438 -469 0
-1944 -439 640 0
-1944 -439 -378 -383 0
-1944 -439 -289 0
-1944 -439 -297 0
-1944 -439 -348 0
-1944 -439 -356 0
-1944 -439 -463 0
-1944 -439 -471 0
-1944 -440 641 0
-1944 -440 -378 -384 0
-1944 -440 -291 0
-1944 -440 -299 0
-1944 -440 -350 0
-1944 -440 -358 0
-1944 -440 -465 0
-1944 -440 -473 0
-1944 -441 0
-1945 385 0
-1945 636 0
-1945 -434 0
-1945 -438 639 0
-1945 -438 -379 -382 0
-1945 -438 -295 0
-1945 -438 -303 0
-1945 -438 -354 0
-1945 -438 -362 0
-1945 -438 -469 0
-1945 -438 -477 0
-1945 -439 640 0
-1945 -439 -379 -383 0
-1945 -439 -297 0
-1945 -439 -305 0
-1945 -439 -356 0
-1945 -439 -364 0
-1945 -439 -471 0
-1945 -439 -479 0
-1945 -440 641 0
-1945 -440 -379 -384 0
-1945 -440 -299 0
-1945 -440 -307 0
-1945 -440 -358 0
-1945 -440 -366 0
-1945 -440 -473 0
-1945 -440 -481 0
-1945 -441 0
-1946 385 0
-1946 637 0
-1946 -434 0
-1946 -435 0
-1946 -438 639 0
-1946 -438 -380 -382 0
-1946 -438 -303 0
-1946 -438 -311 0
-1946 -438 -362 0
-1946 -438 -370 0
-1946 -438 -477 0
-1946 -438 -485 0
-1946 -439 640 0
-1946 -439 -380 -383 0
-1946 -439 -305 0
-1946 -439 -313 0
-1946 -439 -364 0
-1946 -439 -372 0
-1946 -439 -479 0
-1946 -439 -487 0
-1946 -440 641 0
-1946 -440 -380 -384 0
-1946 -440 -307 0
-1946 -440 -315 0
-1946 -440 -366 0
-1946 -440 -374 0
-1946 -440 -481 0
-1946 -440 -489 0
-1946 -441 0
-1947 385 0
-1947 633 0
-1947 638 0
-1947 -376 -381 0
-1947 -269 0
-1947 -277 0
-1947 -328 0
-1947 -336 0
-1947 -443 0
-1947 -451 0
-1948 385 0
-1948 634 0
-1948 638 0
-1948 -377 -381 0
-1948 -277 0
-1948 -285 0
-1948 -336 0
-1948 -344 0
-1948 -451 0
-1948 -459 0
-1949 385 0
-1949 635 0
-1949 638 0
-1949 -378 -381 0
-1949 -285 0
-1949 -293 0
-1949 -344 0
-1949 -352 0
-1949 -459 0
-1949 -467 0
-1950 385 0
-1950 636 0
-1950 638 0
-1950 -379 -381 0
-1950 -293 0
-1950 -301 0
-1950 -352 0
-1950 -360 0
-1950 -467 0
-1950 -475 0
-1951 385 0
-1951 637 0
-1951 638 0
-1951 -380 -381 0
-1951 -301 0
-1951 -309 0
-1951 -360 0
-1951 -368 0
-1951 -475 0
-1951 -483 0
-1952 442 0
-1952 691 0
-1952 -261 0
-1952 -262 0
-1952 -263 0
-1952 -264 696 0
-1952 -264 -434 -439 0
-1952 -264 -271 0
-1952 -264 -279 0
-1952 -264 -287 0
-1952 -264 -330 0
-1952 -264 -338 0
-1952 -264 -346 0
-1952 -264 -388 0
-1952 -264 -396 0
-1952 -264 -404 0
-1952 -265 697 0
-1952 -265 -434 -440 0
-1952 -265 -273 0
-1952 -265 -281 0
-1952 -265 -289 0
-1952 -265 -332 0
-1952 -265 -340 0
-1952 -265 -348 0
-1952 -265 -390 0
-1952 -265 -398 0
-1952 -265 -406 0
-1952 -266 698 0
-1952 -266 -434 -441 0
-1952 -266 -275 0
-1952 -266 -283 0
-1952 -266 -291 0
-1952 -266 -334 0
-1952 -266 -342 0
-1952 -266 -350 0
-1952 -266 -392 0
-1952 -266 -400 0
-1952 -266 -408 0
-1952 -267 0
-1953 442 0
-1953 692 0
-1953 -258 0
-1953 -262 0
-1953 -263 0
-1953 -264 696 0
-1953 -264 -435 -439 0
-1953 -264 -279 0
-1953 -264 -287 0
-1953 -264 -295 0
-1953 -264 -338 0
-1953 -264 -346 0
-1953 -264 -354 0
-1953 -264 -396 0
-1953 -264 -404 0
-1953 -264 -412 0
-1953 -265 697 0
-1953 -265 -435 -440 0
-1953 -265 -281 0
-1953 -265 -289 0
-1953 -265 -297 0
-1953 -265 -340 0
-1953 -265 -348 0
-1953 -265 -356 0
-1953 -265 -398 0
-1953 -265 -406 0
-1953 -265 -414 0
-1953 -266 698 0
-1953 -266 -435 -441 0
-1953 -266 -283 0
-1953 -266 -291 0
-1953 -266 -299 0
-1953 -266 -342 0
-1953 -266 -350 0
-1953 -266 -358 0
-1953 -266 -400 0
-1953 -266 -408 0
-1953 -266 -416 0
-1953 -267 0
-1954 442 0
-1954 693 0
-1954 -258 0
-1954 -259 0
-1954 -263 0
-1954 -264 696 0
-1954 -264 -436 -439 0
-1954 -264 -287 0
-1954 -264 -295 0
-1954 -264 -303 0
-1954 -264 -346 0
-1954 -264 -354 0
-1954 -264 -362 0
-1954 -264 -404 0
-1954 -264 -412 0
-1954 -264 -420 0
-1954 -265 697 0
-1954 -265 -436 -440 0
-1954 -265 -289 0
-1954 -265 -297 0
-1954 -265 -305 0
-1954 -265 -348 0
-1954 -265 -356 0
-1954 -265 -364 0
-1954 -265 -406 0
-1954 -265 -414 0
-1954 -265 -422 0
-1954 -266 698 0
-1954 -266 -436 -441 0
-1954 -266 -291 0
-1954 -266 -299 0
-1954 -266 -307 0
-1954 -266 -350 0
-1954 -266 -358 0
-1954 -266 -366 0
-1954 -266 -408 0
-1954 -266 -416 0
-1954 -266 -424 0
-1954 -267 0
-1955 442 0
-1955 694 0
-1955 -258 0
-1955 -259 0
-1955 -260 0
-1955 -264 696 0
-1955 -264 -437 -439 0
-1955 -264 -295 0
-1955 -264 -303 0
-1955 -264 -311 0
-1955 -264 -354 0
-1955 -264 -362 0
-1955 -264 -370 0
-1955 -264 -412 0
-1955 -264 -420 0
-1955 -264 -428 0
-1955 -265 697 0
-1955 -265 -437 -440 0
-1955 -265 -297 0
-1955 -265 -305 0
-1955 -265 -313 0
-1955 -265 -356 0
-1955 -265 -364 0
-1955 -265 -372 0
-1955 -265 -414 0
-1955 -265 -422 0
-1955 -265 -430 0
-1955 -266 698 0
-1955 -266 -437 -441 0
-1955 -266 -299 0
-1955 -266 -307 0
-1955 -266 -315 0
-1955 -266 -358 0
-1955 -266 -366 0
-1955 -266 -374 0
-1955 -266 -416 0
-1955 -266 -424 0
-1955 -266 -432 0
-1955 -267 0
-1956 442 0
-1956 691 0
-1956 -320 0
-1956 -321 0
-1956 -322 0
-1956 -323 696 0
-1956 -323 -434 -439 0
-1956 -323 -271 0
-1956 -323 -279 0
-1956 -323 -287 0
-1956 -323 -330 0
-1956 -323 -338 0
-1956 -323 -346 0
-1956 -323 -388 0
-1956 -323 -396 0
-1956 -323 -404 0
-1956 -324 697 0
-1956 -324 -434 -440 0
-1956 -324 -273 0
-1956 -324 -281 0
-1956 -324 -289 0
-1956 -324 -332 0
-1956 -324 -340 0
-1956 -324 -348 0
-1956 -324 -390 0
-1956 -324 -398 0
-1956 -324 -406 0
-1956 -325 698 0
-1956 -325 -434 -441 0
-1956 -325 -275 0
-1956 -325 -283 0
-1956 -325 -291 0
-1956 -325 -334 0
-1956 -325 -342 0
-1956 -325 -350 0
-1956 -325 -392 0
-1956 -325 -400 0
-1956 -325 -408 0
-1956 -326 0
-1957 442 0
-1957 692 0
-1957 -317 0
-1957 -321 0
-1957 -322 0
-1957 -323 696 0
-1957 -323 -435 -439 0
-1957 -323 -279 0
-1957 -323 -287 0
-1957 -323 -295 0
-1957 -323 -338 0
-1957 -323 -346 0
-1957 -323 -354 0
-1957 -323 -396 0
-1957 -323 -404 0
-1957 -323 -412 0
-1957 -324 697 0
-1957 -324 -435 -440 0
-1957 -324 -281 0
-1957 -324 -289 0
-1957 -324 -297 0
-1957 -324 -340 0
-1957 -324 -348 0
-1957 -324 -356 0
-1957 -324 -398 0
-1957 -324 -406 0
-1957 -324 -414 0
-1957 -325 698 0
-1957 -325 -435 -441 0
-1957 -325 -283 0
-1957 -325 -291 0
-1957 -325 -299 0
-1957 -325 -342 0
-1957 -325 -350 0
-1957 -325 -358 0
-1957 -325 -400 0
-1957 -325 -408 0
-1957 -325 -416 0
-1957 -326 0
-1958 442 0
-1958 693 0
-1958 -317 0
-1958 -318 0
-1958 -322 0
-1958 -323 696 0
-1958 -323 -436 -439 0
-1958 -323 -287 0
-1958 -323 -295 0
-1958 -323 -303 0
-1958 -323 -346 0
-1958 -323 -354 0
-1958 -323 -362 0
-1958 -323 -404 0
-1958 -323 -412 0
-1958 -323 -420 0
-1958 -324 697 0
-1958 -324 -436 -440 0
-1958 -324 -289 0
-1958 -324 -297 0
-1958 -324 -305 0
-1958 -324 -348 0
-1958 -324 -356 0
-1958 -324 -364 0
-1958 -324 -406 0
-1958 -324 -414 0
-1958 -324 -422 0
-1958 -325 698 0
-1958 -325 -436 -441 0
-1958 -325 -291 0
-1958 -325 -299 0
-1958 -325 -307 0
-1958 -325 -350 0
-1958 -325 -358 0
-1958 -325 -366 0
-1958 -325 -408 0
-1958 -325 -416 0
-1958 -325 -424 0
-1958 -326 0
-1959 442 0
-1959 694 0
-1959 -317 0
-1959 -318 0
-1959 -319 0
-1959 -323 696 0
-1959 -323 -437 -439 0
-1959 -323 -295 0
-1959 -323 -303 0
-1959 -323 -311 0
-1959 -323 -354 0
-1959 -323 -362 0
-1959 -323 -370 0
-1959 -323 -412 0
-1959 -323 -420 0
-1959 -323 -428 0
-1959 -324 697 0
-1959 -324 -437 -440 0
-1959 -324 -297 0
-1959 -324 -305 0
-1959 -324 -313 0
-1959 -324 -356 0
-1959 -324 -364 0
-1959 -324 -372 0
-1959 -324 -414 0
-1959 -324 -422 0
-1959 -324 -430 0
-1959 -325 698 0
-1959 -325 -437 -441 0
-1959 -325 -299 0
-1959 -325 -307 0
-1959 -325 -315 0
-1959 -325 -358 0
-1959 -325 -366 0
-1959 -325 -374 0
-1959 -325 -416 0
-1959 -325 -424 0
-1959 -325 -432 0
-1959 -326 0
-1960 442 0
-1960 691 0
-1960 -379 0
-1960 -380 0
-1960 -381 696 0
-1960 -381 -434 -439 0
-1960 -381 -271 0
-1960 -381 -279 0
-1960 -381 -287 0
-1960 -381 -330 0
-1960 -381 -338 0
-1960 -381 -346 0
-1960 -381 -388 0
-1960 -381 -396 0
-1960 -381 -404 0
-1960 -382 697 0
-1960 -382 -434 -440 0
-1960 -382 -273 0
-1960 -382 -281 0
-1960 -382 -289 0
-1960 -382 -332 0
-1960 -382 -340 0
-1960 -382 -348 0
-1960 -382 -390 0
-1960 -382 -398 0
-1960 -382 -406 0
-1960 -383 698 0
-1960 -383 -434 -441 0
-1960 -383 -275 0
-1960 -383 -283 0
-1960 -383 -291 0
-1960 -383 -334 0
-1960 -383 -342 0
-1960 -383 -350 0
-1960 -383 -392 0
-1960 -383 -400 0
-1960 -383 -408 0
-1960 -384 0
-1961 442 0
-1961 692 0
-1961 -380 0
-1961 -381 696 0
-1961 -381 -435 -439 0
-1961 -381 -279 0
-1961 -381 -287 0
-1961 -381 -295 0
-1961 -381 -338 0
-1961 -381 -346 0
-1961 -381 -354 0
-1961 -381 -396 0
-1961 -381 -404 0
-1961 -381 -412 0
-1961 -382 697 0
-1961 -382 -435 -440 0
-1961 -382 -281 0
-1961 -382 -289 0
-1961 -382 -297 0
-1961 -382 -340 0
-1961 -382 -348 0
-1961 -382 -356 0
-1961 -382 -398 0
-1961 -382 -406 0
-1961 -382 -414 0
-1961 -383 698 0
-1961 -383 -435 -441 0
-1961 -383 -283 0
-1961 -383 -291 0
-1961 -383 -299 0
-1961 -383 -342 0
-1961 -383 -350 0
-1961 -383 -358 0
-1961 -383 -400 0
-1961 -383 -408 0
-1961 -383 -416 0
-1961 -384 0
-1962 442 0
-1962 693 0
-1962 -376 0
-1962 -381 696 0
-1962 -381 -436 -439 0
-1962 -381 -287 0
-1962 -381 -295 0
-1962 -381 -303 0
-1962 -381 -346 0
-1962 -381 -354 0
-1962 -381 -362 0
-1962 -381 -404 0
-1962 -381 -412 0
-1962 -381 -420 0
-1962 -382 697 0
-1962 -382 -436 -440 0
-1962 -382 -289 0
-1962 -382 -297 0
-1962 -382 -305 0
-1962 -382 -348 0
-1962 -382 -356 0
-1962 -382 -364 0
-1962 -382 -406 0
-1962 -382 -414 0
-1962 -382 -422 0
-1962 -383 698 0
-1962 -383 -436 -441 0
-1962 -383 -291 0
-1962 -383 -299 0
-1962 -383 -307 0
-1962 -383 -350 0
-1962 -383 -358 0
-1962 -383 -366 0
-1962 -383 -408 0
-1962 -383 -416 0
-1962 -383 -424 0
-1962 -384 0
-1963 442 0
-1963 694 0
-1963 -376 0
-1963 -377 0
-1963 -381 696 0
-1963 -381 -437 -439 0
-1963 -381 -295 0
-1963 -381 -303 0
-1963 -381 -311 0
-1963 -381 -354 0
-1963 -381 -362 0
-1963 -381 -370 0
-1963 -381 -412 0
-1963 -381 -420 0
-1963 -381 -428 0
-1963 -382 697 0
-1963 -382 -437 -440 0
-1963 -382 -297 0
-1963 -382 -305 0
-1963 -382 -313 0
-1963 -382 -356 0
-1963 -382 -364 0
-1963 -382 -372 0
-1963 -382 -414 0
-1963 -382 -422 0
-1963 -382 -430 0
-1963 -383 698 0
-1963 -383 -437 -441 0
-1963 -383 -299 0
-1963 -383 -307 0
-1963 -383 -315 0
-1963 -383 -358 0
-1963 -383 -366 0
-1963 -383 -374 0
-1963 -383 -416 0
-1963 -383 -424 0
-1963 -383 -432 0
-1963 -384 0
-1964 442 0
-1964 691 0
-1964 695 0
-1964 -434 -438 0
-1964 -269 0
-1964 -277 0
-1964 -285 0
-1964 -328 0
-1964 -336 0
-1964 -344 0
-1964 -386 0
-1964 -394 0
-1964 -402 0
-1965 442 0
-1965 692 0
-1965 695 0
-1965 -435 -438 0
-1965 -277 0
-1965 -285 0
-1965 -293 0
-1965 -336 0
-1965 -344 0
-1965 -352 0
-1965 -394 0
-1965 -402 0
-1965 -410 0
-1966 442 0
-1966 693 0
-1966 695 0
-1966 -436 -438 0
-1966 -285 0
-1966 -293 0
-1966 -301 0
-1966 -344 0
-1966 -352 0
-1966 -360 0
-1966 -402 0
-1966 -410 0
-1966 -418 0
-1967 442 0
-1967 694 0
-1967 695 0
-1967 -437 -438 0
-1967 -293 0
-1967 -301 0
-1967 -309 0
-1967 -352 0
-1967 -360 0
-1967 -368 0
-1967 -410 0
-1967 -418 0
-1967 -426 0
-258 515 1884 1885 1886 1887 1888 1889 1890 1891 1892 1893 1894 1895 1896 1897 1898 1899 1900 1901 1902 1903 1904 1905 1906 1907 0
-259 516 1884 1885 1886 1887 1888 1889 1890 1891 1892 1893 1894 1895 1896 1897 1898 1899 1900 1901 1902 1903 1904 1905 1906 1907 0
-260 517 1884 1885 1886 1887 1888 1889 1890 1891 1892 1893 1894 1895 1896 1897 1898 1899 1900 1901 1902 1903 1904 1905 1906 1907 0
-261 518 1884 1885 1886 1887 1888 1889 1890 1891 1892 1893 1894 1895 1896 1897 1898 1899 1900 1901 1902 1903 1904 1905 1906 1907 0
-262 519 1884 1885 1886 1887 1888 1889 1890 1891 1892 1893 1894 1895 1896 1897 1898 1899 1900 1901 1902 1903 1904 1905 1906 1907 0
-263 520 1884 1885 1886 1887 1888 1889 1890 1891 1892 1893 1894 1895 1896 1897 1898 1899 1900 1901 1902 1903 1904 1905 1906 1907 0
-264 521 1884 1885 1886 1887 1888 1889 1890 1891 1892 1893 1894 1895 1896 1897 1898 1899 1900 1901 1902 1903 1904 1905 1906 1907 0
-265 522 1884 1885 1886 1887 1888 1889 1890 1891 1892 1893 1894 1895 1896 1897 1898 1899 1900 1901 1902 1903 1904 1905 1906 1907 0
-266 523 1884 1885 1886 1887 1888 1889 1890 1891 1892 1893 1894 1895 1896 1897 1898 1899 1900 1901 1902 1903 1904 1905 1906 1907 0
-267 524 1884 1885 1886 1887 1888 1889 1890 1891 1892 1893 1894 1895 1896 1897 1898 1899 1900 1901 1902 1903 1904 1905 1906 1907 0
-317 574 1908 1909 1910 1911 1912 1913 1914 1915 1916 1917 1918 1919 1920 1921 1922 1923 1924 1925 1926 1927 1928 1929 1930 1931 0
-318 575 1908 1909 1910 1911 1912 1913 1914 1915 1916 1917 1918 1919 1920 1921 1922 1923 1924 1925 1926 1927 1928 1929 1930 1931 0
-319 576 1908 1909 1910 1911 1912 1913 1914 1915 1916 1917 1918 1919 1920 1921 1922 1923 1924 1925 1926 1927 1928 1929 1930 1931 0
-320 577 1908 1909 1910 1911 1912 1913 1914 1915 1916 1917 1918 1919 1920 1921 1922 1923 1924 1925 1926 1927 1928 1929 1930 1931 0
-321 578 1908 1909 1910 1911 1912 1913 1914 1915 1916 1917 1918 1919 1920 1921 1922 1923 1924 1925 1926 1927 1928 1929 1930 1931 0
-322 579 1908 1909 1910 1911 1912 1913 1914 1915 1916 1917 1918 1919 1920 1921 1922 1923 1924 1925 1926 1927 1928 1929 1930 1931 0
-323 580 1908 1909 1910 1911 1912 1913 1914 1915 1916 1917 1918 1919 1920 1921 1922 1923 1924 1925 1926 1927 1928 1929 1930 1931 0
-324 581 1908 1909 1910 1911 1912 1913 1914 1915 1916 1917 1918 1919 1920 1921 1922 1923 1924 1925 1926 1927 1928 1929 1930 1931 0
-325 582 1908 1909 1910 1911 1912 1913 1914 1915 1916 1917 1918 1919 1920 1921 1922 1923 1924 1925 1926 1927 1928 1929 1930 1931 0
-326 583 1908 1909 1910 1911 1912 1913 1914 1915 1916 1917 1918 1919 1920 1921 1922 1923 1924 1925 1926 1927 1928 1929 1930 1931 0
-376 633 1932 1933 1934 1935 1936 1937 1938 1939 1940 1941 1942 1943 1944 1945 1946 1947 1948 1949 1950 1951 0
-377 634 1932 1933 1934 1935 1936 1937 1938 1939 1940 1941 1942 1943 1944 1945 1946 1947 1948 1949 1950 1951 0
-378 635 1932 1933 1934 1935 1936 1937 1938 1939 1940 1941 1942 1943 1944 1945 1946 1947 1948 1949 1950 1951 0
-379 636 1932 1933 1934 1935 1936 1937 1938 1939 1940 1941 1942 1943 1944 1945 1946 1947 1948 1949 1950 1951 0
-380 637 1932 1933 1934 1935 1936 1937 1938 1939 1940 1941 1942 1943 1944 1945 1946 1947 1948 1949 1950 1951 0
-381 638 1932 1933 1934 1935 1936 1937 1938 1939 1940 1941 1942 1943 1944 1945 1946 1947 1948 1949 1950 1951 0
-382 639 1932 1933 1934 1935 1936 1937 1938 1939 1940 1941 1942 1943 1944 1945 1946 1947 1948 1949 1950 1951 0
-383 640 1932 1933 1934 1935 1936 1937 1938 1939 1940 1941 1942 1943 1944 1945 1946 1947 1948 1949 1950 1951 0
-384 641 1932 1933 1934 1935 1936 1937 1938 1939 1940 1941 1942 1943 1944 1945 1946 1947 1948 1949 1950 1951 0
-434 691 1952 1953 1954 1955 1956 1957 1958 1959 1960 1961 1962 1963 1964 1965 1966 1967 0
-435 692 1952 1953 1954 1955 1956 1957 1958 1959 1960 1961 1962 1963 1964 1965 1966 1967 0
-436 693 1952 1953 1954 1955 1956 1957 1958 1959 1960 1961 1962 1963 1964 1965 1966 1967 0
-437 694 1952 1953 1954 1955 1956 1957 1958 1959 1960 1961 1962 1963 1964 1965 1966 1967 0
-438 695 1952 1953 1954 1955 1956 1957 1958 1959 1960 1961 1962 1963 1964 1965 1966 1967 0
-439 696 1952 1953 1954 1955 1956 1957 1958 1959 1960 1961 1962 1963 1964 1965 1966 1967 0
-440 697 1952 1953 1954 1955 1956 1957 1958 1959 1960 1961 1962 1963 1964 1965 1966 1967 0
-441 698 1952 1953 1954 1955 1956 1957 1958 1959 1960 1961 1962 1963 1964 1965 1966 1967 0
-1968 -1969 0
-1968 -1970 0
-1968 -1971 0
-1968 -1972 0
-1968 -1973 0
-1968 -1974 0
-1968 -1975 0
-1968 -1976 0
-1968 -1977 0
-1968 -1978 0
-1968 -1979 0
-1968 -1980 0
-1968 -1981 0
-1968 -1982 0
-1968 -1983 0
-1968 -1984 0
-1968 -1985 0
-1968 -1986 0
-1968 -1987 0
-1968 -1988 0
-1968 -1989 0
-1968 -1990 0
-1968 -1991 0
-1968 -1992 0
-1968 -1993 0
-1968 -1994 0
-1968 -1995 0
-1968 -1996 0
-1968 -1997 0
-1968 -1998 0
-1968 -1999 0
-1968 -2000 0
-1968 -2001 0
-1968 -2002 0
-1968 -2003 0
-1968 -2004 0
-1968 -2005 0
-1968 -2006 0
-1968 -2007 0
-1968 -2008 0
-1968 -2009 0
-1968 -2010 0
-1968 -2011 0
-1968 -2012 0
-1968 -2013 0
-1968 -2014 0
-1968 -2015 0
-1968 -2016 0
-1968 -2017 0
-1968 -2018 0
-1968 -2019 0
-1968 -2020 0
-1968 -2021 0
-1968 -2022 0
-1968 -2023 0
-1968 -2024 0
-1968 -2025 0
-1968 -2026 0
-1968 -2027 0
-1968 -2028 0
-1968 -2029 0
-1968 -2030 0
-1968 -2031 0
-1968 -2032 0
-1968 -2033 0
-1968 -2034 0
-1968 -2035 0
-1968 -2036 0
-1968 -2037 0
-1968 -2038 0
-1968 -2039 0
-1968 -2040 0
-1968 -2041 0
-1968 -2042 0
-1968 -2043 0
-1968 -2044 0
-1968 -2045 0
-1968 -2046 0
-1968 -2047 0
-1968 -2048 0
-1968 -2049 0
-1968 -2050 0
-1968 -2051 0
-1969 -1970 0
-1969 -1971 0
-1969 -1972 0
-1969 -1973 0
-1969 -1974 0
-1969 -1975 0
-1969 -1976 0
-1969 -1977 0
-1969 -1978 0
-1969 -1979 0
-1969 -1980 0
-1969 -1981 0
-1969 -1982 0
-1969 -1983 0
-1969 -1984 0
-1969 -1985 0
-1969 -1986 0
-1969 -1987 0
-1969 -1988 0
-1969 -1989 0
-1969 -1990 0
-1969 -1991 0
-1969 -1992 0
-1969 -1993 0
-1969 -1994 0
-1969 -1995 0
-1969 -1996 0
-1969 -1997 0
-1969 -1998 0
-1969 -1999 0
-1969 -2000 0
-1969 -2001 0
-1969 -2002 0
-1969 -2003 0
-1969 -2004 0
-1969 -2005 0
-1969 -2006 0
-1969 -2007 0
-1969 -2008 0
-1969 -2009 0
-1969 -2010 0
-1969 -2011 0
-1969 -2012 0
-1969 -2013 0
-1969 -2014 0
-1969 -2015 0
-1969 -2016 0
-1969 -2017 0
-1969 -2018 0
-1969 -2019 0
-1969 -2020 0
-1969 -2021 0
-1969 -2022 0
-1969 -2023 0
-1969 -2024 0
-1969 -2025 0
-1969 -2026 0
-1969 -2027 0
-1969 -2028 0
-1969 -2029 0
-1969 -2030 0
-1969 -2031 0
-1969 -2032 0
-1969 -2033 0
-1969 -2034 0
-1969 -2035 0
-1969 -2036 0
-1969 -2037 0
-1969 -2038 0
-1969 -2039 0
-1969 -2040 0
-1969 -2041 0
-1969 -2042 0
-1969 -2043 0
-1969 -2044 0
-1969 -2045 0
-1969 -2046 0
-1969 -2047 0
-1969 -2048 0
-1969 -2049 0
-1969 -2050 0
-1969 -2051 0
-1970 -1971 0
-1970 -1972 0
-1970 -1973 0
-1970 -1974 0
-1970 -1975 0
-1970 -1976 0
-1970 -1977 0
-1970 -1978 0
-1970 -1979 0
-1970 -1980 0
-1970 -1981 0
-1970 -1982 0
-1970 -1983 0
-1970 -1984 0
-1970 -1985 0
-1970 -1986 0
-1970 -1987 0
-1970 -1988 0
-1970 -1989 0
-1970 -1990 0
-1970 -1991 0
-1970 -1992 0
-1970 -1993 0
-1970 -1994 0
-1970 -1995 0
-1970 -1996 0
-1970 -1997 0
-1970 -1998 0
-1970 -1999 0
-1970 -2000 0
-1970 -2001 0
-1970 -2002 0
-1970 -2003 0
-1970 -2004 0
-1970 -2005 0
-1970 -2006 0
-1970 -2007 0
-1970 -2008 0
-1970 -2009 0
-1970 -2010 0
-1970 -2011 0
-1970 -2012 0
-1970 -2013 0
-1970 -2014 0
-1970 -2015 0
-1970 -2016 0
-1970 -2017 0
-1970 -2018 0
-1970 -2019 0
-1970 -2020 0
-1970 -2021 0
-1970 -2022 0
-1970 -2023 0
-1970 -2024 0
-1970 -2025 0
-1970 -2026 0
-1970 -2027 0
-1970 -2028 0
-1970 -2029 0
-1970 -2030 0
-1970 -2031 0
-1970 -2032 0
-1970 -2033 0
-1970 -2034 0
-1970 -2035 0
-1970 -2036 0
-1970 -2037 0
-1970 -2038 0
-1970 -2039 0
-1970 -2040 0
-1970 -2041 0
-1970 -2042 0
-1970 -2043 0
-1970 -2044 0
-1970 -2045 0
-1970 -2046 0
-1970 -2047 0
-1970 -2048 0
-1970 -2049 0
-1970 -2050 0
-1970 -2051 0
-1971 -1972 0
-1971 -1973 0
-1971 -1974 0
-1971 -1975 0
-1971 -1976 0
-1971 -1977 0
-1971 -1978 0
-1971 -1979 0
-1971 -1980 0
-1971 -1981 0
-1971 -1982 0
-1971 -1983 0
-1971 -1984 0
-1971 -1985 0
-1971 -1986 0
-1971 -1987 0
-1971 -1988 0
-1971 -1989 0
-1971 -1990 0
-1971 -1991 0
-1971 -1992 0
-1971 -1993 0
-1971 -1994 0
-1971 -1995 0
-1971 -1996 0
-1971 -1997 0
-1971 -1998 0
-1971 -1999 0
-1971 -2000 0
-1971 -2001 0
-1971 -2002 0
-1971 -2003 0
-1971 -2004 0
-1971 -2005 0
-1971 -2006 0
-1971 -2007 0
-1971 -2008 0
-1971 -2009 0
-1971 -2010 0
-1971 -2011 0
-1971 -2012 0
-1971 -2013 0
-1971 -2014 0
-1971 -2015 0
-1971 -2016 0
-1971 -2017 0
-1971 -2018 0
-1971 -2019 0
-1971 -2020 0
-1971 -2021 0
-1971 -2022 0
-1971 -2023 0
-1971 -2024 0
-1971 -2025 0
-1971 -2026 0
-1971 -2027 0
-1971 -2028 0
-1971 -2029 0
-1971 -2030 0
-1971 -2031 0
-1971 -2032 0
-1971 -2033 0
-1971 -2034 0
-1971 -2035 0
-1971 -2036 0
-1971 -2037 0
-1971 -2038 0
-1971 -2039 0
-1971 -2040 0
-1971 -2041 0
-1971 -2042 0
-1971 -2043 0
-1971 -2044 0
-1971 -2045 0
-1971 -2046 0
-1971 -2047 0
-1971 -2048 0
-1971 -2049 0
-1971 -2050 0
-1971 -2051 0
-1972 -1973 0
-1972 -1974 0
-1972 -1975 0
-1972 -1976 0
-1972 -1977 0
-1972 -1978 0
-1972 -1979 0
-1972 -1980 0
-1972 -1981 0
-1972 -1982 0
-1972 -1983 0
-1972 -1984 0
-1972 -1985 0
-1972 -1986 0
-1972 -1987 0
-1972 -1988 0
-1972 -1989 0
-1972 -1990 0
-1972 -1991 0
-1972 -1992 0
-1972 -1993 0
-1972 -1994 0
-1972 -1995 0
-1972 -1996 0
-1972 -1997 0
-1972 -1998 0
-1972 -1999 0
-1972 -2000 0
-1972 -2001 0
-1972 -2002 0
-1972 -2003 0
-1972 -2004 0
-1972 -2005 0
-1972 -2006 0
-1972 -2007 0
-1972 -2008 0
-1972 -2009 0
-1972 -2010 0
-1972 -2011 0
-1972 -2012 0
-1972 -2013 0
-1972 -2014 0
-1972 -2015 0
-1972 -2016 0
-1972 -2017 0
-1972 -2018 0
-1972 -2019 0
-1972 -2020 0
-1972 -2021 0
-1972 -2022 0
-1972 -2023 0
-1972 -2024 0
-1972 -2025 0
-1972 -2026 0
-1972 -2027 0
-1972 -2028 0
-1972 -2029 0
-1972 -2030 0
-1972 -2031 0
-1972 -2032 0
-1972 -2033 0
-1972 -2034 0
-1972 -2035 0
-1972 -2036 0
-1972 -2037 0
-1972 -2038 0
-1972 -2039 0
-1972 -2040 0
-1972 -2041 0
-1972 -2042 0
-1972 -2043 0
-1972 -2044 0
-1972 -2045 0
-1972 -2046 0
-1972 -2047 0
-1972 -2048 0
-1972 -2049 0
-1972 -2050 0
-1972 -2051 0
-1973 -1974 0
-1973 -1975 0
-1973 -1976 0
-1973 -1977 0
-1973 -1978 0
-1973 -1979 0
-1973 -1980 0
-1973 -1981 0
-1973 -1982 0
-1973 -1983 0
-1973 -1984 0
-1973 -1985 0
-1973 -1986 0
-1973 -1987 0
-1973 -1988 0
-1973 -1989 0
-1973 -1990 0
-1973 -1991 0
-1973 -1992 0
-1973 -1993 0
-1973 -1994 0
-1973 -1995 0
-1973 -1996 0
-1973 -1997 0
-1973 -1998 0
-1973 -1999 0
-1973 -2000 0
-1973 -2001 0
-1973 -2002 0
-1973 -2003 0
-1973 -2004 0
-1973 -2005 0
-1973 -2006 0
-1973 -2007 0
-1973 -2008 0
-1973 -2009 0
-1973 -2010 0
-1973 -2011 0
-1973 -2012 0
-1973 -2013 0
-1973 -2014 0
-1973 -2015 0
-1973 -2016 0
-1973 -2017 0
-1973 -2018 0
-1973 -2019 0
-1973 -2020 0
-1973 -2021 0
-1973 -2022 0
-1973 -2023 0
-1973 -2024 0
-1973 -2025 0
-1973 -2026 0
-1973 -2027 0
-1973 -2028 0
-1973 -2029 0
-1973 -2030 0
-1973 -2031 0
-1973 -2032 0
-1973 -2033 0
-1973 -2034 0
-1973 -2035 0
-1973 -2036 0
-1973 -2037 0
-1973 -2038 0
-1973 -2039 0
-1973 -2040 0
-1973 -2041 0
-1973 -2042 0
-1973 -2043 0
-1973 -2044 0
-1973 -2045 0
-1973 -2046 0
-1973 -2047 0
-1973 -2048 0
-1973 -2049 0
-1973 -2050 0
-1973 -2051 0
-1974 -1975 0
-1974 -1976 0
-1974 -1977 0
-1974 -1978 0
-1974 -1979 0
-1974 -1980 0
-1974 -1981 0
-1974 -1982 0
-1974 -1983 0
-1974 -1984 0
-1974 -1985 0
-1974 -1986 0
-1974 -1987 0
-1974 -1988 0
-1974 -1989 0
-1974 -1990 0
-1974 -1991 0
-1974 -1992 0
-1974 -1993 0
-1974 -1994 0
-1974 -1995 0
-1974 -1996 0
-1974 -1997 0
-1974 -1998 0
-1974 -1999 0
-1974 -2000 0
-1974 -2001 0
-1974 -2002 0
-1974 -2003 0
-1974 -2004 0
-1974 -2005 0
-1974 -2006 0
-1974 -2007 0
-1974 -2008 0
-1974 -2009 0
-1974 -2010 0
-1974 -2011 0
-1974 -2012 0
-1974 -2013 0
-1974 -2014 0
-1974 -2015 0
-1974 -2016 0
-1974 -2017 0
-1974 -2018 0
-1974 -2019 0
-1974 -2020 0
-1974 -2021 0
-1974 -2022 0
-1974 -2023 0
-1974 -2024 0
-1974 -2025 0
-1974 -2026 0
-1974 -2027 0
-1974 -2028 0
-1974 -2029 0
-1974 -2030 0
-1974 -2031 0
-1974 -2032 0
-1974 -2033 0
-1974 -2034 0
-1974 -2035 0
-1974 -2036 0
-1974 -2037 0
-1974 -2038 0
-1974 -2039 0
-1974 -2040 0
-1974 -2041 0
-1974 -2042 0
-1974 -2043 0
-1974 -2044 0
-1974 -2045 0
-1974 -2046 0
-1974 -2047 0
-1974 -2048 0
-1974 -2049 0
-1974 -2050 0
-1974 -2051 0
-1975 -1976 0
-1975 -1977 0
-1975 -1978 0
-1975 -1979 0
-1975 -1980 0
-1975 -1981 0
-1975 -1982 0
-1975 -1983 0
-1975 -1984 0
-1975 -1985 0
-1975 -1986 0
-1975 -1987 0
-1975 -1988 0
-1975 -1989 0
-1975 -1990 0
-1975 -1991 0
-1975 -1992 0
-1975 -1993 0
-1975 -1994 0
-1975 -1995 0
-1975 -1996 0
-1975 -1997 0
-1975 -1998 0
-1975 -1999 0
-1975 -2000 0
-1975 -2001 0
-1975 -2002 0
-1975 -2003 0
-1975 -2004 0
-1975 -2005 0
-1975 -2006 0
-1975 -2007 0
-1975 -2008 0
-1975 -2009 0
-1975 -2010 0
-1975 -2011 0
-1975 -2012 0
-1975 -2013 0
-1975 -2014 0
-1975 -2015 0
-1975 -2016 0
-1975 -2017 0
-1975 -2018 0
-1975 -2019 0
-1975 -2020 0
-1975 -2021 0
-1975 -2022 0
-1975 -2023 0
-1975 -2024 0
-1975 -2025 0
-1975 -2026 0
-1975 -2027 0
-1975 -2028 0
-1975 -2029 0
-1975 -2030 0
-1975 -2031 0
-1975 -2032 0
-1975 -2033 0
-1975 -2034 0
-1975 -2035 0
-1975 -2036 0
-1975 -2037 0
-1975 -2038 0
-1975 -2039 0
-1975 -2040 0
-1975 -2041 0
-1975 -2042 0
-1975 -2043 0
-1975 -2044 0
-1975 -2045 0
-1975 -2046 0
-1975 -2047 0
-1975 -2048 0
-1975 -2049 0
-1975 -2050 0
-1975 -2051 0
-1976 -1977 0
-1976 -1978 0
-1976 -1979 0
-1976 -1980 0
-1976 -1981 0
-1976 -1982 0
-1976 -1983 0
-1976 -1984 0
-1976 -1985 0
-1976 -1986 0
-1976 -1987 0
-1976 -1988 0
-1976 -1989 0
-1976 -1990 0
-1976 -1991 0
-1976 -1992 0
-1976 -1993 0
-1976 -1994 0
-1976 -1995 0
-1976 -1996 0
-1976 -1997 0
-1976 -1998 0
-1976 -1999 0
-1976 -2000 0
-1976 -2001 0
-1976 -2002 0
-1976 -2003 0
-1976 -2004 0
-1976 -2005 0
-1976 -2006 0
-1976 -2007 0
-1976 -2008 0
-1976 -2009 0
-1976 -2010 0
-1976 -2011 0
-1976 -2012 0
-1976 -2013 0
-1976 -2014 0
-1976 -2015 0
-1976 -2016 0
-1976 -2017 0
-1976 -2018 0
-1976 -2019 0
-1976 -2020 0
-1976 -2021 0
-1976 -2022 0
-1976 -2023 0
-1976 -2024 0
-1976 -2025 0
-1976 -2026 0
-1976 -2027 0
-1976 -2028 0
-1976 -2029 0
-1976 -2030 0
-1976 -2031 0
-1976 -2032 0
-1976 -2033 0
-1976 -2034 0
-1976 -2035 0
-1976 -2036 0
-1976 -2037 0
-1976 -2038 0
-1976 -2039 0
-1976 -2040 0
-1976 -2041 0
-1976 -2042 0
-1976 -2043 0
-1976 -2044 0
-1976 -2045 0
-1976 -2046 0
-1976 -2047 0
-1976 -2048 0
-1976 -2049 0
-1976 -2050 0
-1976 -2051 0
-1977 -1978 0
-1977 -1979 0
-1977 -1980 0
-1977 -1981 0
-1977 -1982 0
-1977 -1983 0
-1977 -1984 0
-1977 -1985 0
-1977 -1986 0
-1977 -1987 0
-1977 -1988 0
-1977 -1989 0
-1977 -1990 0
-1977 -1991 0
-1977 -1992 0
-1977 -1993 0
-1977 -1994 0
-1977 -1995 0
-1977 -1996 0
-1977 -1997 0
-1977 -1998 0
-1977 -1999 0
-1977 -2000 0
-1977 -2001 0
-1977 -2002 0
-1977 -2003 0
-1977 -2004 0
-1977 -2005 0
-1977 -2006 0
-1977 -2007 0
-1977 -2008 0
-1977 -2009 0
-1977 -2010 0
-1977 -2011 0
-1977 -2012 0
-1977 -2013 0
-1977 -2014 0
-1977 -2015 0
-1977 -2016 0
-1977 -2017 0
-1977 -2018 0
-1977 -2019 0
-1977 -2020 0
-1977 -2021 0
-1977 -2022 0
-1977 -2023 0
-1977 -2024 0
-1977 -2025 0
-1977 -2026 0
-1977 -2027 0
-1977 -2028 0
-1977 -2029 0
-1977 -2030 0
-1977 -2031 0
-1977 -2032 0
-1977 -2033 0
-1977 -2034 0
-1977 -2035 0
-1977 -2036 0
-1977 -2037 0
-1977 -2038 0
-1977 -2039 0
-1977 -2040 0
-1977 -2041 0
-1977 -2042 0
-1977 -2043 0
-1977 -2044 0
-1977 -2045 0
-1977 -2046 0
-1977 -2047 0
-1977 -2048 0
-1977 -2049 0
-1977 -2050 0
-1977 -2051 0
-1978 -1979 0
-1978 -1980 0
-1978 -1981 0
-1978 -1982 0
-1978 -1983 0
-1978 -1984 0
-1978 -1985 0
-1978 -1986 0
-1978 -1987 0
-1978 -1988 0
-1978 -1989 0
-1978 -1990 0
-1978 -1991 0
-1978 -1992 0
-1978 -1993 0
-1978 -1994 0
-1978 -1995 0
-1978 -1996 0
-1978 -1997 0
-1978 -1998 0
-1978 -1999 0
-1978 -2000 0
-1978 -2001 0
-1978 -2002 0
-1978 -2003 0
-1978 -2004 0
-1978 -2005 0
-1978 -2006 0
-1978 -2007 0
-1978 -2008 0
-1978 -2009 0
-1978 -2010 0
-1978 -2011 0
-1978 -2012 0
-1978 -2013 0
-1978 -2014 0
-1978 -2015 0
-1978 -2016 0
-1978 -2017 0
-1978 -2018 0
-1978 -2019 0
-1978 -2020 0
-1978 -2021 0
-1978 -2022 0
-1978 -2023 0
-1978 -2024 0
-1978 -2025 0
-1978 -2026 0
-1978 -2027 0
-1978 -2028 0
-1978 -2029 0
-1978 -2030 0
-1978 -2031 0
-1978 -2032 0
-1978 -2033 0
-1978 -2034 0
-1978 -2035 0
-1978 -2036 0
-1978 -2037 0
-1978 -2038 0
-1978 -2039 0
-1978 -2040 0
-1978 -2041 0
-1978 -2042 0
-1978 -2043 0
-1978 -2044 0
-1978 -2045 0
-1978 -2046 0
-1978 -2047 0
-1978 -2048 0
-1978 -2049 0
-1978 -2050 0
-1978 -2051 0
-1979 -1980 0
-1979 -1981 0
-1979 -1982 0
-1979 -1983 0
-1979 -1984 0
-1979 -1985 0
-1979 -1986 0
-1979 -1987 0
-1979 -1988 0
-1979 -1989 0
-1979 -1990 0
-1979 -1991 0
-1979 -1992 0
-1979 -1993 0
-1979 -1994 0
-1979 -1995 0
-1979 -1996 0
-1979 -1997 0
-1979 -1998 0
-1979 -1999 0
-1979 -2000 0
-1979 -2001 0
-1979 -2002 0
-1979 -2003 0
-1979 -2004 0
-1979 -2005 0
-1979 -2006 0
-1979 -2007 0
-1979 -2008 0
-1979 -2009 0
-1979 -2010 0
-1979 -2011 0
-1979 -2012 0
-1979 -2013 0
-1979 -2014 0
-1979 -2015 0
-1979 -2016 0
-1979 -2017 0
-1979 -2018 0
-1979 -2019 0
-1979 -2020 0
-1979 -2021 0
-1979 -2022 0
-1979 -2023 0
-1979 -2024 0
-1979 -2025 0
-1979 -2026 0
-1979 -2027 0
-1979 -2028 0
-1979 -2029 0
-1979 -2030 0
-1979 -2031 0
-1979 -2032 0
-1979 -2033 0
-1979 -2034 0
-1979 -2035 0
-1979 -2036 0
-1979 -2037 0
-1979 -2038 0
-1979 -2039 0
-1979 -2040 0
-1979 -2041 0
-1979 -2042 0
-1979 -2043 0
-1979 -2044 0
-1979 -2045 0
-1979 -2046 0
-1979 -2047 0
-1979 -2048 0
-1979 -2049 0
-1979 -2050 0
-1979 -2051 0
-1980 -1981 0
-1980 -1982 0
-1980 -1983 0
-1980 -1984 0
-1980 -1985 0
-1980 -1986 0
-1980 -1987 0
-1980 -1988 0
-1980 -1989 0
-1980 -1990 0
-1980 -1991 0
-1980 -1992 0
-1980 -1993 0
-1980 -1994 0
-1980 -1995 0
-1980 -1996 0
-1980 -1997 0
-1980 -1998 0
-1980 -1999 0
-1980 -2000 0
-1980 -2001 0
-1980 -2002 0
-1980 -2003 0
-1980 -2004 0
-1980 -2005 0
-1980 -2006 0
-1980 -2007 0
-1980 -2008 0
-1980 -2009 0
-1980 -2010 0
-1980 -2011 0
-1980 -2012 0
-1980 -2013 0
-1980 -2014 0
-1980 -2015 0
-1980 -2016 0
-1980 -2017 0
-1980 -2018 0
-1980 -2019 0
-1980 -2020 0
-1980 -2021 0
-1980 -2022 0
-1980 -2023 0
-1980 -2024 0
-1980 -2025 0
-1980 -2026 0
-1980 -2027 0
-1980 -2028 0
-1980 -2029 0
-1980 -2030 0
-1980 -2031 0
-1980 -2032 0
-1980 -2033 0
-1980 -2034 0
-1980 -2035 0
-1980 -2036 0
-1980 -2037 0
-1980 -2038 0
-1980 -2039 0
-1980 -2040 0
-1980 -2041 0
-1980 -2042 0
-1980 -2043 0
-1980 -2044 0
-1980 -2045 0
-1980 -2046 0
-1980 -2047 0
-1980 -2048 0
-1980 -2049 0
-1980 -2050 0
-1980 -2051 0
-1981 -1982 0
-1981 -1983 0
-1981 -1984 0
-1981 -1985 0
-1981 -1986 0
-1981 -1987 0
-1981 -1988 0
-1981 -1989 0
-1981 -1990 0
-1981 -1991 0
-1981 -1992 0
-1981 -1993 0
-1981 -1994 0
-1981 -1995 0
-1981 -1996 0
-1981 -1997 0
-1981 -1998 0
-1981 -1999 0
-1981 -2000 0
-1981 -2001 0
-1981 -2002 0
-1981 -2003 0
-1981 -2004 0
-1981 -2005 0
-1981 -2006 0
-1981 -2007 0
-1981 -2008 0
-1981 -2009 0
-1981 -2010 0
-1981 -2011 0
-1981 -2012 0
-1981 -2013 0
-1981 -2014 0
-1981 -2015 0
-1981 -2016 0
-1981 -2017 0
-1981 -2018 0
-1981 -2019 0
-1981 -2020 0
-1981 -2021 0
-1981 -2022 0
-1981 -2023 0
-1981 -2024 0
-1981 -2025 0
-1981 -2026 0
-1981 -2027 0
-1981 -2028 0
-1981 -2029 0
-1981 -2030 0
-1981 -2031 0
-1981 -2032 0
-1981 -2033 0
-1981 -2034 0
-1981 -2035 0
-1981 -2036 0
-1981 -2037 0
-1981 -2038 0
-1981 -2039 0
-1981 -2040 0
-1981 -2041 0
-1981 -2042 0
-1981 -2043 0
-1981 -2044 0
-1981 -2045 0
-1981 -2046 0
-1981 -2047 0
-1981 -2048 0
-1981 -2049 0
-1981 -2050 0
-1981 -2051 0
-1982 -1983 0
-1982 -1984 0
-1982 -1985 0
-1982 -1986 0
-1982 -1987 0
-1982 -1988 0
-1982 -1989 0
-1982 -1990 0
-1982 -1991 0
-1982 -1992 0
-1982 -1993 0
-1982 -1994 0
-1982 -1995 0
-1982 -1996 0
-1982 -1997 0
-1982 -1998 0
-1982 -1999 0
-1982 -2000 0
-1982 -2001 0
-1982 -2002 0
-1982 -2003 0
-1982 -2004 0
-1982 -2005 0
-1982 -2006 0
-1982 -2007 0
-1982 -2008 0
-1982 -2009 0
-1982 -2010 0
-1982 -2011 0
-1982 -2012 0
-1982 -2013 0
-1982 -2014 0
-1982 -2015 0
-1982 -2016 0
-1982 -2017 0
-1982 -2018 0
-1982 -2019 0
-1982 -2020 0
-1982 -2021 0
-1982 -2022 0
-1982 -2023 0
-1982 -2024 0
-1982 -2025 0
-1982 -2026 0
-1982 -2027 0
-1982 -2028 0
-1982 -2029 0
-1982 -2030 0
-1982 -2031 0
-1982 -2032 0
-1982 -2033 0
-1982 -2034 0
-1982 -2035 0
-1982 -2036 0
-1982 -2037 0
-1982 -2038 0
-1982 -2039 0
-1982 -2040 0
-1982 -2041 0
-1982 -2042 0
-1982 -2043 0
-1982 -2044 0
-1982 -2045 0
-1982 -2046 0
-1982 -2047 0
-1982 -2048 0
-1982 -2049 0
-1982 -2050 0
-1982 -2051 0
-1983 -1984 0
-1983 -1985 0
-1983 -1986 0
-1983 -1987 0
-1983 -1988 0
-1983 -1989 0
-1983 -1990 0
-1983 -1991 0
-1983 -1992 0
-1983 -1993 0
-1983 -1994 0
-1983 -1995 0
-1983 -1996 0
-1983 -1997 0
-1983 -1998 0
-1983 -1999 0
-1983 -2000 0
-1983 -2001 0
-1983 -2002 0
-1983 -2003 0
-1983 -2004 0
-1983 -2005 0
-1983 -2006 0
-1983 -2007 0
-1983 -2008 0
-1983 -2009 0
-1983 -2010 0
-1983 -2011 0
-1983 -2012 0
-1983 -2013 0
-1983 -2014 0
-1983 -2015 0
-1983 -2016 0
-1983 -2017 0
-1983 -2018 0
-1983 -2019 0
-1983 -2020 0
-1983 -2021 0
-1983 -2022 0
-1983 -2023 0
-1983 -2024 0
-1983 -2025 0
-1983 -2026 0
-1983 -2027 0
-1983 -2028 0
-1983 -2029 0
-1983 -2030 0
-1983 -2031 0
-1983 -2032 0
-1983 -2033 0
-1983 -2034 0
-1983 -2035 0
-1983 -2036 0
-1983 -2037 0
-1983 -2038 0
-1983 -2039 0
-1983 -2040 0
-1983 -2041 0
-1983 -2042 0
-1983 -2043 0
-1983 -2044 0
-1983 -2045 0
-1983 -2046 0
-1983 -2047 0
-1983 -2048 0
-1983 -2049 0
-1983 -2050 0
-1983 -2051 0
-1984 -1985 0
-1984 -1986 0
-1984 -1987 0
-1984 -1988 0
-1984 -1989 0
-1984 -1990 0
-1984 -1991 0
-1984 -1992 0
-1984 -1993 0
-1984 -1994 0
-1984 -1995 0
-1984 -1996 0
-1984 -1997 0
-1984 -1998 0
-1984 -1999 0
-1984 -2000 0
-1984 -2001 0
-1984 -2002 0
-1984 -2003 0
-1984 -2004 0
-1984 -2005 0
-1984 -2006 0
-1984 -2007 0
-1984 -2008 0
-1984 -2009 0
-1984 -2010 0
-1984 -2011 0
-1984 -2012 0
-1984 -2013 0
-1984 -2014 0
-1984 -2015 0
-1984 -2016 0
-1984 -2017 0
-1984 -2018 0
-1984 -2019 0
-1984 -2020 0
-1984 -2021 0
-1984 -2022 0
-1984 -2023 0
-1984 -2024 0
-1984 -2025 0
-1984 -2026 0
-1984 -2027 0
-1984 -2028 0
-1984 -2029 0
-1984 -2030 0
-1984 -2031 0
-1984 -2032 0
-1984 -2033 0
-1984 -2034 0
-1984 -2035 0
-1984 -2036 0
-1984 -2037 0
-1984 -2038 0
-1984 -2039 0
-1984 -2040 0
-1984 -2041 0
-1984 -2042 0
-1984 -2043 0
-1984 -2044 0
-1984 -2045 0
-1984 -2046 0
-1984 -2047 0
-1984 -2048 0
-1984 -2049 0
-1984 -2050 0
-1984 -2051 0
-1985 -1986 0
-1985 -1987 0
-1985 -1988 0
-1985 -1989 0
-1985 -1990 0
-1985 -1991 0
-1985 -1992 0
-1985 -1993 0
-1985 -1994 0
-1985 -1995 0
-1985 -1996 0
-1985 -1997 0
-1985 -1998 0
-1985 -1999 0
-1985 -2000 0
-1985 -2001 0
-1985 -2002 0
-1985 -2003 0
-1985 -2004 0
-1985 -2005 0
-1985 -2006 0
-1985 -2007 0
-1985 -2008 0
-1985 -2009 0
-1985 -2010 0
-1985 -2011 0
-1985 -2012 0
-1985 -2013 0
-1985 -2014 0
-1985 -2015 0
-1985 -2016 0
-1985 -2017 0
-1985 -2018 0
-1985 -2019 0
-1985 -2020 0
-1985 -2021 0
-1985 -2022 0
-1985 -2023 0
-1985 -2024 0
-1985 -2025 0
-1985 -2026 0
-1985 -2027 0
-1985 -2028 0
-1985 -2029 0
-1985 -2030 0
-1985 -2031 0
-1985 -2032 0
-1985 -2033 0
-1985 -2034 0
-1985 -2035 0
-1985 -2036 0
-1985 -2037 0
-1985 -2038 0
-1985 -2039 0
-1985 -2040 0
-1985 -2041 0
-1985 -2042 0
-1985 -2043 0
-1985 -2044 0
-1985 -2045 0
-1985 -2046 0
-1985 -2047 0
-1985 -2048 0
-1985 -2049 0
-1985 -2050 0
-1985 -2051 0
-1986 -1987 0
-1986 -1988 0
-1986 -1989 0
-1986 -1990 0
-1986 -1991 0
-1986 -1992 0
-1986 -1993 0
-1986 -1994 0
-1986 -1995 0
-1986 -1996 0
-1986 -1997 0
-1986 -1998 0
-1986 -1999 0
-1986 -2000 0
-1986 -2001 0
-1986 -2002 0
-1986 -2003 0
-1986 -2004 0
-1986 -2005 0
-1986 -2006 0
-1986 -2007 0
-1986 -2008 0
-1986 -2009 0
-1986 -2010 0
-1986 -2011 0
-1986 -2012 0
-1986 -2013 0
-1986 -2014 0
-1986 -2015 0
-1986 -2016 0
-1986 -2017 0
-1986 -2018 0
-1986 -2019 0
-1986 -2020 0
-1986 -2021 0
-1986 -2022 0
-1986 -2023 0
-1986 -2024 0
-1986 -2025 0
-1986 -2026 0
-1986 -2027 0
-1986 -2028 0
-1986 -2029 0
-1986 -2030 0
-1986 -2031 0
-1986 -2032 0
-1986 -2033 0
-1986 -2034 0
-1986 -2035 0
-1986 -2036 0
-1986 -2037 0
-1986 -2038 0
-1986 -2039 0
-1986 -2040 0
-1986 -2041 0
-1986 -2042 0
-1986 -2043 0
-1986 -2044 0
-1986 -2045 0
-1986 -2046 0
-1986 -2047 0
-1986 -2048 0
-1986 -2049 0
-1986 -2050 0
-1986 -2051 0
-1987 -1988 0
-1987 -1989 0
-1987 -1990 0
-1987 -1991 0
-1987 -1992 0
-1987 -1993 0
-1987 -1994 0
-1987 -1995 0
-1987 -1996 0
-1987 -1997 0
-1987 -1998 0
-1987 -1999 0
-1987 -2000 0
-1987 -2001 0
-1987 -2002 0
-1987 -2003 0
-1987 -2004 0
-1987 -2005 0
-1987 -2006 0
-1987 -2007 0
-1987 -2008 0
-1987 -2009 0
-1987 -2010 0
-1987 -2011 0
-1987 -2012 0
-1987 -2013 0
-1987 -2014 0
-1987 -2015 0
-1987 -2016 0
-1987 -2017 0
-1987 -2018 0
-1987 -2019 0
-1987 -2020 0
-1987 -2021 0
-1987 -2022 0
-1987 -2023 0
-1987 -2024 0
-1987 -2025 0
-1987 -2026 0
-1987 -2027 0
-1987 -2028 0
-1987 -2029 0
-1987 -2030 0
-1987 -2031 0
-1987 -2032 0
-1987 -2033 0
-1987 -2034 0
-1987 -2035 0
-1987 -2036 0
-1987 -2037 0
-1987 -2038 0
-1987 -2039 0
-1987 -2040 0
-1987 -2041 0
-1987 -2042 0
-1987 -2043 0
-1987 -2044 0
-1987 -2045 0
-1987 -2046 0
-1987 -2047 0
-1987 -2048 0
-1987 -2049 0
-1987 -2050 0
-1987 -2051 0
-1988 -1989 0
-1988 -1990 0
-1988 -1991 0
-1988 -1992 0
-1988 -1993 0
-1988 -1994 0
-1988 -1995 0
-1988 -1996 0
-1988 -1997 0
-1988 -1998 0
-1988 -1999 0
-1988 -2000 0
-1988 -2001 0
-1988 -2002 0
-1988 -2003 0
-1988 -2004 0
-1988 -2005 0
-1988 -2006 0
-1988 -2007 0
-1988 -2008 0
-1988 -2009 0
-1988 -2010 0
-1988 -2011 0
-1988 -2012 0
-1988 -2013 0
-1988 -2014 0
-1988 -2015 0
-1988 -2016 0
-1988 -2017 0
-1988 -2018 0
-1988 -2019 0
-1988 -2020 0
-1988 -2021 0
-1988 -2022 0
-1988 -2023 0
-1988 -2024 0
-1988 -2025 0
-1988 -2026 0
-1988 -2027 0
-1988 -2028 0
-1988 -2029 0
-1988 -2030 0
-1988 -2031 0
-1988 -2032 0
-1988 -2033 0
-1988 -2034 0
-1988 -2035 0
-1988 -2036 0
-1988 -2037 0
-1988 -2038 0
-1988 -2039 0
-1988 -2040 0
-1988 -2041 0
-1988 -2042 0
-1988 -2043 0
-1988 -2044 0
-1988 -2045 0
-1988 -2046 0
-1988 -2047 0
-1988 -2048 0
-1988 -2049 0
-1988 -2050 0
-1988 -2051 0
-1989 -1990 0
-1989 -1991 0
-1989 -1992 0
-1989 -1993 0
-1989 -1994 0
-1989 -1995 0
-1989 -1996 0
-1989 -1997 0
-1989 -1998 0
-1989 -1999 0
-1989 -2000 0
-1989 -2001 0
-1989 -2002 0
-1989 -2003 0
-1989 -2004 0
-1989 -2005 0
-1989 -2006 0
-1989 -2007 0
-1989 -2008 0
-1989 -2009 0
-1989 -2010 0
-1989 -2011 0
-1989 -2012 0
-1989 -2013 0
-1989 -2014 0
-1989 -2015 0
-1989 -2016 0
-1989 -2017 0
-1989 -2018 0
-1989 -2019 0
-1989 -2020 0
-1989 -2021 0
-1989 -2022 0
-1989 -2023 0
-1989 -2024 0
-1989 -2025 0
-1989 -2026 0
-1989 -2027 0
-1989 -2028 0
-1989 -2029 0
-1989 -2030 0
-1989 -2031 0
-1989 -2032 0
-1989 -2033 0
-1989 -2034 0
-1989 -2035 0
-1989 -2036 0
-1989 -2037 0
-1989 -2038 0
-1989 -2039 0
-1989 -2040 0
-1989 -2041 0
-1989 -2042 0
-1989 -2043 0
-1989 -2044 0
-1989 -2045 0
-1989 -2046 0
-1989 -2047 0
-1989 -2048 0
-1989 -2049 0
-1989 -2050 0
-1989 -2051 0
-1990 -1991 0
-1990 -1992 0
-1990 -1993 0
-1990 -1994 0
-1990 -1995 0
-1990 -1996 0
-1990 -1997 0
-1990 -1998 0
-1990 -1999 0
-1990 -2000 0
-1990 -2001 0
-1990 -2002 0
-1990 -2003 0
-1990 -2004 0
-1990 -2005 0
-1990 -2006 0
-1990 -2007 0
-1990 -2008 0
-1990 -2009 0
-1990 -2010 0
-1990 -2011 0
-1990 -2012 0
-1990 -2013 0
-1990 -2014 0
-1990 -2015 0
-1990 -2016 0
-1990 -2017 0
-1990 -2018 0
-1990 -2019 0
-1990 -2020 0
-1990 -2021 0
-1990 -2022 0
-1990 -2023 0
-1990 -2024 0
-1990 -2025 0
-1990 -2026 0
-1990 -2027 0
-1990 -2028 0
-1990 -2029 0
-1990 -2030 0
-1990 -2031 0
-1990 -2032 0
-1990 -2033 0
-1990 -2034 0
-1990 -2035 0
-1990 -2036 0
-1990 -2037 0
-1990 -2038 0
-1990 -2039 0
-1990 -2040 0
-1990 -2041 0
-1990 -2042 0
-1990 -2043 0
-1990 -2044 0
-1990 -2045 0
-1990 -2046 0
-1990 -2047 0
-1990 -2048 0
-1990 -2049 0
-1990 -2050 0
-1990 -2051 0
-1991 -1992 0
-1991 -1993 0
-1991 -1994 0
-1991 -1995 0
-1991 -1996 0
-1991 -1997 0
-1991 -1998 0
-1991 -1999 0
-1991 -2000 0
-1991 -2001 0
-1991 -2002 0
-1991 -2003 0
-1991 -2004 0
-1991 -2005 0
-1991 -2006 0
-1991 -2007 0
-1991 -2008 0
-1991 -2009 0
-1991 -2010 0
-1991 -2011 0
-1991 -2012 0
-1991 -2013 0
-1991 -2014 0
-1991 -2015 0
-1991 -2016 0
-1991 -2017 0
-1991 -2018 0
-1991 -2019 0
-1991 -2020 0
-1991 -2021 0
-1991 -2022 0
-1991 -2023 0
-1991 -2024 0
-1991 -2025 0
-1991 -2026 0
-1991 -2027 0
-1991 -2028 0
-1991 -2029 0
-1991 -2030 0
-1991 -2031 0
-1991 -2032 0
-1991 -2033 0
-1991 -2034 0
-1991 -2035 0
-1991 -2036 0
-1991 -2037 0
-1991 -2038 0
-1991 -2039 0
-1991 -2040 0
-1991 -2041 0
-1991 -2042 0
-1991 -2043 0
-1991 -2044 0
-1991 -2045 0
-1991 -2046 0
-1991 -2047 0
-1991 -2048 0
-1991 -2049 0
-1991 -2050 0
-1991 -2051 0
-1992 -1993 0
-1992 -1994 0
-1992 -1995 0
-1992 -1996 0
-1992 -1997 0
-1992 -1998 0
-1992 -1999 0
-1992 -2000 0
-1992 -2001 0
-1992 -2002 0
-1992 -2003 0
-1992 -2004 0
-1992 -2005 0
-1992 -2006 0
-1992 -2007 0
-1992 -2008 0
-1992 -2009 0
-1992 -2010 0
-1992 -2011 0
-1992 -2012 0
-1992 -2013 0
-1992 -2014 0
-1992 -2015 0
-1992 -2016 0
-1992 -2017 0
-1992 -2018 0
-1992 -2019 0
-1992 -2020 0
-1992 -2021 0
-1992 -2022 0
-1992 -2023 0
-1992 -2024 0
-1992 -2025 0
-1992 -2026 0
-1992 -2027 0
-1992 -2028 0
-1992 -2029 0
-1992 -2030 0
-1992 -2031 0
-1992 -2032 0
-1992 -2033 0
-1992 -2034 0
-1992 -2035 0
-1992 -2036 0
-1992 -2037 0
-1992 -2038 0
-1992 -2039 0
-1992 -2040 0
-1992 -2041 0
-1992 -2042 0
-1992 -2043 0
-1992 -2044 0
-1992 -2045 0
-1992 -2046 0
-1992 -2047 0
-1992 -2048 0
-1992 -2049 0
-1992 -2050 0
-1992 -2051 0
-1993 -1994 0
-1993 -1995 0
-1993 -1996 0
-1993 -1997 0
-1993 -1998 0
-1993 -1999 0
-1993 -2000 0
-1993 -2001 0
-1993 -2002 0
-1993 -2003 0
-1993 -2004 0
-1993 -2005 0
-1993 -2006 0
-1993 -2007 0
-1993 -2008 0
-1993 -2009 0
-1993 -2010 0
-1993 -2011 0
-1993 -2012 0
-1993 -2013 0
-1993 -2014 0
-1993 -2015 0
-1993 -2016 0
-1993 -2017 0
-1993 -2018 0
-1993 -2019 0
-1993 -2020 0
-1993 -2021 0
-1993 -2022 0
-1993 -2023 0
-1993 -2024 0
-1993 -2025 0
-1993 -2026 0
-1993 -2027 0
-1993 -2028 0
-1993 -2029 0
-1993 -2030 0
-1993 -2031 0
-1993 -2032 0
-1993 -2033 0
-1993 -2034 0
-1993 -2035 0
-1993 -2036 0
-1993 -2037 0
-1993 -2038 0
-1993 -2039 0
-1993 -2040 0
-1993 -2041 0
-1993 -2042 0
-1993 -2043 0
-1993 -2044 0
-1993 -2045 0
-1993 -2046 0
-1993 -2047 0
-1993 -2048 0
-1993 -2049 0
-1993 -2050 0
-1993 -2051 0
-1994 -1995 0
-1994 -1996 0
-1994 -1997 0
-1994 -1998 0
-1994 -1999 0
-1994 -2000 0
-1994 -2001 0
-1994 -2002 0
-1994 -2003 0
-1994 -2004 0
-1994 -2005 0
-1994 -2006 0
-1994 -2007 0
-1994 -2008 0
-1994 -2009 0
-1994 -2010 0
-1994 -2011 0
-1994 -2012 0
-1994 -2013 0
-1994 -2014 0
-1994 -2015 0
-1994 -2016 0
-1994 -2017 0
-1994 -2018 0
-1994 -2019 0
-1994 -2020 0
-1994 -2021 0
-1994 -2022 0
-1994 -2023 0
-1994 -2024 0
-1994 -2025 0
-1994 -2026 0
-1994 -2027 0
-1994 -2028 0
-1994 -2029 0
-1994 -2030 0
-1994 -2031 0
-1994 -2032 0
-1994 -2033 0
-1994 -2034 0
-1994 -2035 0
-1994 -2036 0
-1994 -2037 0
-1994 -2038 0
-1994 -2039 0
-1994 -2040 0
-1994 -2041 0
-1994 -2042 0
-1994 -2043 0
-1994 -2044 0
-1994 -2045 0
-1994 -2046 0
-1994 -2047 0
-1994 -2048 0
-1994 -2049 0
-1994 -2050 0
-1994 -2051 0
-1995 -1996 0
-1995 -1997 0
-1995 -1998 0
-1995 -1999 0
-1995 -2000 0
-1995 -2001 0
-1995 -2002 0
-1995 -2003 0
-1995 -2004 0
-1995 -2005 0
-1995 -2006 0
-1995 -2007 0
-1995 -2008 0
-1995 -2009 0
-1995 -2010 0
-1995 -2011 0
-1995 -2012 0
-1995 -2013 0
-1995 -2014 0
-1995 -2015 0
-1995 -2016 0
-1995 -2017 0
-1995 -2018 0
-1995 -2019 0
-1995 -2020 0
-1995 -2021 0
-1995 -2022 0
-1995 -2023 0
-1995 -2024 0
-1995 -2025 0
-1995 -2026 0
-1995 -2027 0
-1995 -2028 0
-1995 -2029 0
-1995 -2030 0
-1995 -2031 0
-1995 -2032 0
-1995 -2033 0
-1995 -2034 0
-1995 -2035 0
-1995 -2036 0
-1995 -2037 0
-1995 -2038 0
-1995 -2039 0
-1995 -2040 0
-1995 -2041 0
-1995 -2042 0
-1995 -2043 0
-1995 -2044 0
-1995 -2045 0
-1995 -2046 0
-1995 -2047 0
-1995 -2048 0
-1995 -2049 0
-1995 -2050 0
-1995 -2051 0
-1996 -1997 0
-1996 -1998 0
-1996 -1999 0
-1996 -2000 0
-1996 -2001 0
-1996 -2002 0
-1996 -2003 0
-1996 -2004 0
-1996 -2005 0
-1996 -2006 0
-1996 -2007 0
-1996 -2008 0
-1996 -2009 0
-1996 -2010 0
-1996 -2011 0
-1996 -2012 0
-1996 -2013 0
-1996 -2014 0
-1996 -2015 0
-1996 -2016 0
-1996 -2017 0
-1996 -2018 0
-1996 -2019 0
-1996 -2020 0
-1996 -2021 0
-1996 -2022 0
-1996 -2023 0
-1996 -2024 0
-1996 -2025 0
-1996 -2026 0
-1996 -2027 0
-1996 -2028 0
-1996 -2029 0
-1996 -2030 0
-1996 -2031 0
-1996 -2032 0
-1996 -2033 0
-1996 -2034 0
-1996 -2035 0
-1996 -2036 0
-1996 -2037 0
-1996 -2038 0
-1996 -2039 0
-1996 -2040 0
-1996 -2041 0
-1996 -2042 0
-1996 -2043 0
-1996 -2044 0
-1996 -2045 0
-1996 -2046 0
-1996 -2047 0
-1996 -2048 0
-1996 -2049 0
-1996 -2050 0
-1996 -2051 0
-1997 -1998 0
-1997 -1999 0
-1997 -2000 0
-1997 -2001 0
-1997 -2002 0
-1997 -2003 0
-1997 -2004 0
-1997 -2005 0
-1997 -2006 0
-1997 -2007 0
-1997 -2008 0
-1997 -2009 0
-1997 -2010 0
-1997 -2011 0
-1997 -2012 0
-1997 -2013 0
-1997 -2014 0
-1997 -2015 0
-1997 -2016 0
-1997 -2017 0
-1997 -2018 0
-1997 -2019 0
-1997 -2020 0
-1997 -2021 0
-1997 -2022 0
-1997 -2023 0
-1997 -2024 0
-1997 -2025 0
-1997 -2026 0
-1997 -2027 0
-1997 -2028 0
-1997 -2029 0
-1997 -2030 0
-1997 -2031 0
-1997 -2032 0
-1997 -2033 0
-1997 -2034 0
-1997 -2035 0
-1997 -2036 0
-1997 -2037 0
-1997 -2038 0
-1997 -2039 0
-1997 -2040 0
-1997 -2041 0
-1997 -2042 0
-1997 -2043 0
-1997 -2044 0
-1997 -2045 0
-1997 -2046 0
-1997 -2047 0
-1997 -2048 0
-1997 -2049 0
-1997 -2050 0
-1997 -2051 0
-1998 -1999 0
-1998 -2000 0
-1998 -2001 0
-1998 -2002 0
-1998 -2003 0
-1998 -2004 0
-1998 -2005 0
-1998 -2006 0
-1998 -2007 0
-1998 -2008 0
-1998 -2009 0
-1998 -2010 0
-1998 -2011 0
-1998 -2012 0
-1998 -2013 0
-1998 -2014 0
-1998 -2015 0
-1998 -2016 0
-1998 -2017 0
-1998 -2018 0
-1998 -2019 0
-1998 -2020 0
-1998 -2021 0
-1998 -2022 0
-1998 -2023 0
-1998 -2024 0
-1998 -2025 0
-1998 -2026 0
-1998 -2027 0
-1998 -2028 0
-1998 -2029 0
-1998 -2030 0
-1998 -2031 0
-1998 -2032 0
-1998 -2033 0
-1998 -2034 0
-1998 -2035 0
-1998 -2036 0
-1998 -2037 0
-1998 -2038 0
-1998 -2039 0
-1998 -2040 0
-1998 -2041 0
-1998 -2042 0
-1998 -2043 0
-1998 -2044 0
-1998 -2045 0
-1998 -2046 0
-1998 -2047 0
-1998 -2048 0
-1998 -2049 0
-1998 -2050 0
-1998 -2051 0
-1999 -2000 0
-1999 -2001 0
-1999 -2002 0
-1999 -2003 0
-1999 -2004 0
-1999 -2005 0
-1999 -2006 0
-1999 -2007 0
-1999 -2008 0
-1999 -2009 0
-1999 -2010 0
-1999 -2011 0
-1999 -2012 0
-1999 -2013 0
-1999 -2014 0
-1999 -2015 0
-1999 -2016 0
-1999 -2017 0
-1999 -2018 0
-1999 -2019 0
-1999 -2020 0
-1999 -2021 0
-1999 -2022 0
-1999 -2023 0
-1999 -2024 0
-1999 -2025 0
-1999 -2026 0
-1999 -2027 0
-1999 -2028 0
-1999 -2029 0
-1999 -2030 0
-1999 -2031 0
-1999 -2032 0
-1999 -2033 0
-1999 -2034 0
-1999 -2035 0
-1999 -2036 0
-1999 -2037 0
-1999 -2038 0
-1999 -2039 0
-1999 -2040 0
-1999 -2041 0
-1999 -2042 0
-1999 -2043 0
-1999 -2044 0
-1999 -2045 0
-1999 -2046 0
-1999 -2047 0
-1999 -2048 0
-1999 -2049 0
-1999 -2050 0
-1999 -2051 0
-2000 -2001 0
-2000 -2002 0
-2000 -2003 0
-2000 -2004 0
-2000 -2005 0
-2000 -2006 0
-2000 -2007 0
-2000 -2008 0
-2000 -2009 0
-2000 -2010 0
-2000 -2011 0
-2000 -2012 0
-2000 -2013 0
-2000 -2014 0
-2000 -2015 0
-2000 -2016 0
-2000 -2017 0
-2000 -2018 0
-2000 -2019 0
-2000 -2020 0
-2000 -2021 0
-2000 -2022 0
-2000 -2023 0
-2000 -2024 0
-2000 -2025 0
-2000 -2026 0
-2000 -2027 0
-2000 -2028 0
-2000 -2029 0
-2000 -2030 0
-2000 -2031 0
-2000 -2032 0
-2000 -2033 0
-2000 -2034 0
-2000 -2035 0
-2000 -2036 0
-2000 -2037 0
-2000 -2038 0
-2000 -2039 0
-2000 -2040 0
-2000 -2041 0
-2000 -2042 0
-2000 -2043 0
-2000 -2044 0
-2000 -2045 0
-2000 -2046 0
-2000 -2047 0
-2000 -2048 0
-2000 -2049 0
-2000 -2050 0
-2000 -2051 0
-2001 -2002 0
-2001 -2003 0
-2001 -2004 0
-2001 -2005 0
-2001 -2006 0
-2001 -2007 0
-2001 -2008 0
-2001 -2009 0
-2001 -2010 0
-2001 -2011 0
-2001 -2012 0
-2001 -2013 0
-2001 -2014 0
-2001 -2015 0
-2001 -2016 0
-2001 -2017 0
-2001 -2018 0
-2001 -2019 0
-2001 -2020 0
-2001 -2021 0
-2001 -2022 0
-2001 -2023 0
-2001 -2024 0
-2001 -2025 0
-2001 -2026 0
-2001 -2027 0
-2001 -2028 0
-2001 -2029 0
-2001 -2030 0
-2001 -2031 0
-2001 -2032 0
-2001 -2033 0
-2001 -2034 0
-2001 -2035 0
-2001 -2036 0
-2001 -2037 0
-2001 -2038 0
-2001 -2039 0
-2001 -2040 0
-2001 -2041 0
-2001 -2042 0
-2001 -2043 0
-2001 -2044 0
-2001 -2045 0
-2001 -2046 0
-2001 -2047 0
-2001 -2048 0
-2001 -2049 0
-2001 -2050 0
-2001 -2051 0
-2002 -2003 0
-2002 -2004 0
-2002 -2005 0
-2002 -2006 0
-2002 -2007 0
-2002 -2008 0
-2002 -2009 0
-2002 -2010 0
-2002 -2011 0
-2002 -2012 0
-2002 -2013 0
-2002 -2014 0
-2002 -2015 0
-2002 -2016 0
-2002 -2017 0
-2002 -2018 0
-2002 -2019 0
-2002 -2020 0
-2002 -2021 0
-2002 -2022 0
-2002 -2023 0
-2002 -2024 0
-2002 -2025 0
-2002 -2026 0
-2002 -2027 0
-2002 -2028 0
-2002 -2029 0
-2002 -2030 0
-2002 -2031 0
-2002 -2032 0
-2002 -2033 0
-2002 -2034 0
-2002 -2035 0
-2002 -2036 0
-2002 -2037 0
-2002 -2038 0
-2002 -2039 0
-2002 -2040 0
-2002 -2041 0
-2002 -2042 0
-2002 -2043 0
-2002 -2044 0
-2002 -2045 0
-2002 -2046 0
-2002 -2047 0
-2002 -2048 0
-2002 -2049 0
-2002 -2050 0
-2002 -2051 0
-2003 -2004 0
-2003 -2005 0
-2003 -2006 0
-2003 -2007 0
-2003 -2008 0
-2003 -2009 0
-2003 -2010 0
-2003 -2011 0
-2003 -2012 0
-2003 -2013 0
-2003 -2014 0
-2003 -2015 0
-2003 -2016 0
-2003 -2017 0
-2003 -2018 0
-2003 -2019 0
-2003 -2020 0
-2003 -2021 0
-2003 -2022 0
-2003 -2023 0
-2003 -2024 0
-2003 -2025 0
-2003 -2026 0
-2003 -2027 0
-2003 -2028 0
-2003 -2029 0
-2003 -2030 0
-2003 -2031 0
-2003 -2032 0
-2003 -2033 0
-2003 -2034 0
-2003 -2035 0
-2003 -2036 0
-2003 -2037 0
-2003 -2038 0
-2003 -2039 0
-2003 -2040 0
-2003 -2041 0
-2003 -2042 0
-2003 -2043 0
-2003 -2044 0
-2003 -2045 0
-2003 -2046 0
-2003 -2047 0
-2003 -2048 0
-2003 -2049 0
-2003 -2050 0
-2003 -2051 0
-2004 -2005 0
-2004 -2006 0
-2004 -2007 0
-2004 -2008 0
-2004 -2009 0
-2004 -2010 0
-2004 -2011 0
-2004 -2012 0
-2004 -2013 0
-2004 -2014 0
-2004 -2015 0
-2004 -2016 0
-2004 -2017 0
-2004 -2018 0
-2004 -2019 0
-2004 -2020 0
-2004 -2021 0
-2004 -2022 0
-2004 -2023 0
-2004 -2024 0
-2004 -2025 0
-2004 -2026 0
-2004 -2027 0
-2004 -2028 0
-2004 -2029 0
-2004 -2030 0
-2004 -2031 0
-2004 -2032 0
-2004 -2033 0
-2004 -2034 0
-2004 -2035 0
-2004 -2036 0
-2004 -2037 0
-2004 -2038 0
-2004 -2039 0
-2004 -2040 0
-2004 -2041 0
-2004 -2042 0
-2004 -2043 0
-2004 -2044 0
-2004 -2045 0
-2004 -2046 0
-2004 -2047 0
-2004 -2048 0
-2004 -2049 0
-2004 -2050 0
-2004 -2051 0
-2005 -2006 0
-2005 -2007 0
-2005 -2008 0
-2005 -2009 0
-2005 -2010 0
-2005 -2011 0
-2005 -2012 0
-2005 -2013 0
-2005 -2014 0
-2005 -2015 0
-2005 -2016 0
-2005 -2017 0
-2005 -2018 0
-2005 -2019 0
-2005 -2020 0
-2005 -2021 0
-2005 -2022 0
-2005 -2023 0
-2005 -2024 0
-2005 -2025 0
-2005 -2026 0
-2005 -2027 0
-2005 -2028 0
-2005 -2029 0
-2005 -2030 0
-2005 -2031 0
-2005 -2032 0
-2005 -2033 0
-2005 -2034 0
-2005 -2035 0
-2005 -2036 0
-2005 -2037 0
-2005 -2038 0
-2005 -2039 0
-2005 -2040 0
-2005 -2041 0
-2005 -2042 0
-2005 -2043 0
-2005 -2044 0
-2005 -2045 0
-2005 -2046 0
-2005 -2047 0
-2005 -2048 0
-2005 -2049 0
-2005 -2050 0
-2005 -2051 0
-2006 -2007 0
-2006 -2008 0
-2006 -2009 0
-2006 -2010 0
-2006 -2011 0
-2006 -2012 0
-2006 -2013 0
-2006 -2014 0
-2006 -2015 0
-2006 -2016 0
-2006 -2017 0
-2006 -2018 0
-2006 -2019 0
-2006 -2020 0
-2006 -2021 0
-2006 -2022 0
-2006 -2023 0
-2006 -2024 0
-2006 -2025 0
-2006 -2026 0
-2006 -2027 0
-2006 -2028 0
-2006 -2029 0
-2006 -2030 0
-2006 -2031 0
-2006 -2032 0
-2006 -2033 0
-2006 -2034 0
-2006 -2035 0
-2006 -2036 0
-2006 -2037 0
-2006 -2038 0
-2006 -2039 0
-2006 -2040 0
-2006 -2041 0
-2006 -2042 0
-2006 -2043 0
-2006 -2044 0
-2006 -2045 0
-2006 -2046 0
-2006 -2047 0
-2006 -2048 0
-2006 -2049 0
-2006 -2050 0
-2006 -2051 0
-2007 -2008 0
-2007 -2009 0
-2007 -2010 0
-2007 -2011 0
-2007 -2012 0
-2007 -2013 0
-2007 -2014 0
-2007 -2015 0
-2007 -2016 0
-2007 -2017 0
-2007 -2018 0
-2007 -2019 0
-2007 -2020 0
-2007 -2021 0
-2007 -2022 0
-2007 -2023 0
-2007 -2024 0
-2007 -2025 0
-2007 -2026 0
-2007 -2027 0
-2007 -2028 0
-2007 -2029 0
-2007 -2030 0
-2007 -2031 0
-2007 -2032 0
-2007 -2033 0
-2007 -2034 0
-2007 -2035 0
-2007 -2036 0
-2007 -2037 0
-2007 -2038 0
-2007 -2039 0
-2007 -2040 0
-2007 -2041 0
-2007 -2042 0
-2007 -2043 0
-2007 -2044 0
-2007 -2045 0
-2007 -2046 0
-2007 -2047 0
-2007 -2048 0
-2007 -2049 0
-2007 -2050 0
-2007 -2051 0
-2008 -2009 0
-2008 -2010 0
-2008 -2011 0
-2008 -2012 0
-2008 -2013 0
-2008 -2014 0
-2008 -2015 0
-2008 -2016 0
-2008 -2017 0
-2008 -2018 0
-2008 -2019 0
-2008 -2020 0
-2008 -2021 0
-2008 -2022 0
-2008 -2023 0
-2008 -2024 0
-2008 -2025 0
-2008 -2026 0
-2008 -2027 0
-2008 -2028 0
-2008 -2029 0
-2008 -2030 0
-2008 -2031 0
-2008 -2032 0
-2008 -2033 0
-2008 -2034 0
-2008 -2035 0
-2008 -2036 0
-2008 -2037 0
-2008 -2038 0
-2008 -2039 0
-2008 -2040 0
-2008 -2041 0
-2008 -2042 0
-2008 -2043 0
-2008 -2044 0
-2008 -2045 0
-2008 -2046 0
-2008 -2047 0
-2008 -2048 0
-2008 -2049 0
-2008 -2050 0
-2008 -2051 0
-2009 -2010 0
-2009 -2011 0
-2009 -2012 0
-2009 -2013 0
-2009 -2014 0
-2009 -2015 0
-2009 -2016 0
-2009 -2017 0
-2009 -2018 0
-2009 -2019 0
-2009 -2020 0
-2009 -2021 0
-2009 -2022 0
-2009 -2023 0
-2009 -2024 0
-2009 -2025 0
-2009 -2026 0
-2009 -2027 0
-2009 -2028 0
-2009 -2029 0
-2009 -2030 0
-2009 -2031 0
-2009 -2032 0
-2009 -2033 0
-2009 -2034 0
-2009 -2035 0
-2009 -2036 0
-2009 -2037 0
-2009 -2038 0
-2009 -2039 0
-2009 -2040 0
-2009 -2041 0
-2009 -2042 0
-2009 -2043 0
-2009 -2044 0
-2009 -2045 0
-2009 -2046 0
-2009 -2047 0
-2009 -2048 0
-2009 -2049 0
-2009 -2050 0
-2009 -2051 0
-2010 -2011 0
-2010 -2012 0
-2010 -2013 0
-2010 -2014 0
-2010 -2015 0
-2010 -2016 0
-2010 -2017 0
-2010 -2018 0
-2010 -2019 0
-2010 -2020 0
-2010 -2021 0
-2010 -2022 0
-2010 -2023 0
-2010 -2024 0
-2010 -2025 0
-2010 -2026 0
-2010 -2027 0
-2010 -2028 0
-2010 -2029 0
-2010 -2030 0
-2010 -2031 0
-2010 -2032 0
-2010 -2033 0
-2010 -2034 0
-2010 -2035 0
-2010 -2036 0
-2010 -2037 0
-2010 -2038 0
-2010 -2039 0
-2010 -2040 0
-2010 -2041 0
-2010 -2042 0
-2010 -2043 0
-2010 -2044 0
-2010 -2045 0
-2010 -2046 0
-2010 -2047 0
-2010 -2048 0
-2010 -2049 0
-2010 -2050 0
-2010 -2051 0
-2011 -2012 0
-2011 -2013 0
-2011 -2014 0
-2011 -2015 0
-2011 -2016 0
-2011 -2017 0
-2011 -2018 0
-2011 -2019 0
-2011 -2020 0
-2011 -2021 0
-2011 -2022 0
-2011 -2023 0
-2011 -2024 0
-2011 -2025 0
-2011 -2026 0
-2011 -2027 0
-2011 -2028 0
-2011 -2029 0
-2011 -2030 0
-2011 -2031 0
-2011 -2032 0
-2011 -2033 0
-2011 -2034 0
-2011 -2035 0
-2011 -2036 0
-2011 -2037 0
-2011 -2038 0
-2011 -2039 0
-2011 -2040 0
-2011 -2041 0
-2011 -2042 0
-2011 -2043 0
-2011 -2044 0
-2011 -2045 0
-2011 -2046 0
-2011 -2047 0
-2011 -2048 0
-2011 -2049 0
-2011 -2050 0
-2011 -2051 0
-2012 -2013 0
-2012 -2014 0
-2012 -2015 0
-2012 -2016 0
-2012 -2017 0
-2012 -2018 0
-2012 -2019 0
-2012 -2020 0
-2012 -2021 0
-2012 -2022 0
-2012 -2023 0
-2012 -2024 0
-2012 -2025 0
-2012 -2026 0
-2012 -2027 0
-2012 -2028 0
-2012 -2029 0
-2012 -2030 0
-2012 -2031 0
-2012 -2032 0
-2012 -2033 0
-2012 -2034 0
-2012 -2035 0
-2012 -2036 0
-2012 -2037 0
-2012 -2038 0
-2012 -2039 0
-2012 -2040 0
-2012 -2041 0
-2012 -2042 0
-2012 -2043 0
-2012 -2044 0
-2012 -2045 0
-2012 -2046 0
-2012 -2047 0
-2012 -2048 0
-2012 -2049 0
-2012 -2050 0
-2012 -2051 0
-2013 -2014 0
-2013 -2015 0
-2013 -2016 0
-2013 -2017 0
-2013 -2018 0
-2013 -2019 0
-2013 -2020 0
-2013 -2021 0
-2013 -2022 0
-2013 -2023 0
-2013 -2024 0
-2013 -2025 0
-2013 -2026 0
-2013 -2027 0
-2013 -2028 0
-2013 -2029 0
-2013 -2030 0
-2013 -2031 0
-2013 -2032 0
-2013 -2033 0
-2013 -2034 0
-2013 -2035 0
-2013 -2036 0
-2013 -2037 0
-2013 -2038 0
-2013 -2039 0
-2013 -2040 0
-2013 -2041 0
-2013 -2042 0
-2013 -2043 0
-2013 -2044 0
-2013 -2045 0
-2013 -2046 0
-2013 -2047 0
-2013 -2048 0
-2013 -2049 0
-2013 -2050 0
-2013 -2051 0
-2014 -2015 0
-2014 -2016 0
-2014 -2017 0
-2014 -2018 0
-2014 -2019 0
-2014 -2020 0
-2014 -2021 0
-2014 -2022 0
-2014 -2023 0
-2014 -2024 0
-2014 -2025 0
-2014 -2026 0
-2014 -2027 0
-2014 -2028 0
-2014 -2029 0
-2014 -2030 0
-2014 -2031 0
-2014 -2032 0
-2014 -2033 0
-2014 -2034 0
-2014 -2035 0
-2014 -2036 0
-2014 -2037 0
-2014 -2038 0
-2014 -2039 0
-2014 -2040 0
-2014 -2041 0
-2014 -2042 0
-2014 -2043 0
-2014 -2044 0
-2014 -2045 0
-2014 -2046 0
-2014 -2047 0
-2014 -2048 0
-2014 -2049 0
-2014 -2050 0
-2014 -2051 0
-2015 -2016 0
-2015 -2017 0
-2015 -2018 0
-2015 -2019 0
-2015 -2020 0
-2015 -2021 0
-2015 -2022 0
-2015 -2023 0
-2015 -2024 0
-2015 -2025 0
-2015 -2026 0
-2015 -2027 0
-2015 -2028 0
-2015 -2029 0
-2015 -2030 0
-2015 -2031 0
-2015 -2032 0
-2015 -2033 0
-2015 -2034 0
-2015 -2035 0
-2015 -2036 0
-2015 -2037 0
-2015 -2038 0
-2015 -2039 0
-2015 -2040 0
-2015 -2041 0
-2015 -2042 0
-2015 -2043 0
-2015 -2044 0
-2015 -2045 0
-2015 -2046 0
-2015 -2047 0
-2015 -2048 0
-2015 -2049 0
-2015 -2050 0
-2015 -2051 0
-2016 -2017 0
-2016 -2018 0
-2016 -2019 0
-2016 -2020 0
-2016 -2021 0
-2016 -2022 0
-2016 -2023 0
-2016 -2024 0
-2016 -2025 0
-2016 -2026 0
-2016 -2027 0
-2016 -2028 0
-2016 -2029 0
-2016 -2030 0
-2016 -2031 0
-2016 -2032 0
-2016 -2033 0
-2016 -2034 0
-2016 -2035 0
-2016 -2036 0
-2016 -2037 0
-2016 -2038 0
-2016 -2039 0
-2016 -2040 0
-2016 -2041 0
-2016 -2042 0
-2016 -2043 0
-2016 -2044 0
-2016 -2045 0
-2016 -2046 0
-2016 -2047 0
-2016 -2048 0
-2016 -2049 0
-2016 -2050 0
-2016 -2051 0
-2017 -2018 0
-2017 -2019 0
-2017 -2020 0
-2017 -2021 0
-2017 -2022 0
-2017 -2023 0
-2017 -2024 0
-2017 -2025 0
-2017 -2026 0
-2017 -2027 0
-2017 -2028 0
-2017 -2029 0
-2017 -2030 0
-2017 -2031 0
-2017 -2032 0
-2017 -2033 0
-2017 -2034 0
-2017 -2035 0
-2017 -2036 0
-2017 -2037 0
-2017 -2038 0
-2017 -2039 0
-2017 -2040 0
-2017 -2041 0
-2017 -2042 0
-2017 -2043 0
-2017 -2044 0
-2017 -2045 0
-2017 -2046 0
-2017 -2047 0
-2017 -2048 0
-2017 -2049 0
-2017 -2050 0
-2017 -2051 0
-2018 -2019 0
-2018 -2020 0
-2018 -2021 0
-2018 -2022 0
-2018 -2023 0
-2018 -2024 0
-2018 -2025 0
-2018 -2026 0
-2018 -2027 0
-2018 -2028 0
-2018 -2029 0
-2018 -2030 0
-2018 -2031 0
-2018 -2032 0
-2018 -2033 0
-2018 -2034 0
-2018 -2035 0
-2018 -2036 0
-2018 -2037 0
-2018 -2038 0
-2018 -2039 0
-2018 -2040 0
-2018 -2041 0
-2018 -2042 0
-2018 -2043 0
-2018 -2044 0
-2018 -2045 0
-2018 -2046 0
-2018 -2047 0
-2018 -2048 0
-2018 -2049 0
-2018 -2050 0
-2018 -2051 0
-2019 -2020 0
-2019 -2021 0
-2019 -2022 0
-2019 -2023 0
-2019 -2024 0
-2019 -2025 0
-2019 -2026 0
-2019 -2027 0
-2019 -2028 0
-2019 -2029 0
-2019 -2030 0
-2019 -2031 0
-2019 -2032 0
-2019 -2033 0
-2019 -2034 0
-2019 -2035 0
-2019 -2036 0
-2019 -2037 0
-2019 -2038 0
-2019 -2039 0
-2019 -2040 0
-2019 -2041 0
-2019 -2042 0
-2019 -2043 0
-2019 -2044 0
-2019 -2045 0
-2019 -2046 0
-2019 -2047 0
-2019 -2048 0
-2019 -2049 0
-2019 -2050 0
-2019 -2051 0
-2020 -2021 0
-2020 -2022 0
-2020 -2023 0
-2020 -2024 0
-2020 -2025 0
-2020 -2026 0
-2020 -2027 0
-2020 -2028 0
-2020 -2029 0
-2020 -2030 0
-2020 -2031 0
-2020 -2032 0
-2020 -2033 0
-2020 -2034 0
-2020 -2035 0
-2020 -2036 0
-2020 -2037 0
-2020 -2038 0
-2020 -2039 0
-2020 -2040 0
-2020 -2041 0
-2020 -2042 0
-2020 -2043 0
-2020 -2044 0
-2020 -2045 0
-2020 -2046 0
-2020 -2047 0
-2020 -2048 0
-2020 -2049 0
-2020 -2050 0
-2020 -2051 0
-2021 -2022 0
-2021 -2023 0
-2021 -2024 0
-2021 -2025 0
-2021 -2026 0
-2021 -2027 0
-2021 -2028 0
-2021 -2029 0
-2021 -2030 0
-2021 -2031 0
-2021 -2032 0
-2021 -2033 0
-2021 -2034 0
-2021 -2035 0
-2021 -2036 0
-2021 -2037 0
-2021 -2038 0
-2021 -2039 0
-2021 -2040 0
-2021 -2041 0
-2021 -2042 0
-2021 -2043 0
-2021 -2044 0
-2021 -2045 0
-2021 -2046 0
-2021 -2047 0
-2021 -2048 0
-2021 -2049 0
-2021 -2050 0
-2021 -2051 0
-2022 -2023 0
-2022 -2024 0
-2022 -2025 0
-2022 -2026 0
-2022 -2027 0
-2022 -2028 0
-2022 -2029 0
-2022 -2030 0
-2022 -2031 0
-2022 -2032 0
-2022 -2033 0
-2022 -2034 0
-2022 -2035 0
-2022 -2036 0
-2022 -2037 0
-2022 -2038 0
-2022 -2039 0
-2022 -2040 0
-2022 -2041 0
-2022 -2042 0
-2022 -2043 0
-2022 -2044 0
-2022 -2045 0
-2022 -2046 0
-2022 -2047 0
-2022 -2048 0
-2022 -2049 0
-2022 -2050 0
-2022 -2051 0
-2023 -2024 0
-2023 -2025 0
-2023 -2026 0
-2023 -2027 0
-2023 -2028 0
-2023 -2029 0
-2023 -2030 0
-2023 -2031 0
-2023 -2032 0
-2023 -2033 0
-2023 -2034 0
-2023 -2035 0
-2023 -2036 0
-2023 -2037 0
-2023 -2038 0
-2023 -2039 0
-2023 -2040 0
-2023 -2041 0
-2023 -2042 0
-2023 -2043 0
-2023 -2044 0
-2023 -2045 0
-2023 -2046 0
-2023 -2047 0
-2023 -2048 0
-2023 -2049 0
-2023 -2050 0
-2023 -2051 0
-2024 -2025 0
-2024 -2026 0
-2024 -2027 0
-2024 -2028 0
-2024 -2029 0
-2024 -2030 0
-2024 -2031 0
-2024 -2032 0
-2024 -2033 0
-2024 -2034 0
-2024 -2035 0
-2024 -2036 0
-2024 -2037 0
-2024 -2038 0
-2024 -2039 0
-2024 -2040 0
-2024 -2041 0
-2024 -2042 0
-2024 -2043 0
-2024 -2044 0
-2024 -2045 0
-2024 -2046 0
-2024 -2047 0
-2024 -2048 0
-2024 -2049 0
-2024 -2050 0
-2024 -2051 0
-2025 -2026 0
-2025 -2027 0
-2025 -2028 0
-2025 -2029 0
-2025 -2030 0
-2025 -2031 0
-2025 -2032 0
-2025 -2033 0
-2025 -2034 0
-2025 -2035 0
-2025 -2036 0
-2025 -2037 0
-2025 -2038 0
-2025 -2039 0
-2025 -2040 0
-2025 -2041 0
-2025 -2042 0
-2025 -2043 0
-2025 -2044 0
-2025 -2045 0
-2025 -2046 0
-2025 -2047 0
-2025 -2048 0
-2025 -2049 0
-2025 -2050 0
-2025 -2051 0
-2026 -2027 0
-2026 -2028 0
-2026 -2029 0
-2026 -2030 0
-2026 -2031 0
-2026 -2032 0
-2026 -2033 0
-2026 -2034 0
-2026 -2035 0
-2026 -2036 0
-2026 -2037 0
-2026 -2038 0
-2026 -2039 0
-2026 -2040 0
-2026 -2041 0
-2026 -2042 0
-2026 -2043 0
-2026 -2044 0
-2026 -2045 0
-2026 -2046 0
-2026 -2047 0
-2026 -2048 0
-2026 -2049 0
-2026 -2050 0
-2026 -2051 0
-2027 -2028 0
-2027 -2029 0
-2027 -2030 0
-2027 -2031 0
-2027 -2032 0
-2027 -2033 0
-2027 -2034 0
-2027 -2035 0
-2027 -2036 0
-2027 -2037 0
-2027 -2038 0
-2027 -2039 0
-2027 -2040 0
-2027 -2041 0
-2027 -2042 0
-2027 -2043 0
-2027 -2044 0
-2027 -2045 0
-2027 -2046 0
-2027 -2047 0
-2027 -2048 0
-2027 -2049 0
-2027 -2050 0
-2027 -2051 0
-2028 -2029 0
-2028 -2030 0
-2028 -2031 0
-2028 -2032 0
-2028 -2033 0
-2028 -2034 0
-2028 -2035 0
-2028 -2036 0
-2028 -2037 0
-2028 -2038 0
-2028 -2039 0
-2028 -2040 0
-2028 -2041 0
-2028 -2042 0
-2028 -2043 0
-2028 -2044 0
-2028 -2045 0
-2028 -2046 0
-2028 -2047 0
-2028 -2048 0
-2028 -2049 0
-2028 -2050 0
-2028 -2051 0
-2029 -2030 0
-2029 -2031 0
-2029 -2032 0
-2029 -2033 0
-2029 -2034 0
-2029 -2035 0
-2029 -2036 0
-2029 -2037 0
-2029 -2038 0
-2029 -2039 0
-2029 -2040 0
-2029 -2041 0
-2029 -2042 0
-2029 -2043 0
-2029 -2044 0
-2029 -2045 0
-2029 -2046 0
-2029 -2047 0
-2029 -2048 0
-2029 -2049 0
-2029 -2050 0
-2029 -2051 0
-2030 -2031 0
-2030 -2032 0
-2030 -2033 0
-2030 -2034 0
-2030 -2035 0
-2030 -2036 0
-2030 -2037 0
-2030 -2038 0
-2030 -2039 0
-2030 -2040 0
-2030 -2041 0
-2030 -2042 0
-2030 -2043 0
-2030 -2044 0
-2030 -2045 0
-2030 -2046 0
-2030 -2047 0
-2030 -2048 0
-2030 -2049 0
-2030 -2050 0
-2030 -2051 0
-2031 -2032 0
-2031 -2033 0
-2031 -2034 0
-2031 -2035 0
-2031 -2036 0
-2031 -2037 0
-2031 -2038 0
-2031 -2039 0
-2031 -2040 0
-2031 -2041 0
-2031 -2042 0
-2031 -2043 0
-2031 -2044 0
-2031 -2045 0
-2031 -2046 0
-2031 -2047 0
-2031 -2048 0
-2031 -2049 0
-2031 -2050 0
-2031 -2051 0
-2032 -2033 0
-2032 -2034 0
-2032 -2035 0
-2032 -2036 0
-2032 -2037 0
-2032 -2038 0
-2032 -2039 0
-2032 -2040 0
-2032 -2041 0
-2032 -2042 0
-2032 -2043 0
-2032 -2044 0
-2032 -2045 0
-2032 -2046 0
-2032 -2047 0
-2032 -2048 0
-2032 -2049 0
-2032 -2050 0
-2032 -2051 0
-2033 -2034 0
-2033 -2035 0
-2033 -2036 0
-2033 -2037 0
-2033 -2038 0
-2033 -2039 0
-2033 -2040 0
-2033 -2041 0
-2033 -2042 0
-2033 -2043 0
-2033 -2044 0
-2033 -2045 0
-2033 -2046 0
-2033 -2047 0
-2033 -2048 0
-2033 -2049 0
-2033 -2050 0
-2033 -2051 0
-2034 -2035 0
-2034 -2036 0
-2034 -2037 0
-2034 -2038 0
-2034 -2039 0
-2034 -2040 0
-2034 -2041 0
-2034 -2042 0
-2034 -2043 0
-2034 -2044 0
-2034 -2045 0
-2034 -2046 0
-2034 -2047 0
-2034 -2048 0
-2034 -2049 0
-2034 -2050 0
-2034 -2051 0
-2035 -2036 0
-2035 -2037 0
-2035 -2038 0
-2035 -2039 0
-2035 -2040 0
-2035 -2041 0
-2035 -2042 0
-2035 -2043 0
-2035 -2044 0
-2035 -2045 0
-2035 -2046 0
-2035 -2047 0
-2035 -2048 0
-2035 -2049 0
-2035 -2050 0
-2035 -2051 0
-2036 -2037 0
-2036 -2038 0
-2036 -2039 0
-2036 -2040 0
-2036 -2041 0
-2036 -2042 0
-2036 -2043 0
-2036 -2044 0
-2036 -2045 0
-2036 -2046 0
-2036 -2047 0
-2036 -2048 0
-2036 -2049 0
-2036 -2050 0
-2036 -2051 0
-2037 -2038 0
-2037 -2039 0
-2037 -2040 0
-2037 -2041 0
-2037 -2042 0
-2037 -2043 0
-2037 -2044 0
-2037 -2045 0
-2037 -2046 0
-2037 -2047 0
-2037 -2048 0
-2037 -2049 0
-2037 -2050 0
-2037 -2051 0
-2038 -2039 0
-2038 -2040 0
-2038 -2041 0
-2038 -2042 0
-2038 -2043 0
-2038 -2044 0
-2038 -2045 0
-2038 -2046 0
-2038 -2047 0
-2038 -2048 0
-2038 -2049 0
-2038 -2050 0
-2038 -2051 0
-2039 -2040 0
-2039 -2041 0
-2039 -2042 0
-2039 -2043 0
-2039 -2044 0
-2039 -2045 0
-2039 -2046 0
-2039 -2047 0
-2039 -2048 0
-2039 -2049 0
-2039 -2050 0
-2039 -2051 0
-2040 -2041 0
-2040 -2042 0
-2040 -2043 0
-2040 -2044 0
-2040 -2045 0
-2040 -2046 0
-2040 -2047 0
-2040 -2048 0
-2040 -2049 0
-2040 -2050 0
-2040 -2051 0
-2041 -2042 0
-2041 -2043 0
-2041 -2044 0
-2041 -2045 0
-2041 -2046 0
-2041 -2047 0
-2041 -2048 0
-2041 -2049 0
-2041 -2050 0
-2041 -2051 0
-2042 -2043 0
-2042 -2044 0
-2042 -2045 0
-2042 -2046 0
-2042 -2047 0
-2042 -2048 0
-2042 -2049 0
-2042 -2050 0
-2042 -2051 0
-2043 -2044 0
-2043 -2045 0
-2043 -2046 0
-2043 -2047 0
-2043 -2048 0
-2043 -2049 0
-2043 -2050 0
-2043 -2051 0
-2044 -2045 0
-2044 -2046 0
-2044 -2047 0
-2044 -2048 0
-2044 -2049 0
-2044 -2050 0
-2044 -2051 0
-2045 -2046 0
-2045 -2047 0
-2045 -2048 0
-2045 -2049 0
-2045 -2050 0
-2045 -2051 0
-2046 -2047 0
-2046 -2048 0
-2046 -2049 0
-2046 -2050 0
-2046 -2051 0
-2047 -2048 0
-2047 -2049 0
-2047 -2050 0
-2047 -2051 0
-2048 -2049 0
-2048 -2050 0
-2048 -2051 0
-2049 -2050 0
-2049 -2051 0
-2050 -2051 0
-1968 525 0
-1968 772 0
-1968 -575 0
-1968 -576 0
-1968 -577 0
-1968 -578 0
-1968 -579 0
-1968 -580 779 0
-1968 -580 -515 -522 0
-1968 -580 -587 0
-1968 -580 -645 0
-1968 -580 -702 0
-1968 -581 780 0
-1968 -581 -515 -523 0
-1968 -581 -589 0
-1968 -581 -647 0
-1968 -581 -704 0
-1968 -582 781 0
-1968 -582 -515 -524 0
-1968 -582 -591 0
-1968 -582 -649 0
-1968 -582 -706 0
-1968 -583 0
-1969 525 0
-1969 773 0
-1969 -574 0
-1969 -576 0
-1969 -577 0
-1969 -578 0
-1969 -579 0
-1969 -580 779 0
-1969 -580 -516 -522 0
-1969 -580 -595 0
-1969 -580 -653 0
-1969 -580 -710 0
-1969 -581 780 0
-1969 -581 -516 -523 0
-1969 -581 -597 0
-1969 -581 -655 0
-1969 -581 -712 0
-1969 -582 781 0
-1969 -582 -516 -524 0
-1969 -582 -599 0
-1969 -582 -657 0
-1969 -582 -714 0
-1969 -583 0
-1970 525 0
-1970 774 0
-1970 -574 0
-1970 -575 0
-1970 -577 0
-1970 -578 0
-1970 -579 0
-1970 -580 779 0
-1970 -580 -517 -522 0
-1970 -580 -603 0
-1970 -580 -661 0
-1970 -580 -718 0
-1970 -581 780 0
-1970 -581 -517 -523 0
-1970 -581 -605 0
-1970 -581 -663 0
-1970 -581 -720 0
-1970 -582 781 0
-1970 -582 -517 -524 0
-1970 -582 -607 0
-1970 -582 -665 0
-1970 -582 -722 0
-1970 -583 0
-1971 525 0
-1971 775 0
-1971 -574 0
-1971 -575 0
-1971 -576 0
-1971 -578 0
-1971 -579 0
-1971 -580 779 0
-1971 -580 -518 -522 0
-1971 -580 -611 0
-1971 -580 -669 0
-1971 -580 -726 0
-1971 -581 780 0
-1971 -581 -518 -523 0
-1971 -581 -613 0
-1971 -581 -671 0
-1971 -581 -728 0
-1971 -582 781 0
-1971 -582 -518 -524 0
-1971 -582 -615 0
-1971 -582 -673 0
-1971 -582 -730 0
-1971 -583 0
-1972 525 0
-1972 776 0
-1972 -574 0
-1972 -575 0
-1972 -576 0
-1972 -577 0
-1972 -579 0
-1972 -580 779 0
-1972 -580 -519 -522 0
-1972 -580 -619 0
-1972 -580 -677 0
-1972 -580 -734 0
-1972 -581 780 0
-1972 -581 -519 -523 0
-1972 -581 -621 0
-1972 -581 -679 0
-1972 -581 -736 0
-1972 -582 781 0
-1972 -582 -519 -524 0
-1972 -582 -623 0
-1972 -582 -681 0
-1972 -582 -738 0
-1972 -583 0
-1973 525 0
-1973 777 0
-1973 -574 0
-1973 -575 0
-1973 -576 0
-1973 -577 0
-1973 -578 0
-1973 -580 779 0
-1973 -580 -520 -522 0
-1973 -580 -627 0
-1973 -580 -685 0
-1973 -580 -742 0
-1973 -581 780 0
-1973 -581 -520 -523 0
-1973 -581 -629 0
-1973 -581 -687 0
-1973 -581 -744 0
-1973 -582 781 0
-1973 -582 -520 -524 0
-1973 -582 -631 0
-1973 -582 -689 0
-1973 -582 -746 0
-1973 -583 0
-1974 525 0
-1974 772 0
-1974 -634 0
-1974 -635 0
-1974 -636 0
-1974 -637 0
-1974 -638 779 0
-1974 -638 -515 -522 0
-1974 -638 -587 0
-1974 -638 -645 0
-1974 -638 -702 0
-1974 -639 780 0
-1974 -639 -515 -523 0
-1974 -639 -589 0
-1974 -639 -647 0
-1974 -639 -704 0
-1974 -640 781 0
-1974 -640 -515 -524 0
-1974 -640 -591 0
-1974 -640 -649 0
-1974 -640 -706 0
-1974 -641 0
-1975 525 0
-1975 773 0
-1975 -635 0
-1975 -636 0
-1975 -637 0
-1975 -638 779 0
-1975 -638 -516 -522 0
-1975 -638 -595 0
-1975 -638 -653 0
-1975 -638 -710 0
-1975 -639 780 0
-1975 -639 -516 -523 0
-1975 -639 -597 0
-1975 -639 -655 0
-1975 -639 -712 0
-1975 -640 781 0
-1975 -640 -516 -524 0
-1975 -640 -599 0
-1975 -640 -657 0
-1975 -640 -714 0
-1975 -641 0
-1976 525 0
-1976 774 0
-1976 -633 0
-1976 -636 0
-1976 -637 0
-1976 -638 779 0
-1976 -638 -517 -522 0
-1976 -638 -603 0
-1976 -638 -661 0
-1976 -638 -718 0
-1976 -639 780 0
-1976 -639 -517 -523 0
-1976 -639 -605 0
-1976 -639 -663 0
-1976 -639 -720 0
-1976 -640 781 0
-1976 -640 -517 -524 0
-1976 -640 -607 0
-1976 -640 -665 0
-1976 -640 -722 0
-1976 -641 0
-1977 525 0
-1977 775 0
-1977 -633 0
-1977 -634 0
-1977 -637 0
-1977 -638 779 0
-1977 -638 -518 -522 0
-1977 -638 -611 0
-1977 -638 -669 0
-1977 -638 -726 0
-1977 -639 780 0
-1977 -639 -518 -523 0
-1977 -639 -613 0
-1977 -639 -671 0
-1977 -639 -728 0
-1977 -640 781 0
-1977 -640 -518 -524 0
-1977 -640 -615 0
-1977 -640 -673 0
-1977 -640 -730 0
-1977 -641 0
-1978 525 0
-1978 776 0
-1978 -633 0
-1978 -634 0
-1978 -635 0
-1978 -638 779 0
-1978 -638 -519 -522 0
-1978 -638 -619 0
-1978 -638 -677 0
-1978 -638 -734 0
-1978 -639 780 0
-1978 -639 -519 -523 0
-1978 -639 -621 0
-1978 -639 -679 0
-1978 -639 -736 0
-1978 -640 781 0
-1978 -640 -519 -524 0
-1978 -640 -623 0
-1978 -640 -681 0
-1978 -640 -738 0
-1978 -641 0
-1979 525 0
-1979 777 0
-1979 -633 0
-1979 -634 0
-1979 -635 0
-1979 -636 0
-1979 -638 779 0
-1979 -638 -520 -522 0
-1979 -638 -627 0
-1979 -638 -685 0
-1979 -638 -742 0
-1979 -639 780 0
-1979 -639 -520 -523 0
-1979 -639 -629 0
-1979 -639 -687 0
-1979 -639 -744 0
-1979 -640 781 0
-1979 -640 -520 -524 0
-1979 -640 -631 0
-1979 -640 -689 0
-1979 -640 -746 0
-1979 -641 0
-1980 525 0
-1980 772 0
-1980 -692 0
-1980 -693 0
-1980 -694 0
-1980 -695 779 0
-1980 -695 -515 -522 0
-1980 -695 -587 0
-1980 -695 -645 0
-1980 -695 -702 0
-1980 -696 780 0
-1980 -696 -515 -523 0
-1980 -696 -589 0
-1980 -696 -647 0
-1980 -696 -704 0
-1980 -697 781 0
-1980 -697 -515 -524 0
-1980 -697 -591 0
-1980 -697 -649 0
-1980 -697 -706 0
-1980 -698 0
-1981 525 0
-1981 773 0
-1981 -693 0
-1981 -694 0
-1981 -695 779 0
-1981 -695 -516 -522 0
-1981 -695 -595 0
-1981 -695 -653 0
-1981 -695 -710 0
-1981 -696 780 0
-1981 -696 -516 -523 0
-1981 -696 -597 0
-1981 -696 -655 0
-1981 -696 -712 0
-1981 -697 781 0
-1981 -697 -516 -524 0
-1981 -697 -599 0
-1981 -697 -657 0
-1981 -697 -714 0
-1981 -698 0
-1982 525 0
-1982 774 0
-1982 -694 0
-1982 -695 779 0
-1982 -695 -517 -522 0
-1982 -695 -603 0
-1982 -695 -661 0
-1982 -695 -718 0
-1982 -696 780 0
-1982 -696 -517 -523 0
-1982 -696 -605 0
-1982 -696 -663 0
-1982 -696 -720 0
-1982 -697 781 0
-1982 -697 -517 -524 0
-1982 -697 -607 0
-1982 -697 -665 0
-1982 -697 -722 0
-1982 -698 0
-1983 525 0
-1983 775 0
-1983 -691 0
-1983 -695 779 0
-1983 -695 -518 -522 0
-1983 -695 -611 0
-1983 -695 -669 0
-1983 -695 -726 0
-1983 -696 780 0
-1983 -696 -518 -523 0
-1983 -696 -613 0
-1983 -696 -671 0
-1983 -696 -728 0
-1983 -697 781 0
-1983 -697 -518 -524 0
-1983 -697 -615 0
-1983 -697 -673 0
-1983 -697 -730 0
-1983 -698 0
-1984 525 0
-1984 776 0
-1984 -691 0
-1984 -692 0
-1984 -695 779 0
-1984 -695 -519 -522 0
-1984 -695 -619 0
-1984 -695 -677 0
-1984 -695 -734 0
-1984 -696 780 0
-1984 -696 -519 -523 0
-1984 -696 -621 0
-1984 -696 -679 0
-1984 -696 -736 0
-1984 -697 781 0
-1984 -697 -519 -524 0
-1984 -697 -623 0
-1984 -697 -681 0
-1984 -697 -738 0
-1984 -698 0
-1985 525 0
-1985 777 0
-1985 -691 0
-1985 -692 0
-1985 -693 0
-1985 -695 779 0
-1985 -695 -520 -522 0
-1985 -695 -627 0
-1985 -695 -685 0
-1985 -695 -742 0
-1985 -696 780 0
-1985 -696 -520 -523 0
-1985 -696 -629 0
-1985 -696 -687 0
-1985 -696 -744 0
-1985 -697 781 0
-1985 -697 -520 -524 0
-1985 -697 -631 0
-1985 -697 -689 0
-1985 -697 -746 0
-1985 -698 0
-1986 525 0
-1986 772 0
-1986 778 0
-1986 -515 -521 0
-1986 -585 0
-1986 -643 0
-1986 -700 0
-1987 525 0
-1987 773 0
-1987 778 0
-1987 -516 -521 0
-1987 -593 0
-1987 -651 0
-1987 -708 0
-1988 525 0
-1988 774 0
-1988 778 0
-1988 -517 -521 0
-1988 -601 0
-1988 -659 0
-1988 -716 0
-1989 525 0
-1989 775 0
-1989 778 0
-1989 -518 -521 0
-1989 -609 0
-1989 -667 0
-1989 -724 0
-1990 525 0
-1990 776 0
-1990 778 0
-1990 -519 -521 0
-1990 -617 0
-1990 -675 0
-1990 -732 0
-1991 525 0
-1991 777 0
-1991 778 0
-1991 -520 -521 0
-1991 -625 0
-1991 -683 0
-1991 -740 0
-1992 584 0
-1992 831 0
-1992 -516 0
-1992 -517 0
-1992 -518 0
-1992 -519 0
-1992 -520 0
-1992 -521 838 0
-1992 -521 -574 -581 0
-1992 -521 -528 0
-1992 -521 -645 0
-1992 -521 -702 0
-1992 -522 839 0
-1992 -522 -574 -582 0
-1992 -522 -530 0
-1992 -522 -647 0
-1992 -522 -704 0
-1992 -523 840 0
-1992 -523 -574 -583 0
-1992 -523 -532 0
-1992 -523 -649 0
-1992 -523 -706 0
-1992 -524 0
-1993 584 0
-1993 832 0
-1993 -515 0
-1993 -517 0
-1993 -518 0
-1993 -519 0
-1993 -520 0
-1993 -521 838 0
-1993 -521 -575 -581 0
-1993 -521 -536 0
-1993 -521 -653 0
-1993 -521 -710 0
-1993 -522 839 0
-1993 -522 -575 -582 0
-1993 -522 -538 0
-1993 -522 -655 0
-1993 -522 -712 0
-1993 -523 840 0
-1993 -523 -575 -583 0
-1993 -523 -540 0
-1993 -523 -657 0
-1993 -523 -714 0
-1993 -524 0
-1994 584 0
-1994 833 0
-1994 -515 0
-1994 -516 0
-1994 -518 0
-1994 -519 0
-1994 -520 0
-1994 -521 838 0
-1994 -521 -576 -581 0
-1994 -521 -544 0
-1994 -521 -661 0
-1994 -521 -718 0
-1994 -522 839 0
-1994 -522 -576 -582 0
-1994 -522 -546 0
-1994 -522 -663 0
-1994 -522 -720 0
-1994 -523 840 0
-1994 -523 -576 -583 0
-1994 -523 -548 0
-1994 -523 -665 0
-1994 -523 -722 0
-1994 -524 0
-1995 584 0
-1995 834 0
-1995 -515 0
-1995 -516 0
-1995 -517 0
-1995 -519 0
-1995 -520 0
-1995 -521 838 0
-1995 -521 -577 -581 0
-1995 -521 -552 0
-1995 -521 -669 0
-1995 -521 -726 0
-1995 -522 839 0
-1995 -522 -577 -582 0
-1995 -522 -554 0
-1995 -522 -671 0
-1995 -522 -728 0
-1995 -523 840 0
-1995 -523 -577 -583 0
-1995 -523 -556 0
-1995 -523 -673 0
-1995 -523 -730 0
-1995 -524 0
-1996 584 0
-1996 835 0
-1996 -515 0
-1996 -516 0
-1996 -517 0
-1996 -518 0
-1996 -520 0
-1996 -521 838 0
-1996 -521 -578 -581 0
-1996 -521 -560 0
-1996 -521 -677 0
-1996 -521 -734 0
-1996 -522 839 0
-1996 -522 -578 -582 0
-1996 -522 -562 0
-1996 -522 -679 0
-1996 -522 -736 0
-1996 -523 840 0
-1996 -523 -578 -583 0
-1996 -523 -564 0
-1996 -523 -681 0
-1996 -523 -738 0
-1996 -524 0
-1997 584 0
-1997 836 0
-1997 -515 0
-1997 -516 0
-1997 -517 0
-1997 -518 0
-1997 -519 0
-1997 -521 838 0
-1997 -521 -579 -581 0
-1997 -521 -568 0
-1997 -521 -685 0
-1997 -521 -742 0
-1997 -522 839 0
-1997 -522 -579 -582 0
-1997 -522 -570 0
-1997 -522 -687 0
-1997 -522 -744 0
-1997 -523 840 0
-1997 -523 -579 -583 0
-1997 -523 -572 0
-1997 -523 -689 0
-1997 -523 -746 0
-1997 -524 0
-1998 584 0
-1998 831 0
-1998 -634 0
-1998 -635 0
-1998 -636 0
-1998 -637 0
-1998 -638 838 0
-1998 -638 -574 -581 0
-1998 -638 -528 0
-1998 -638 -645 0
-1998 -638 -702 0
-1998 -639 839 0
-1998 -639 -574 -582 0
-1998 -639 -530 0
-1998 -639 -647 0
-1998 -639 -704 0
-1998 -640 840 0
-1998 -640 -574 -583 0
-1998 -640 -532 0
-1998 -640 -649 0
-1998 -640 -706 0
-1998 -641 0
-1999 584 0
-1999 832 0
-1999 -635 0
-1999 -636 0
-1999 -637 0
-1999 -638 838 0
-1999 -638 -575 -581 0
-1999 -638 -536 0
-1999 -638 -653 0
-1999 -638 -710 0
-1999 -639 839 0
-1999 -639 -575 -582 0
-1999 -639 -538 0
-1999 -639 -655 0
-1999 -639 -712 0
-1999 -640 840 0
-1999 -640 -575 -583 0
-1999 -640 -540 0
-1999 -640 -657 0
-1999 -640 -714 0
-1999 -641 0
-2000 584 0
-2000 833 0
-2000 -633 0
-2000 -636 0
-2000 -637 0
-2000 -638 838 0
-2000 -638 -576 -581 0
-2000 -638 -544 0
-2000 -638 -661 0
-2000 -638 -718 0
-2000 -639 839 0
-2000 -639 -576 -582 0
-2000 -639 -546 0
-2000 -639 -663 0
-2000 -639 -720 0
-2000 -640 840 0
-2000 -640 -576 -583 0
-2000 -640 -548 0
-2000 -640 -665 0
-2000 -640 -722 0
-2000 -641 0
-2001 584 0
-2001 834 0
-2001 -633 0
-2001 -634 0
-2001 -637 0
-2001 -638 838 0
-2001 -638 -577 -581 0
-2001 -638 -552 0
-2001 -638 -669 0
-2001 -638 -726 0
-2001 -639 839 0
-2001 -639 -577 -582 0
-2001 -639 -554 0
-2001 -639 -671 0
-2001 -639 -728 0
-2001 -640 840 0
-2001 -640 -577 -583 0
-2001 -640 -556 0
-2001 -640 -673 0
-2001 -640 -730 0
-2001 -641 0
-2002 584 0
-2002 835 0
-2002 -633 0
-2002 -634 0
-2002 -635 0
-2002 -638 838 0
-2002 -638 -578 -581 0
-2002 -638 -560 0
-2002 -638 -677 0
-2002 -638 -734 0
-2002 -639 839 0
-2002 -639 -578 -582 0
-2002 -639 -562 0
-2002 -639 -679 0
-2002 -639 -736 0
-2002 -640 840 0
-2002 -640 -578 -583 0
-2002 -640 -564 0
-2002 -640 -681 0
-2002 -640 -738 0
-2002 -641 0
-2003 584 0
-2003 836 0
-2003 -633 0
-2003 -634 0
-2003 -635 0
-2003 -636 0
-2003 -638 838 0
-2003 -638 -579 -581 0
-2003 -638 -568 0
-2003 -638 -685 0
-2003 -638 -742 0
-2003 -639 839 0
-2003 -639 -579 -582 0
-2003 -639 -570 0
-2003 -639 -687 0
-2003 -639 -744 0
-2003 -640 840 0
-2003 -640 -579 -583 0
-2003 -640 -572 0
-2003 -640 -689 0
-2003 -640 -746 0
-2003 -641 0
-2004 584 0
-2004 831 0
-2004 -692 0
-2004 -693 0
-2004 -694 0
-2004 -695 838 0
-2004 -695 -574 -581 0
-2004 -695 -528 0
-2004 -695 -645 0
-2004 -695 -702 0
-2004 -696 839 0
-2004 -696 -574 -582 0
-2004 -696 -530 0
-2004 -696 -647 0
-2004 -696 -704 0
-2004 -697 840 0
-2004 -697 -574 -583 0
-2004 -697 -532 0
-2004 -697 -649 0
-2004 -697 -706 0
-2004 -698 0
-2005 584 0
-2005 832 0
-2005 -693 0
-2005 -694 0
-2005 -695 838 0
-2005 -695 -575 -581 0
-2005 -695 -536 0
-2005 -695 -653 0
-2005 -695 -710 0
-2005 -696 839 0
-2005 -696 -575 -582 0
-2005 -696 -538 0
-2005 -696 -655 0
-2005 -696 -712 0
-2005 -697 840 0
-2005 -697 -575 -583 0
-2005 -697 -540 0
-2005 -697 -657 0
-2005 -697 -714 0
-2005 -698 0
-2006 584 0
-2006 833 0
-2006 -694 0
-2006 -695 838 0
-2006 -695 -576 -581 0
-2006 -695 -544 0
-2006 -695 -661 0
-2006 -695 -718 0
-2006 -696 839 0
-2006 -696 -576 -582 0
-2006 -696 -546 0
-2006 -696 -663 0
-2006 -696 -720 0
-2006 -697 840 0
-2006 -697 -576 -583 0
-2006 -697 -548 0
-2006 -697 -665 0
-2006 -697 -722 0
-2006 -698 0
-2007 584 0
-2007 834 0
-2007 -691 0
-2007 -695 838 0
-2007 -695 -577 -581 0
-2007 -695 -552 0
-2007 -695 -669 0
-2007 -695 -726 0
-2007 -696 839 0
-2007 -696 -577 -582 0
-2007 -696 -554 0
-2007 -696 -671 0
-2007 -696 -728 0
-2007 -697 840 0
-2007 -697 -577 -583 0
-2007 -697 -556 0
-2007 -697 -673 0
-2007 -697 -730 0
-2007 -698 0
-2008 584 0
-2008 835 0
-2008 -691 0
-2008 -692 0
-2008 -695 838 0
-2008 -695 -578 -581 0
-2008 -695 -560 0
-2008 -695 -677 0
-2008 -695 -734 0
-2008 -696 839 0
-2008 -696 -578 -582 0
-2008 -696 -562 0
-2008 -696 -679 0
-2008 -696 -736 0
-2008 -697 840 0
-2008 -697 -578 -583 0
-2008 -697 -564 0
-2008 -697 -681 0
-2008 -697 -738 0
-2008 -698 0
-2009 584 0
-2009 836 0
-2009 -691 0
-2009 -692 0
-2009 -693 0
-2009 -695 838 0
-2009 -695 -579 -581 0
-2009 -695 -568 0
-2009 -695 -685 0
-2009 -695 -742 0
-2009 -696 839 0
-2009 -696 -579 -582 0
-2009 -696 -570 0
-2009 -696 -687 0
-2009 -696 -744 0
-2009 -697 840 0
-2009 -697 -579 -583 0
-2009 -697 -572 0
-2009 -697 -689 0
-2009 -697 -746 0
-2009 -698 0
-2010 584 0
-2010 831 0
-2010 837 0
-2010 -574 -580 0
-2010 -526 0
-2010 -643 0
-2010 -700 0
-2011 584 0
-2011 832 0
-2011 837 0
-2011 -575 -580 0
-2011 -534 0
-2011 -651 0
-2011 -708 0
-2012 584 0
-2012 833 0
-2012 837 0
-2012 -576 -580 0
-2012 -542 0
-2012 -659 0
-2012 -716 0
-2013 584 0
-2013 834 0
-2013 837 0
-2013 -577 -580 0
-2013 -550 0
-2013 -667 0
-2013 -724 0
-2014 584 0
-2014 835 0
-2014 837 0
-2014 -578 -580 0
-2014 -558 0
-2014 -675 0
-2014 -732 0
-2015 584 0
-2015 836 0
-2015 837 0
-2015 -579 -580 0
-2015 -566 0
-2015 -683 0
-2015 -740 0
-2016 642 0
-2016 890 0
-2016 -517 0
-2016 -518 0
-2016 -519 0
-2016 -520 0
-2016 -521 896 0
-2016 -521 -633 -639 0
-2016 -521 -528 0
-2016 -521 -536 0
-2016 -521 -587 0
-2016 -521 -595 0
-2016 -521 -702 0
-2016 -521 -710 0
-2016 -522 897 0
-2016 -522 -633 -640 0
-2016 -522 -530 0
-2016 -522 -538 0
-2016 -522 -589 0
-2016 -522 -597 0
-2016 -522 -704 0
-2016 -522 -712 0
-2016 -523 898 0
-2016 -523 -633 -641 0
-2016 -523 -532 0
-2016 -523 -540 0
-2016 -523 -591 0
-2016 -523 -599 0
-2016 -523 -706 0
-2016 -523 -714 0
-2016 -524 0
-2017 642 0
-2017 891 0
-2017 -515 0
-2017 -518 0
-2017 -519 0
-2017 -520 0
-2017 -521 896 0
-2017 -521 -634 -639 0
-2017 -521 -536 0
-2017 -521 -544 0
-2017 -521 -595 0
-2017 -521 -603 0
-2017 -521 -710 0
-2017 -521 -718 0
-2017 -522 897 0
-2017 -522 -634 -640 0
-2017 -522 -538 0
-2017 -522 -546 0
-2017 -522 -597 0
-2017 -522 -605 0
-2017 -522 -712 0
-2017 -522 -720 0
-2017 -523 898 0
-2017 -523 -634 -641 0
-2017 -523 -540 0
-2017 -523 -548 0
-2017 -523 -599 0
-2017 -523 -607 0
-2017 -523 -714 0
-2017 -523 -722 0
-2017 -524 0
-2018 642 0
-2018 892 0
-2018 -515 0
-2018 -516 0
-2018 -519 0
-2018 -520 0
-2018 -521 896 0
-2018 -521 -635 -639 0
-2018 -521 -544 0
-2018 -521 -552 0
-2018 -521 -603 0
-2018 -521 -611 0
-2018 -521 -718 0
-2018 -521 -726 0
-2018 -522 897 0
-2018 -522 -635 -640 0
-2018 -522 -546 0
-2018 -522 -554 0
-2018 -522 -605 0
-2018 -522 -613 0
-2018 -522 -720 0
-2018 -522 -728 0
-2018 -523 898 0
-2018 -523 -635 -641 0
-2018 -523 -548 0
-2018 -523 -556 0
-2018 -523 -607 0
-2018 -523 -615 0
-2018 -523 -722 0
-2018 -523 -730 0
-2018 -524 0
-2019 642 0
-2019 893 0
-2019 -515 0
-2019 -516 0
-2019 -517 0
-2019 -520 0
-2019 -521 896 0
-2019 -521 -636 -639 0
-2019 -521 -552 0
-2019 -521 -560 0
-2019 -521 -611 0
-2019 -521 -619 0
-2019 -521 -726 0
-2019 -521 -734 0
-2019 -522 897 0
-2019 -522 -636 -640 0
-2019 -522 -554 0
-2019 -522 -562 0
-2019 -522 -613 0
-2019 -522 -621 0
-2019 -522 -728 0
-2019 -522 -736 0
-2019 -523 898 0
-2019 -523 -636 -641 0
-2019 -523 -556 0
-2019 -523 -564 0
-2019 -523 -615 0
-2019 -523 -623 0
-2019 -523 -730 0
-2019 -523 -738 0
-2019 -524 0
-2020 642 0
-2020 894 0
-2020 -515 0
-2020 -516 0
-2020 -517 0
-2020 -518 0
-2020 -521 896 0
-2020 -521 -637 -639 0
-2020 -521 -560 0
-2020 -521 -568 0
-2020 -521 -619 0
-2020 -521 -627 0
-2020 -521 -734 0
-2020 -521 -742 0
-2020 -522 897 0
-2020 -522 -637 -640 0
-2020 -522 -562 0
-2020 -522 -570 0
-2020 -522 -621 0
-2020 -522 -629 0
-2020 -522 -736 0
-2020 -522 -744 0
-2020 -523 898 0
-2020 -523 -637 -641 0
-2020 -523 -564 0
-2020 -523 -572 0
-2020 -523 -623 0
-2020 -523 -631 0
-2020 -523 -738 0
-2020 -523 -746 0
-2020 -524 0
-2021 642 0
-2021 890 0
-2021 -576 0
-2021 -577 0
-2021 -578 0
-2021 -579 0
-2021 -580 896 0
-2021 -580 -633 -639 0
-2021 -580 -528 0
-2021 -580 -536 0
-2021 -580 -587 0
-2021 -580 -595 0
-2021 -580 -702 0
-2021 -580 -710 0
-2021 -581 897 0
-2021 -581 -633 -640 0
-2021 -581 -530 0
-2021 -581 -538 0
-2021 -581 -589 0
-2021 -581 -597 0
-2021 -581 -704 0
-2021 -581 -712 0
-2021 -582 898 0
-2021 -582 -633 -641 0
-2021 -582 -532 0
-2021 -582 -540 0
-2021 -582 -591 0
-2021 -582 -599 0
-2021 -582 -706 0
-2021 -582 -714 0
-2021 -583 0
-2022 642 0
-2022 891 0
-2022 -574 0
-2022 -577 0
-2022 -578 0
-2022 -579 0
-2022 -580 896 0
-2022 -580 -634 -639 0
-2022 -580 -536 0
-2022 -580 -544 0
-2022 -580 -595 0
-2022 -580 -603 0
-2022 -580 -710 0
-2022 -580 -718 0
-2022 -581 897 0
-2022 -581 -634 -640 0
-2022 -581 -538 0
-2022 -581 -546 0
-2022 -581 -597 0
-2022 -581 -605 0
-2022 -581 -712 0
-2022 -581 -720 0
-2022 -582 898 0
-2022 -582 -634 -641 0
-2022 -582 -540 0
-2022 -582 -548 0
-2022 -582 -599 0
-2022 -582 -607 0
-2022 -582 -714 0
-2022 -582 -722 0
-2022 -583 0
-2023 642 0
-2023 892 0
-2023 -574 0
-2023 -575 0
-2023 -578 0
-2023 -579 0
-2023 -580 896 0
-2023 -580 -635 -639 0
-2023 -580 -544 0
-2023 -580 -552 0
-2023 -580 -603 0
-2023 -580 -611 0
-2023 -580 -718 0
-2023 -580 -726 0
-2023 -581 897 0
-2023 -581 -635 -640 0
-2023 -581 -546 0
-2023 -581 -554 0
-2023 -581 -605 0
-2023 -581 -613 0
-2023 -581 -720 0
-2023 -581 -728 0
-2023 -582 898 0
-2023 -582 -635 -641 0
-2023 -582 -548 0
-2023 -582 -556 0
-2023 -582 -607 0
-2023 -582 -615 0
-2023 -582 -722 0
-2023 -582 -730 0
-2023 -583 0
-2024 642 0
-2024 893 0
-2024 -574 0
-2024 -575 0
-2024 -576 0
-2024 -579 0
-2024 -580 896 0
-2024 -580 -636 -639 0
-2024 -580 -552 0
-2024 -580 -560 0
-2024 -580 -611 0
-2024 -580 -619 0
-2024 -580 -726 0
-2024 -580 -734 0
-2024 -581 897 0
-2024 -581 -636 -640 0
-2024 -581 -554 0
-2024 -581 -562 0
-2024 -581 -613 0
-2024 -581 -621 0
-2024 -581 -728 0
-2024 -581 -736 0
-2024 -582 898 0
-2024 -582 -636 -641 0
-2024 -582 -556 0
-2024 -582 -564 0
-2024 -582 -615 0
-2024 -582 -623 0
-2024 -582 -730 0
-2024 -582 -738 0
-2024 -583 0
-2025 642 0
-2025 894 0
-2025 -574 0
-2025 -575 0
-2025 -576 0
-2025 -577 0
-2025 -580 896 0
-2025 -580 -637 -639 0
-2025 -580 -560 0
-2025 -580 -568 0
-2025 -580 -619 0
-2025 -580 -627 0
-2025 -580 -734 0
-2025 -580 -742 0
-2025 -581 897 0
-2025 -581 -637 -640 0
-2025 -581 -562 0
-2025 -581 -570 0
-2025 -581 -621 0
-2025 -581 -629 0
-2025 -581 -736 0
-2025 -581 -744 0
-2025 -582 898 0
-2025 -582 -637 -641 0
-2025 -582 -564 0
-2025 -582 -572 0
-2025 -582 -623 0
-2025 -582 -631 0
-2025 -582 -738 0
-2025 -582 -746 0
-2025 -583 0
-2026 642 0
-2026 890 0
-2026 -693 0
-2026 -694 0
-2026 -695 896 0
-2026 -695 -633 -639 0
-2026 -695 -528 0
-2026 -695 -536 0
-2026 -695 -587 0
-2026 -695 -595 0
-2026 -695 -702 0
-2026 -695 -710 0
-2026 -696 897 0
-2026 -696 -633 -640 0
-2026 -696 -530 0
-2026 -696 -538 0
-2026 -696 -589 0
-2026 -696 -597 0
-2026 -696 -704 0
-2026 -696 -712 0
-2026 -697 898 0
-2026 -697 -633 -641 0
-2026 -697 -532 0
-2026 -697 -540 0
-2026 -697 -591 0
-2026 -697 -599 0
-2026 -697 -706 0
-2026 -697 -714 0
-2026 -698 0
-2027 642 0
-2027 891 0
-2027 -694 0
-2027 -695 896 0
-2027 -695 -634 -639 0
-2027 -695 -536 0
-2027 -695 -544 0
-2027 -695 -595 0
-2027 -695 -603 0
-2027 -695 -710 0
-2027 -695 -718 0
-2027 -696 897 0
-2027 -696 -634 -640 0
-2027 -696 -538 0
-2027 -696 -546 0
-2027 -696 -597 0
-2027 -696 -605 0
-2027 -696 -712 0
-2027 -696 -720 0
-2027 -697 898 0
-2027 -697 -634 -641 0
-2027 -697 -540 0
-2027 -697 -548 0
-2027 -697 -599 0
-2027 -697 -607 0
-2027 -697 -714 0
-2027 -697 -722 0
-2027 -698 0
-2028 642 0
-2028 892 0
-2028 -695 896 0
-2028 -695 -635 -639 0
-2028 -695 -544 0
-2028 -695 -552 0
-2028 -695 -603 0
-2028 -695 -611 0
-2028 -695 -718 0
-2028 -695 -726 0
-2028 -696 897 0
-2028 -696 -635 -640 0
-2028 -696 -546 0
-2028 -696 -554 0
-2028 -696 -605 0
-2028 -696 -613 0
-2028 -696 -720 0
-2028 -696 -728 0
-2028 -697 898 0
-2028 -697 -635 -641 0
-2028 -697 -548 0
-2028 -697 -556 0
-2028 -697 -607 0
-2028 -697 -615 0
-2028 -697 -722 0
-2028 -697 -730 0
-2028 -698 0
-2029 642 0
-2029 893 0
-2029 -691 0
-2029 -695 896 0
-2029 -695 -636 -639 0
-2029 -695 -552 0
-2029 -695 -560 0
-2029 -695 -611 0
-2029 -695 -619 0
-2029 -695 -726 0
-2029 -695 -734 0
-2029 -696 897 0
-2029 -696 -636 -640 0
-2029 -696 -554 0
-2029 -696 -562 0
-2029 -696 -613 0
-2029 -696 -621 0
-2029 -696 -728 0
-2029 -696 -736 0
-2029 -697 898 0
-2029 -697 -636 -641 0
-2029 -697 -556 0
-2029 -697 -564 0
-2029 -697 -615 0
-2029 -697 -623 0
-2029 -697 -730 0
-2029 -697 -738 0
-2029 -698 0
-2030 642 0
-2030 894 0
-2030 -691 0
-2030 -692 0
-2030 -695 896 0
-2030 -695 -637 -639 0
-2030 -695 -560 0
-2030 -695 -568 0
-2030 -695 -619 0
-2030 -695 -627 0
-2030 -695 -734 0
-2030 -695 -742 0
-2030 -696 897 0
-2030 -696 -637 -640 0
-2030 -696 -562 0
-2030 -696 -570 0
-2030 -696 -621 0
-2030 -696 -629 0
-2030 -696 -736 0
-2030 -696 -744 0
-2030 -697 898 0
-2030 -697 -637 -641 0
-2030 -697 -564 0
-2030 -697 -572 0
-2030 -697 -623 0
-2030 -697 -631 0
-2030 -697 -738 0
-2030 -697 -746 0
-2030 -698 0
-2031 642 0
-2031 890 0
-2031 895 0
-2031 -633 -638 0
-2031 -526 0
-2031 -534 0
-2031 -585 0
-2031 -593 0
-2031 -700 0
-2031 -708 0
-2032 642 0
-2032 891 0
-2032 895 0
-2032 -634 -638 0
-2032 -534 0
-2032 -542 0
-2032 -593 0
-2032 -601 0
-2032 -708 0
-2032 -716 0
-2033 642 0
-2033 892 0
-2033 895 0
-2033 -635 -638 0
-2033 -542 0
-2033 -550 0
-2033 -601 0
-2033 -609 0
-2033 -716 0
-2033 -724 0
-2034 642 0
-2034 893 0
-2034 895 0
-2034 -636 -638 0
-2034 -550 0
-2034 -558 0
-2034 -609 0
-2034 -617 0
-2034 -724 0
-2034 -732 0
-2035 642 0
-2035 894 0
-2035 895 0
-2035 -637 -638 0
-2035 -558 0
-2035 -566 0
-2035 -617 0
-2035 -625 0
-2035 -732 0
-2035 -740 0
-2036 699 0
-2036 948 0
-2036 -518 0
-2036 -519 0
-2036 -520 0
-2036 -521 953 0
-2036 -521 -691 -696 0
-2036 -521 -528 0
-2036 -521 -536 0
-2036 -521 -544 0
-2036 -521 -587 0
-2036 -521 -595 0
-2036 -521 -603 0
-2036 -521 -645 0
-2036 -521 -653 0
-2036 -521 -661 0
-2036 -522 954 0
-2036 -522 -691 -697 0
-2036 -522 -530 0
-2036 -522 -538 0
-2036 -522 -546 0
-2036 -522 -589 0
-2036 -522 -597 0
-2036 -522 -605 0
-2036 -522 -647 0
-2036 -522 -655 0
-2036 -522 -663 0
-2036 -523 955 0
-2036 -523 -691 -698 0
-2036 -523 -532 0
-2036 -523 -540 0
-2036 -523 -548 0
-2036 -523 -591 0
-2036 -523 -599 0
-2036 -523 -607 0
-2036 -523 -649 0
-2036 -523 -657 0
-2036 -523 -665 0
-2036 -524 0
-2037 699 0
-2037 949 0
-2037 -515 0
-2037 -519 0
-2037 -520 0
-2037 -521 953 0
-2037 -521 -692 -696 0
-2037 -521 -536 0
-2037 -521 -544 0
-2037 -521 -552 0
-2037 -521 -595 0
-2037 -521 -603 0
-2037 -521 -611 0
-2037 -521 -653 0
-2037 -521 -661 0
-2037 -521 -669 0
-2037 -522 954 0
-2037 -522 -692 -697 0
-2037 -522 -538 0
-2037 -522 -546 0
-2037 -522 -554 0
-2037 -522 -597 0
-2037 -522 -605 0
-2037 -522 -613 0
-2037 -522 -655 0
-2037 -522 -663 0
-2037 -522 -671 0
-2037 -523 955 0
-2037 -523 -692 -698 0
-2037 -523 -540 0
-2037 -523 -548 0
-2037 -523 -556 0
-2037 -523 -599 0
-2037 -523 -607 0
-2037 -523 -615 0
-2037 -523 -657 0
-2037 -523 -665 0
-2037 -523 -673 0
-2037 -524 0
-2038 699 0
-2038 950 0
-2038 -515 0
-2038 -516 0
-2038 -520 0
-2038 -521 953 0
-2038 -521 -693 -696 0
-2038 -521 -544 0
-2038 -521 -552 0
-2038 -521 -560 0
-2038 -521 -603 0
-2038 -521 -611 0
-2038 -521 -619 0
-2038 -521 -661 0
-2038 -521 -669 0
-2038 -521 -677 0
-2038 -522 954 0
-2038 -522 -693 -697 0
-2038 -522 -546 0
-2038 -522 -554 0
-2038 -522 -562 0
-2038 -522 -605 0
-2038 -522 -613 0
-2038 -522 -621 0
-2038 -522 -663 0
-2038 -522 -671 0
-2038 -522 -679 0
-2038 -523 955 0
-2038 -523 -693 -698 0
-2038 -523 -548 0
-2038 -523 -556 0
-2038 -523 -564 0
-2038 -523 -607 0
-2038 -523 -615 0
-2038 -523 -623 0
-2038 -523 -665 0
-2038 -523 -673 0
-2038 -523 -681 0
-2038 -524 0
-2039 699 0
-2039 951 0
-2039 -515 0
-2039 -516 0
-2039 -517 0
-2039 -521 953 0
-2039 -521 -694 -696 0
-2039 -521 -552 0
-2039 -521 -560 0
-2039 -521 -568 0
-2039 -521 -611 0
-2039 -521 -619 0
-2039 -521 -627 0
-2039 -521 -669 0
-2039 -521 -677 0
-2039 -521 -685 0
-2039 -522 954 0
-2039 -522 -694 -697 0
-2039 -522 -554 0
-2039 -522 -562 0
-2039 -522 -570 0
-2039 -522 -613 0
-2039 -522 -621 0
-2039 -522 -629 0
-2039 -522 -671 0
-2039 -522 -679 0
-2039 -522 -687 0
-2039 -523 955 0
-2039 -523 -694 -698 0
-2039 -523 -556 0
-2039 -523 -564 0
-2039 -523 -572 0
-2039 -523 -615 0
-2039 -523 -623 0
-2039 -523 -631 0
-2039 -523 -673 0
-2039 -523 -681 0
-2039 -523 -689 0
-2039 -524 0
-2040 699 0
-2040 948 0
-2040 -577 0
-2040 -578 0
-2040 -579 0
-2040 -580 953 0
-2040 -580 -691 -696 0
-2040 -580 -528 0
-2040 -580 -536 0
-2040 -580 -544 0
-2040 -580 -587 0
-2040 -580 -595 0
-2040 -580 -603 0
-2040 -580 -645 0
-2040 -580 -653 0
-2040 -580 -661 0
-2040 -581 954 0
-2040 -581 -691 -697 0
-2040 -581 -530 0
-2040 -581 -538 0
-2040 -581 -546 0
-2040 -581 -589 0
-2040 -581 -597 0
-2040 -581 -605 0
-2040 -581 -647 0
-2040 -581 -655 0
-2040 -581 -663 0
-2040 -582 955 0
-2040 -582 -691 -698 0
-2040 -582 -532 0
-2040 -582 -540 0
-2040 -582 -548 0
-2040 -582 -591 0
-2040 -582 -599 0
-2040 -582 -607 0
-2040 -582 -649 0
-2040 -582 -657 0
-2040 -582 -665 0
-2040 -583 0
-2041 699 0
-2041 949 0
-2041 -574 0
-2041 -578 0
-2041 -579 0
-2041 -580 953 0
-2041 -580 -692 -696 0
-2041 -580 -536 0
-2041 -580 -544 0
-2041 -580 -552 0
-2041 -580 -595 0
-2041 -580 -603 0
-2041 -580 -611 0
-2041 -580 -653 0
-2041 -580 -661 0
-2041 -580 -669 0
-2041 -581 954 0
-2041 -581 -692 -697 0
-2041 -581 -538 0
-2041 -581 -546 0
-2041 -581 -554 0
-2041 -581 -597 0
-2041 -581 -605 0
-2041 -581 -613 0
-2041 -581 -655 0
-2041 -581 -663 0
-2041 -581 -671 0
-2041 -582 955 0
-2041 -582 -692 -698 0
-2041 -582 -540 0
-2041 -582 -548 0
-2041 -582 -556 0
-2041 -582 -599 0
-2041 -582 -607 0
-2041 -582 -615 0
-2041 -582 -657 0
-2041 -582 -665 0
-2041 -582 -673 0
-2041 -583 0
-2042 699 0
-2042 950 0
-2042 -574 0
-2042 -575 0
-2042 -579 0
-2042 -580 953 0
-2042 -580 -693 -696 0
-2042 -580 -544 0
-2042 -580 -552 0
-2042 -580 -560 0
-2042 -580 -603 0
-2042 -580 -611 0
-2042 -580 -619 0
-2042 -580 -661 0
-2042 -580 -669 0
-2042 -580 -677 0
-2042 -581 954 0
-2042 -581 -693 -697 0
-2042 -581 -546 0
-2042 -581 -554 0
-2042 -581 -562 0
-2042 -581 -605 0
-2042 -581 -613 0
-2042 -581 -621 0
-2042 -581 -663 0
-2042 -581 -671 0
-2042 -581 -679 0
-2042 -582 955 0
-2042 -582 -693 -698 0
-2042 -582 -548 0
-2042 -582 -556 0
-2042 -582 -564 0
-2042 -582 -607 0
-2042 -582 -615 0
-2042 -582 -623 0
-2042 -582 -665 0
-2042 -582 -673 0
-2042 -582 -681 0
-2042 -583 0
-2043 699 0
-2043 951 0
-2043 -574 0
-2043 -575 0
-2043 -576 0
-2043 -580 953 0
-2043 -580 -694 -696 0
-2043 -580 -552 0
-2043 -580 -560 0
-2043 -580 -568 0
-2043 -580 -611 0
-2043 -580 -619 0
-2043 -580 -627 0
-2043 -580 -669 0
-2043 -580 -677 0
-2043 -580 -685 0
-2043 -581 954 0
-2043 -581 -694 -697 0
-2043 -581 -554 0
-2043 -581 -562 0
-2043 -581 -570 0
-2043 -581 -613 0
-2043 -581 -621 0
-2043 -581 -629 0
-2043 -581 -671 0
-2043 -581 -679 0
-2043 -581 -687 0
-2043 -582 955 0
-2043 -582 -694 -698 0
-2043 -582 -556 0
-2043 -582 -564 0
-2043 -582 -572 0
-2043 -582 -615 0
-2043 -582 -623 0
-2043 -582 -631 0
-2043 -582 -673 0
-2043 -582 -681 0
-2043 -582 -689 0
-2043 -583 0
-2044 699 0
-2044 948 0
-2044 -636 0
-2044 -637 0
-2044 -638 953 0
-2044 -638 -691 -696 0
-2044 -638 -528 0
-2044 -638 -536 0
-2044 -638 -544 0
-2044 -638 -587 0
-2044 -638 -595 0
-2044 -638 -603 0
-2044 -638 -645 0
-2044 -638 -653 0
-2044 -638 -661 0
-2044 -639 954 0
-2044 -639 -691 -697 0
-2044 -639 -530 0
-2044 -639 -538 0
-2044 -639 -546 0
-2044 -639 -589 0
-2044 -639 -597 0
-2044 -639 -605 0
-2044 -639 -647 0
-2044 -639 -655 0
-2044 -639 -663 0
-2044 -640 955 0
-2044 -640 -691 -698 0
-2044 -640 -532 0
-2044 -640 -540 0
-2044 -640 -548 0
-2044 -640 -591 0
-2044 -640 -599 0
-2044 -640 -607 0
-2044 -640 -649 0
-2044 -640 -657 0
-2044 -640 -665 0
-2044 -641 0
-2045 699 0
-2045 949 0
-2045 -637 0
-2045 -638 953 0
-2045 -638 -692 -696 0
-2045 -638 -536 0
-2045 -638 -544 0
-2045 -638 -552 0
-2045 -638 -595 0
-2045 -638 -603 0
-2045 -638 -611 0
-2045 -638 -653 0
-2045 -638 -661 0
-2045 -638 -669 0
-2045 -639 954 0
-2045 -639 -692 -697 0
-2045 -639 -538 0
-2045 -639 -546 0
-2045 -639 -554 0
-2045 -639 -597 0
-2045 -639 -605 0
-2045 -639 -613 0
-2045 -639 -655 0
-2045 -639 -663 0
-2045 -639 -671 0
-2045 -640 955 0
-2045 -640 -692 -698 0
-2045 -640 -540 0
-2045 -640 -548 0
-2045 -640 -556 0
-2045 -640 -599 0
-2045 -640 -607 0
-2045 -640 -615 0
-2045 -640 -657 0
-2045 -640 -665 0
-2045 -640 -673 0
-2045 -641 0
-2046 699 0
-2046 950 0
-2046 -633 0
-2046 -638 953 0
-2046 -638 -693 -696 0
-2046 -638 -544 0
-2046 -638 -552 0
-2046 -638 -560 0
-2046 -638 -603 0
-2046 -638 -611 0
-2046 -638 -619 0
-2046 -638 -661 0
-2046 -638 -669 0
-2046 -638 -677 0
-2046 -639 954 0
-2046 -639 -693 -697 0
-2046 -639 -546 0
-2046 -639 -554 0
-2046 -639 -562 0
-2046 -639 -605 0
-2046 -639 -613 0
-2046 -639 -621 0
-2046 -639 -663 0
-2046 -639 -671 0
-2046 -639 -679 0
-2046 -640 955 0
-2046 -640 -693 -698 0
-2046 -640 -548 0
-2046 -640 -556 0
-2046 -640 -564 0
-2046 -640 -607 0
-2046 -640 -615 0
-2046 -640 -623 0
-2046 -640 -665 0
-2046 -640 -673 0
-2046 -640 -681 0
-2046 -641 0
-2047 699 0
-2047 951 0
-2047 -633 0
-2047 -634 0
-2047 -638 953 0
-2047 -638 -694 -696 0
-2047 -638 -552 0
-2047 -638 -560 0
-2047 -638 -568 0
-2047 -638 -611 0
-2047 -638 -619 0
-2047 -638 -627 0
-2047 -638 -669 0
-2047 -638 -677 0
-2047 -638 -685 0
-2047 -639 954 0
-2047 -639 -694 -697 0
-2047 -639 -554 0
-2047 -639 -562 0
-2047 -639 -570 0
-2047 -639 -613 0
-2047 -639 -621 0
-2047 -639 -629 0
-2047 -639 -671 0
-2047 -639 -679 0
-2047 -639 -687 0
-2047 -640 955 0
-2047 -640 -694 -698 0
-2047 -640 -556 0
-2047 -640 -564 0
-2047 -640 -572 0
-2047 -640 -615 0
-2047 -640 -623 0
-2047 -640 -631 0
-2047 -640 -673 0
-2047 -640 -681 0
-2047 -640 -689 0
-2047 -641 0
-2048 699 0
-2048 948 0
-2048 952 0
-2048 -691 -695 0
-2048 -526 0
-2048 -534 0
-2048 -542 0
-2048 -585 0
-2048 -593 0
-2048 -601 0
-2048 -643 0
-2048 -651 0
-2048 -659 0
-2049 699 0
-2049 949 0
-2049 952 0
-2049 -692 -695 0
-2049 -534 0
-2049 -542 0
-2049 -550 0
-2049 -593 0
-2049 -601 0
-2049 -609 0
-2049 -651 0
-2049 -659 0
-2049 -667 0
-2050 699 0
-2050 950 0
-2050 952 0
-2050 -693 -695 0
-2050 -542 0
-2050 -550 0
-2050 -558 0
-2050 -601 0
-2050 -609 0
-2050 -617 0
-2050 -659 0
-2050 -667 0
-2050 -675 0
-2051 699 0
-2051 951 0
-2051 952 0
-2051 -694 -695 0
-2051 -550 0
-2051 -558 0
-2051 -566 0
-2051 -609 0
-2051 -617 0
-2051 -625 0
-2051 -667 0
-2051 -675 0
-2051 -683 0
-515 772 1968 1969 1970 1971 1972 1973 1974 1975 1976 1977 1978 1979 1980 1981 1982 1983 1984 1985 1986 1987 1988 1989 1990 1991 0
-516 773 1968 1969 1970 1971 1972 1973 1974 1975 1976 1977 1978 1979 1980 1981 1982 1983 1984 1985 1986 1987 1988 1989 1990 1991 0
-517 774 1968 1969 1970 1971 1972 1973 1974 1975 1976 1977 1978 1979 1980 1981 1982 1983 1984 1985 1986 1987 1988 1989 1990 1991 0
-518 775 1968 1969 1970 1971 1972 1973 1974 1975 1976 1977 1978 1979 1980 1981 1982 1983 1984 1985 1986 1987 1988 1989 1990 1991 0
-519 776 1968 1969 1970 1971 1972 1973 1974 1975 1976 1977 1978 1979 1980 1981 1982 1983 1984 1985 1986 1987 1988 1989 1990 1991 0
-520 777 1968 1969 1970 1971 1972 1973 1974 1975 1976 1977 1978 1979 1980 1981 1982 1983 1984 1985 1986 1987 1988 1989 1990 1991 0
-521 778 1968 1969 1970 1971 1972 1973 1974 1975 1976 1977 1978 1979 1980 1981 1982 1983 1984 1985 1986 1987 1988 1989 1990 1991 0
-522 779 1968 1969 1970 1971 1972 1973 1974 1975 1976 1977 1978 1979 1980 1981 1982 1983 1984 1985 1986 1987 1988 1989 1990 1991 0
-523 780 1968 1969 1970 1971 1972 1973 1974 1975 1976 1977 1978 1979 1980 1981 1982 1983 1984 1985 1986 1987 1988 1989 1990 1991 0
-524 781 1968 1969 1970 1971 1972 1973 1974 1975 1976 1977 1978 1979 1980 1981 1982 1983 1984 1985 1986 1987 1988 1989 1990 1991 0
-574 831 1992 1993 1994 1995 1996 1997 1998 1999 2000 2001 2002 2003 2004 2005 2006 2007 2008 2009 2010 2011 2012 2013 2014 2015 0
-575 832 1992 1993 1994 1995 1996 1997 1998 1999 2000 2001 2002 2003 2004 2005 2006 2007 2008 2009 2010 2011 2012 2013 2014 2015 0
-576 833 1992 1993 1994 1995 1996 1997 1998 1999 2000 2001 2002 2003 2004 2005 2006 2007 2008 2009 2010 2011 2012 2013 2014 2015 0
-577 834 1992 1993 1994 1995 1996 1997 1998 1999 2000 2001 2002 2003 2004 2005 2006 2007 2008 2009 2010 2011 2012 2013 2014 2015 0
-578 835 1992 1993 1994 1995 1996 1997 1998 1999 2000 2001 2002 2003 2004 2005 2006 2007 2008 2009 2010 2011 2012 2013 2014 2015 0
-579 836 1992 1993 1994 1995 1996 1997 1998 1999 2000 2001 2002 2003 2004 2005 2006 2007 2008 2009 2010 2011 2012 2013 2014 2015 0
-580 837 1992 1993 1994 1995 1996 1997 1998 1999 2000 2001 2002 2003 2004 2005 2006 2007 2008 2009 2010 2011 2012 2013 2014 2015 0
-581 838 1992 1993 1994 1995 1996 1997 1998 1999 2000 2001 2002 2003 2004 2005 2006 2007 2008 2009 2010 2011 2012 2013 2014 2015 0
-582 839 1992 1993 1994 1995 1996 1997 1998 1999 2000 2001 2002 2003 2004 2005 2006 2007 2008 2009 2010 2011 2012 2013 2014 2015 0
-583 840 1992 1993 1994 1995 1996 1997 1998 1999 2000 2001 2002 2003 2004 2005 2006 2007 2008 2009 2010 2011 2012 2013 2014 2015 0
-633 890 2016 2017 2018 2019 2020 2021 2022 2023 2024 2025 2026 2027 2028 2029 2030 2031 2032 2033 2034 2035 0
-634 891 2016 2017 2018 2019 2020 2021 2022 2023 2024 2025 2026 2027 2028 2029 2030 2031 2032 2033 2034 2035 0
-635 892 2016 2017 2018 2019 2020 2021 2022 2023 2024 2025 2026 2027 2028 2029 2030 2031 2032 2033 2034 2035 0
-636 893 2016 2017 2018 2019 2020 2021 2022 2023 2024 2025 2026 2027 2028 2029 2030 2031 2032 2033 2034 2035 0
-637 894 2016 2017 2018 2019 2020 2021 2022 2023 2024 2025 2026 2027 2028 2029 2030 2031 2032 2033 2034 2035 0
-638 895 2016 2017 2018 2019 2020 2021 2022 2023 2024 2025 2026 2027 2028 2029 2030 2031 2032 2033 2034 2035 0
-639 896 2016 2017 2018 2019 2020 2021 2022 2023 2024 2025 2026 2027 2028 2029 2030 2031 2032 2033 2034 2035 0
-640 897 2016 2017 2018 2019 2020 2021 2022 2023 2024 2025 2026 2027 2028 2029 2030 2031 2032 2033 2034 2035 0
-641 898 2016 2017 2018 2019 2020 2021 2022 2023 2024 2025 2026 2027 2028 2029 2030 2031 2032 2033 2034 2035 0
-691 948 2036 2037 2038 2039 2040 2041 2042 2043 2044 2045 2046 2047 2048 2049 2050 2051 0
-692 949 2036 2037 2038 2039 2040 2041 2042 2043 2044 2045 2046 2047 2048 2049 2050 2051 0
-693 950 2036 2037 2038 2039 2040 2041 2042 2043 2044 2045 2046 2047 2048 2049 2050 2051 0
-694 951 2036 2037 2038 2039 2040 2041 2042 2043 2044 2045 2046 2047 2048 2049 2050 2051 0
-695 952 2036 2037 2038 2039 2040 2041 2042 2043 2044 2045 2046 2047 2048 2049 2050 2051 0
-696 953 2036 2037 2038 2039 2040 2041 2042 2043 2044 2045 2046 2047 2048 2049 2050 2051 0
-697 954 2036 2037 2038 2039 2040 2041 2042 2043 2044 2045 2046 2047 2048 2049 2050 2051 0
-698 955 2036 2037 2038 2039 2040 2041 2042 2043 2044 2045 2046 2047 2048 2049 2050 2051 0
-2052 -2053 0
-2052 -2054 0
-2052 -2055 0
-2052 -2056 0
-2052 -2057 0
-2052 -2058 0
-2052 -2059 0
-2052 -2060 0
-2052 -2061 0
-2052 -2062 0
-2052 -2063 0
-2052 -2064 0
-2052 -2065 0
-2052 -2066 0
-2052 -2067 0
-2052 -2068 0
-2052 -2069 0
-2052 -2070 0
-2052 -2071 0
-2052 -2072 0
-2052 -2073 0
-2052 -2074 0
-2052 -2075 0
-2052 -2076 0
-2052 -2077 0
-2052 -2078 0
-2052 -2079 0
-2052 -2080 0
-2052 -2081 0
-2052 -2082 0
-2052 -2083 0
-2052 -2084 0
-2052 -2085 0
-2052 -2086 0
-2052 -2087 0
-2052 -2088 0
-2052 -2089 0
-2052 -2090 0
-2052 -2091 0
-2052 -2092 0
-2052 -2093 0
-2052 -2094 0
-2052 -2095 0
-2052 -2096 0
-2052 -2097 0
-2052 -2098 0
-2052 -2099 0
-2052 -2100 0
-2052 -2101 0
-2052 -2102 0
-2052 -2103 0
-2052 -2104 0
-2052 -2105 0
-2052 -2106 0
-2052 -2107 0
-2052 -2108 0
-2052 -2109 0
-2052 -2110 0
-2052 -2111 0
-2052 -2112 0
-2052 -2113 0
-2052 -2114 0
-2052 -2115 0
-2052 -2116 0
-2052 -2117 0
-2052 -2118 0
-2052 -2119 0
-2052 -2120 0
-2052 -2121 0
-2052 -2122 0
-2052 -2123 0
-2052 -2124 0
-2052 -2125 0
-2052 -2126 0
-2052 -2127 0
-2052 -2128 0
-2052 -2129 0
-2052 -2130 0
-2052 -2131 0
-2052 -2132 0
-2052 -2133 0
-2052 -2134 0
-2052 -2135 0
-2053 -2054 0
-2053 -2055 0
-2053 -2056 0
-2053 -2057 0
-2053 -2058 0
-2053 -2059 0
-2053 -2060 0
-2053 -2061 0
-2053 -2062 0
-2053 -2063 0
-2053 -2064 0
-2053 -2065 0
-2053 -2066 0
-2053 -2067 0
-2053 -2068 0
-2053 -2069 0
-2053 -2070 0
-2053 -2071 0
-2053 -2072 0
-2053 -2073 0
-2053 -2074 0
-2053 -2075 0
-2053 -2076 0
-2053 -2077 0
-2053 -2078 0
-2053 -2079 0
-2053 -2080 0
-2053 -2081 0
-2053 -2082 0
-2053 -2083 0
-2053 -2084 0
-2053 -2085 0
-2053 -2086 0
-2053 -2087 0
-2053 -2088 0
-2053 -2089 0
-2053 -2090 0
-2053 -2091 0
-2053 -2092 0
-2053 -2093 0
-2053 -2094 0
-2053 -2095 0
-2053 -2096 0
-2053 -2097 0
-2053 -2098 0
-2053 -2099 0
-2053 -2100 0
-2053 -2101 0
-2053 -2102 0
-2053 -2103 0
-2053 -2104 0
-2053 -2105 0
-2053 -2106 0
-2053 -2107 0
-2053 -2108 0
-2053 -2109 0
-2053 -2110 0
-2053 -2111 0
-2053 -2112 0
-2053 -2113 0
-2053 -2114 0
-2053 -2115 0
-2053 -2116 0
-2053 -2117 0
-2053 -2118 0
-2053 -2119 0
-2053 -2120 0
-2053 -2121 0
-2053 -2122 0
-2053 -2123 0
-2053 -2124 0
-2053 -2125 0
-2053 -2126 0
-2053 -2127 0
-2053 -2128 0
-2053 -2129 0
-2053 -2130 0
-2053 -2131 0
-2053 -2132 0
-2053 -2133 0
-2053 -2134 0
-2053 -2135 0
-2054 -2055 0
-2054 -2056 0
-2054 -2057 0
-2054 -2058 0
-2054 -2059 0
-2054 -2060 0
-2054 -2061 0
-2054 -2062 0
-2054 -2063 0
-2054 -2064 0
-2054 -2065 0
-2054 -2066 0
-2054 -2067 0
-2054 -2068 0
-2054 -2069 0
-2054 -2070 0
-2054 -2071 0
-2054 -2072 0
-2054 -2073 0
-2054 -2074 0
-2054 -2075 0
-2054 -2076 0
-2054 -2077 0
-2054 -2078 0
-2054 -2079 0
-2054 -2080 0
-2054 -2081 0
-2054 -2082 0
-2054 -2083 0
-2054 -2084 0
-2054 -2085 0
-2054 -2086 0
-2054 -2087 0
-2054 -2088 0
-2054 -2089 0
-2054 -2090 0
-2054 -2091 0
-2054 -2092 0
-2054 -2093 0
-2054 -2094 0
-2054 -2095 0
-2054 -2096 0
-2054 -2097 0
-2054 -2098 0
-2054 -2099 0
-2054 -2100 0
-2054 -2101 0
-2054 -2102 0
-2054 -2103 0
-2054 -2104 0
-2054 -2105 0
-2054 -2106 0
-2054 -2107 0
-2054 -2108 0
-2054 -2109 0
-2054 -2110 0
-2054 -2111 0
-2054 -2112 0
-2054 -2113 0
-2054 -2114 0
-2054 -2115 0
-2054 -2116 0
-2054 -2117 0
-2054 -2118 0
-2054 -2119 0
-2054 -2120 0
-2054 -2121 0
-2054 -2122 0
-2054 -2123 0
-2054 -2124 0
-2054 -2125 0
-2054 -2126 0
-2054 -2127 0
-2054 -2128 0
-2054 -2129 0
-2054 -2130 0
-2054 -2131 0
-2054 -2132 0
-2054 -2133 0
-2054 -2134 0
-2054 -2135 0
-2055 -2056 0
-2055 -2057 0
-2055 -2058 0
-2055 -2059 0
-2055 -2060 0
-2055 -2061 0
-2055 -2062 0
-2055 -2063 0
-2055 -2064 0
-2055 -2065 0
-2055 -2066 0
-2055 -2067 0
-2055 -2068 0
-2055 -2069 0
-2055 -2070 0
-2055 -2071 0
-2055 -2072 0
-2055 -2073 0
-2055 -2074 0
-2055 -2075 0
-2055 -2076 0
-2055 -2077 0
-2055 -2078 0
-2055 -2079 0
-2055 -2080 0
-2055 -2081 0
-2055 -2082 0
-2055 -2083 0
-2055 -2084 0
-2055 -2085 0
-2055 -2086 0
-2055 -2087 0
-2055 -2088 0
-2055 -2089 0
-2055 -2090 0
-2055 -2091 0
-2055 -2092 0
-2055 -2093 0
-2055 -2094 0
-2055 -2095 0
-2055 -2096 0
-2055 -2097 0
-2055 -2098 0
-2055 -2099 0
-2055 -2100 0
-2055 -2101 0
-2055 -2102 0
-2055 -2103 0
-2055 -2104 0
-2055 -2105 0
-2055 -2106 0
-2055 -2107 0
-2055 -2108 0
-2055 -2109 0
-2055 -2110 0
-2055 -2111 0
-2055 -2112 0
-2055 -2113 0
-2055 -2114 0
-2055 -2115 0
-2055 -2116 0
-2055 -2117 0
-2055 -2118 0
-2055 -2119 0
-2055 -2120 0
-2055 -2121 0
-2055 -2122 0
-2055 -2123 0
-2055 -2124 0
-2055 -2125 0
-2055 -2126 0
-2055 -2127 0
-2055 -2128 0
-2055 -2129 0
-2055 -2130 0
-2055 -2131 0
-2055 -2132 0
-2055 -2133 0
-2055 -2134 0
-2055 -2135 0
-2056 -2057 0
-2056 -2058 0
-2056 -2059 0
-2056 -2060 0
-2056 -2061 0
-2056 -2062 0
-2056 -2063 0
-2056 -2064 0
-2056 -2065 0
-2056 -2066 0
-2056 -2067 0
-2056 -2068 0
-2056 -2069 0
-2056 -2070 0
-2056 -2071 0
-2056 -2072 0
-2056 -2073 0
-2056 -2074 0
-2056 -2075 0
-2056 -2076 0
-2056 -2077 0
-2056 -2078 0
-2056 -2079 0
-2056 -2080 0
-2056 -2081 0
-2056 -2082 0
-2056 -2083 0
-2056 -2084 0
-2056 -2085 0
-2056 -2086 0
-2056 -2087 0
-2056 -2088 0
-2056 -2089 0
-2056 -2090 0
-2056 -2091 0
-2056 -2092 0
-2056 -2093 0
-2056 -2094 0
-2056 -2095 0
-2056 -2096 0
-2056 -2097 0
-2056 -2098 0
-2056 -2099 0
-2056 -2100 0
-2056 -2101 0
-2056 -2102 0
-2056 -2103 0
-2056 -2104 0
-2056 -2105 0
-2056 -2106 0
-2056 -2107 0
-2056 -2108 0
-2056 -2109 0
-2056 -2110 0
-2056 -2111 0
-2056 -2112 0
-2056 -2113 0
-2056 -2114 0
-2056 -2115 0
-2056 -2116 0
-2056 -2117 0
-2056 -2118 0
-2056 -2119 0
-2056 -2120 0
-2056 -2121 0
-2056 -2122 0
-2056 -2123 0
-2056 -2124 0
-2056 -2125 0
-2056 -2126 0
-2056 -2127 0
-2056 -2128 0
-2056 -2129 0
-2056 -2130 0
-2056 -2131 0
-2056 -2132 0
-2056 -2133 0
-2056 -2134 0
-2056 -2135 0
-2057 -2058 0
-2057 -2059 0
-2057 -2060 0
-2057 -2061 0
-2057 -2062 0
-2057 -2063 0
-2057 -2064 0
-2057 -2065 0
-2057 -2066 0
-2057 -2067 0
-2057 -2068 0
-2057 -2069 0
-2057 -2070 0
-2057 -2071 0
-2057 -2072 0
-2057 -2073 0
-2057 -2074 0
-2057 -2075 0
-2057 -2076 0
-2057 -2077 0
-2057 -2078 0
-2057 -2079 0
-2057 -2080 0
-2057 -2081 0
-2057 -2082 0
-2057 -2083 0
-2057 -2084 0
-2057 -2085 0
-2057 -2086 0
-2057 -2087 0
-2057 -2088 0
-2057 -2089 0
-2057 -2090 0
-2057 -2091 0
-2057 -2092 0
-2057 -2093 0
-2057 -2094 0
-2057 -2095 0
-2057 -2096 0
-2057 -2097 0
-2057 -2098 0
-2057 -2099 0
-2057 -2100 0
-2057 -2101 0
-2057 -2102 0
-2057 -2103 0
-2057 -2104 0
-2057 -2105 0
-2057 -2106 0
-2057 -2107 0
-2057 -2108 0
-2057 -2109 0
-2057 -2110 0
-2057 -2111 0
-2057 -2112 0
-2057 -2113 0
-2057 -2114 0
-2057 -2115 0
-2057 -2116 0
-2057 -2117 0
-2057 -2118 0
-2057 -2119 0
-2057 -2120 0
-2057 -2121 0
-2057 -2122 0
-2057 -2123 0
-2057 -2124 0
-2057 -2125 0
-2057 -2126 0
-2057 -2127 0
-2057 -2128 0
-2057 -2129 0
-2057 -2130 0
-2057 -2131 0
-2057 -2132 0
-2057 -2133 0
-2057 -2134 0
-2057 -2135 0
-2058 -2059 0
-2058 -2060 0
-2058 -2061 0
-2058 -2062 0
-2058 -2063 0
-2058 -2064 0
-2058 -2065 0
-2058 -2066 0
-2058 -2067 0
-2058 -2068 0
-2058 -2069 0
-2058 -2070 0
-2058 -2071 0
-2058 -2072 0
-2058 -2073 0
-2058 -2074 0
-2058 -2075 0
-2058 -2076 0
-2058 -2077 0
-2058 -2078 0
-2058 -2079 0
-2058 -2080 0
-2058 -2081 0
-2058 -2082 0
-2058 -2083 0
-2058 -2084 0
-2058 -2085 0
-2058 -2086 0
-2058 -2087 0
-2058 -2088 0
-2058 -2089 0
-2058 -2090 0
-2058 -2091 0
-2058 -2092 0
-2058 -2093 0
-2058 -2094 0
-2058 -2095 0
-2058 -2096 0
-2058 -2097 0
-2058 -2098 0
-2058 -2099 0
-2058 -2100 0
-2058 -2101 0
-2058 -2102 0
-2058 -2103 0
-2058 -2104 0
-2058 -2105 0
-2058 -2106 0
-2058 -2107 0
-2058 -2108 0
-2058 -2109 0
-2058 -2110 0
-2058 -2111 0
-2058 -2112 0
-2058 -2113 0
-2058 -2114 0
-2058 -2115 0
-2058 -2116 0
-2058 -2117 0
-2058 -2118 0
-2058 -2119 0
-2058 -2120 0
-2058 -2121 0
-2058 -2122 0
-2058 -2123 0
-2058 -2124 0
-2058 -2125 0
-2058 -2126 0
-2058 -2127 0
-2058 -2128 0
-2058 -2129 0
-2058 -2130 0
-2058 -2131 0
-2058 -2132 0
-2058 -2133 0
-2058 -2134 0
-2058 -2135 0
-2059 -2060 0
-2059 -2061 0
-2059 -2062 0
-2059 -2063 0
-2059 -2064 0
-2059 -2065 0
-2059 -2066 0
-2059 -2067 0
-2059 -2068 0
-2059 -2069 0
-2059 -2070 0
-2059 -2071 0
-2059 -2072 0
-2059 -2073 0
-2059 -2074 0
-2059 -2075 0
-2059 -2076 0
-2059 -2077 0
-2059 -2078 0
-2059 -2079 0
-2059 -2080 0
-2059 -2081 0
-2059 -2082 0
-2059 -2083 0
-2059 -2084 0
-2059 -2085 0
-2059 -2086 0
-2059 -2087 0
-2059 -2088 0
-2059 -2089 0
-2059 -2090 0
-2059 -2091 0
-2059 -2092 0
-2059 -2093 0
-2059 -2094 0
-2059 -2095 0
-2059 -2096 0
-2059 -2097 0
-2059 -2098 0
-2059 -2099 0
-2059 -2100 0
-2059 -2101 0
-2059 -2102 0
-2059 -2103 0
-2059 -2104 0
-2059 -2105 0
-2059 -2106 0
-2059 -2107 0
-2059 -2108 0
-2059 -2109 0
-2059 -2110 0
-2059 -2111 0
-2059 -2112 0
-2059 -2113 0
-2059 -2114 0
-2059 -2115 0
-2059 -2116 0
-2059 -2117 0
-2059 -2118 0
-2059 -2119 0
-2059 -2120 0
-2059 -2121 0
-2059 -2122 0
-2059 -2123 0
-2059 -2124 0
-2059 -2125 0
-2059 -2126 0
-2059 -2127 0
-2059 -2128 0
-2059 -2129 0
-2059 -2130 0
-2059 -2131 0
-2059 -2132 0
-2059 -2133 0
-2059 -2134 0
-2059 -2135 0
-2060 -2061 0
-2060 -2062 0
-2060 -2063 0
-2060 -2064 0
-2060 -2065 0
-2060 -2066 0
-2060 -2067 0
-2060 -2068 0
-2060 -2069 0
-2060 -2070 0
-2060 -2071 0
-2060 -2072 0
-2060 -2073 0
-2060 -2074 0
-2060 -2075 0
-2060 -2076 0
-2060 -2077 0
-2060 -2078 0
-2060 -2079 0
-2060 -2080 0
-2060 -2081 0
-2060 -2082 0
-2060 -2083 0
-2060 -2084 0
-2060 -2085 0
-2060 -2086 0
-2060 -2087 0
-2060 -2088 0
-2060 -2089 0
-2060 -2090 0
-2060 -2091 0
-2060 -2092 0
-2060 -2093 0
-2060 -2094 0
-2060 -2095 0
-2060 -2096 0
-2060 -2097 0
-2060 -2098 0
-2060 -2099 0
-2060 -2100 0
-2060 -2101 0
-2060 -2102 0
-2060 -2103 0
-2060 -2104 0
-2060 -2105 0
-2060 -2106 0
-2060 -2107 0
-2060 -2108 0
-2060 -2109 0
-2060 -2110 0
-2060 -2111 0
-2060 -2112 0
-2060 -2113 0
-2060 -2114 0
-2060 -2115 0
-2060 -2116 0
-2060 -2117 0
-2060 -2118 0
-2060 -2119 0
-2060 -2120 0
-2060 -2121 0
-2060 -2122 0
-2060 -2123 0
-2060 -2124 0
-2060 -2125 0
-2060 -2126 0
-2060 -2127 0
-2060 -2128 0
-2060 -2129 0
-2060 -2130 0
-2060 -2131 0
-2060 -2132 0
-2060 -2133 0
-2060 -2134 0
-2060 -2135 0
-2061 -2062 0
-2061 -2063 0
-2061 -2064 0
-2061 -2065 0
-2061 -2066 0
-2061 -2067 0
-2061 -2068 0
-2061 -2069 0
-2061 -2070 0
-2061 -2071 0
-2061 -2072 0
-2061 -2073 0
-2061 -2074 0
-2061 -2075 0
-2061 -2076 0
-2061 -2077 0
-2061 -2078 0
-2061 -2079 0
-2061 -2080 0
-2061 -2081 0
-2061 -2082 0
-2061 -2083 0
-2061 -2084 0
-2061 -2085 0
-2061 -2086 0
-2061 -2087 0
-2061 -2088 0
-2061 -2089 0
-2061 -2090 0
-2061 -2091 0
-2061 -2092 0
-2061 -2093 0
-2061 -2094 0
-2061 -2095 0
-2061 -2096 0
-2061 -2097 0
-2061 -2098 0
-2061 -2099 0
-2061 -2100 0
-2061 -2101 0
-2061 -2102 0
-2061 -2103 0
-2061 -2104 0
-2061 -2105 0
-2061 -2106 0
-2061 -2107 0
-2061 -2108 0
-2061 -2109 0
-2061 -2110 0
-2061 -2111 0
-2061 -2112 0
-2061 -2113 0
-2061 -2114 0
-2061 -2115 0
-2061 -2116 0
-2061 -2117 0
-2061 -2118 0
-2061 -2119 0
-2061 -2120 0
-2061 -2121 0
-2061 -2122 0
-2061 -2123 0
-2061 -2124 0
-2061 -2125 0
-2061 -2126 0
-2061 -2127 0
-2061 -2128 0
-2061 -2129 0
-2061 -2130 0
-2061 -2131 0
-2061 -2132 0
-2061 -2133 0
-2061 -2134 0
-2061 -2135 0
-2062 -2063 0
-2062 -2064 0
-2062 -2065 0
-2062 -2066 0
-2062 -2067 0
-2062 -2068 0
-2062 -2069 0
-2062 -2070 0
-2062 -2071 0
-2062 -2072 0
-2062 -2073 0
-2062 -2074 0
-2062 -2075 0
-2062 -2076 0
-2062 -2077 0
-2062 -2078 0
-2062 -2079 0
-2062 -2080 0
-2062 -2081 0
-2062 -2082 0
-2062 -2083 0
-2062 -2084 0
-2062 -2085 0
-2062 -2086 0
-2062 -2087 0
-2062 -2088 0
-2062 -2089 0
-2062 -2090 0
-2062 -2091 0
-2062 -2092 0
-2062 -2093 0
-2062 -2094 0
-2062 -2095 0
-2062 -2096 0
-2062 -2097 0
-2062 -2098 0
-2062 -2099 0
-2062 -2100 0
-2062 -2101 0
-2062 -2102 0
-2062 -2103 0
-2062 -2104 0
-2062 -2105 0
-2062 -2106 0
-2062 -2107 0
-2062 -2108 0
-2062 -2109 0
-2062 -2110 0
-2062 -2111 0
-2062 -2112 0
-2062 -2113 0
-2062 -2114 0
-2062 -2115 0
-2062 -2116 0
-2062 -2117 0
-2062 -2118 0
-2062 -2119 0
-2062 -2120 0
-2062 -2121 0
-2062 -2122 0
-2062 -2123 0
-2062 -2124 0
-2062 -2125 0
-2062 -2126 0
-2062 -2127 0
-2062 -2128 0
-2062 -2129 0
-2062 -2130 0
-2062 -2131 0
-2062 -2132 0
-2062 -2133 0
-2062 -2134 0
-2062 -2135 0
-2063 -2064 0
-2063 -2065 0
-2063 -2066 0
-2063 -2067 0
-2063 -2068 0
-2063 -2069 0
-2063 -2070 0
-2063 -2071 0
-2063 -2072 0
-2063 -2073 0
-2063 -2074 0
-2063 -2075 0
-2063 -2076 0
-2063 -2077 0
-2063 -2078 0
-2063 -2079 0
-2063 -2080 0
-2063 -2081 0
-2063 -2082 0
-2063 -2083 0
-2063 -2084 0
-2063 -2085 0
-2063 -2086 0
-2063 -2087 0
-2063 -2088 0
-2063 -2089 0
-2063 -2090 0
-2063 -2091 0
-2063 -2092 0
-2063 -2093 0
-2063 -2094 0
-2063 -2095 0
-2063 -2096 0
-2063 -2097 0
-2063 -2098 0
-2063 -2099 0
-2063 -2100 0
-2063 -2101 0
-2063 -2102 0
-2063 -2103 0
-2063 -2104 0
-2063 -2105 0
-2063 -2106 0
-2063 -2107 0
-2063 -2108 0
-2063 -2109 0
-2063 -2110 0
-2063 -2111 0
-2063 -2112 0
-2063 -2113 0
-2063 -2114 0
-2063 -2115 0
-2063 -2116 0
-2063 -2117 0
-2063 -2118 0
-2063 -2119 0
-2063 -2120 0
-2063 -2121 0
-2063 -2122 0
-2063 -2123 0
-2063 -2124 0
-2063 -2125 0
-2063 -2126 0
-2063 -2127 0
-2063 -2128 0
-2063 -2129 0
-2063 -2130 0
-2063 -2131 0
-2063 -2132 0
-2063 -2133 0
-2063 -2134 0
-2063 -2135 0
-2064 -2065 0
-2064 -2066 0
-2064 -2067 0
-2064 -2068 0
-2064 -2069 0
-2064 -2070 0
-2064 -2071 0
-2064 -2072 0
-2064 -2073 0
-2064 -2074 0
-2064 -2075 0
-2064 -2076 0
-2064 -2077 0
-2064 -2078 0
-2064 -2079 0
-2064 -2080 0
-2064 -2081 0
-2064 -2082 0
-2064 -2083 0
-2064 -2084 0
-2064 -2085 0
-2064 -2086 0
-2064 -2087 0
-2064 -2088 0
-2064 -2089 0
-2064 -2090 0
-2064 -2091 0
-2064 -2092 0
-2064 -2093 0
-2064 -2094 0
-2064 -2095 0
-2064 -2096 0
-2064 -2097 0
-2064 -2098 0
-2064 -2099 0
-2064 -2100 0
-2064 -2101 0
-2064 -2102 0
-2064 -2103 0
-2064 -2104 0
-2064 -2105 0
-2064 -2106 0
-2064 -2107 0
-2064 -2108 0
-2064 -2109 0
-2064 -2110 0
-2064 -2111 0
-2064 -2112 0
-2064 -2113 0
-2064 -2114 0
-2064 -2115 0
-2064 -2116 0
-2064 -2117 0
-2064 -2118 0
-2064 -2119 0
-2064 -2120 0
-2064 -2121 0
-2064 -2122 0
-2064 -2123 0
-2064 -2124 0
-2064 -2125 0
-2064 -2126 0
-2064 -2127 0
-2064 -2128 0
-2064 -2129 0
-2064 -2130 0
-2064 -2131 0
-2064 -2132 0
-2064 -2133 0
-2064 -2134 0
-2064 -2135 0
-2065 -2066 0
-2065 -2067 0
-2065 -2068 0
-2065 -2069 0
-2065 -2070 0
-2065 -2071 0
-2065 -2072 0
-2065 -2073 0
-2065 -2074 0
-2065 -2075 0
-2065 -2076 0
-2065 -2077 0
-2065 -2078 0
-2065 -2079 0
-2065 -2080 0
-2065 -2081 0
-2065 -2082 0
-2065 -2083 0
-2065 -2084 0
-2065 -2085 0
-2065 -2086 0
-2065 -2087 0
-2065 -2088 0
-2065 -2089 0
-2065 -2090 0
-2065 -2091 0
-2065 -2092 0
-2065 -2093 0
-2065 -2094 0
-2065 -2095 0
-2065 -2096 0
-2065 -2097 0
-2065 -2098 0
-2065 -2099 0
-2065 -2100 0
-2065 -2101 0
-2065 -2102 0
-2065 -2103 0
-2065 -2104 0
-2065 -2105 0
-2065 -2106 0
-2065 -2107 0
-2065 -2108 0
-2065 -2109 0
-2065 -2110 0
-2065 -2111 0
-2065 -2112 0
-2065 -2113 0
-2065 -2114 0
-2065 -2115 0
-2065 -2116 0
-2065 -2117 0
-2065 -2118 0
-2065 -2119 0
-2065 -2120 0
-2065 -2121 0
-2065 -2122 0
-2065 -2123 0
-2065 -2124 0
-2065 -2125 0
-2065 -2126 0
-2065 -2127 0
-2065 -2128 0
-2065 -2129 0
-2065 -2130 0
-2065 -2131 0
-2065 -2132 0
-2065 -2133 0
-2065 -2134 0
-2065 -2135 0
-2066 -2067 0
-2066 -2068 0
-2066 -2069 0
-2066 -2070 0
-2066 -2071 0
-2066 -2072 0
-2066 -2073 0
-2066 -2074 0
-2066 -2075 0
-2066 -2076 0
-2066 -2077 0
-2066 -2078 0
-2066 -2079 0
-2066 -2080 0
-2066 -2081 0
-2066 -2082 0
-2066 -2083 0
-2066 -2084 0
-2066 -2085 0
-2066 -2086 0
-2066 -2087 0
-2066 -2088 0
-2066 -2089 0
-2066 -2090 0
-2066 -2091 0
-2066 -2092 0
-2066 -2093 0
-2066 -2094 0
-2066 -2095 0
-2066 -2096 0
-2066 -2097 0
-2066 -2098 0
-2066 -2099 0
-2066 -2100 0
-2066 -2101 0
-2066 -2102 0
-2066 -2103 0
-2066 -2104 0
-2066 -2105 0
-2066 -2106 0
-2066 -2107 0
-2066 -2108 0
-2066 -2109 0
-2066 -2110 0
-2066 -2111 0
-2066 -2112 0
-2066 -2113 0
-2066 -2114 0
-2066 -2115 0
-2066 -2116 0
-2066 -2117 0
-2066 -2118 0
-2066 -2119 0
-2066 -2120 0
-2066 -2121 0
-2066 -2122 0
-2066 -2123 0
-2066 -2124 0
-2066 -2125 0
-2066 -2126 0
-2066 -2127 0
-2066 -2128 0
-2066 -2129 0
-2066 -2130 0
-2066 -2131 0
-2066 -2132 0
-2066 -2133 0
-2066 -2134 0
-2066 -2135 0
-2067 -2068 0
-2067 -2069 0
-2067 -2070 0
-2067 -2071 0
-2067 -2072 0
-2067 -2073 0
-2067 -2074 0
-2067 -2075 0
-2067 -2076 0
-2067 -2077 0
-2067 -2078 0
-2067 -2079 0
-2067 -2080 0
-2067 -2081 0
-2067 -2082 0
-2067 -2083 0
-2067 -2084 0
-2067 -2085 0
-2067 -2086 0
-2067 -2087 0
-2067 -2088 0
-2067 -2089 0
-2067 -2090 0
-2067 -2091 0
-2067 -2092 0
-2067 -2093 0
-2067 -2094 0
-2067 -2095 0
-2067 -2096 0
-2067 -2097 0
-2067 -2098 0
-2067 -2099 0
-2067 -2100 0
-2067 -2101 0
-2067 -2102 0
-2067 -2103 0
-2067 -2104 0
-2067 -2105 0
-2067 -2106 0
-2067 -2107 0
-2067 -2108 0
-2067 -2109 0
-2067 -2110 0
-2067 -2111 0
-2067 -2112 0
-2067 -2113 0
-2067 -2114 0
-2067 -2115 0
-2067 -2116 0
-2067 -2117 0
-2067 -2118 0
-2067 -2119 0
-2067 -2120 0
-2067 -2121 0
-2067 -2122 0
-2067 -2123 0
-2067 -2124 0
-2067 -2125 0
-2067 -2126 0
-2067 -2127 0
-2067 -2128 0
-2067 -2129 0
-2067 -2130 0
-2067 -2131 0
-2067 -2132 0
-2067 -2133 0
-2067 -2134 0
-2067 -2135 0
-2068 -2069 0
-2068 -2070 0
-2068 -2071 0
-2068 -2072 0
-2068 -2073 0
-2068 -2074 0
-2068 -2075 0
-2068 -2076 0
-2068 -2077 0
-2068 -2078 0
-2068 -2079 0
-2068 -2080 0
-2068 -2081 0
-2068 -2082 0
-2068 -2083 0
-2068 -2084 0
-2068 -2085 0
-2068 -2086 0
-2068 -2087 0
-2068 -2088 0
-2068 -2089 0
-2068 -2090 0
-2068 -2091 0
-2068 -2092 0
-2068 -2093 0
-2068 -2094 0
-2068 -2095 0
-2068 -2096 0
-2068 -2097 0
-2068 -2098 0
-2068 -2099 0
-2068 -2100 0
-2068 -2101 0
-2068 -2102 0
-2068 -2103 0
-2068 -2104 0
-2068 -2105 0
-2068 -2106 0
-2068 -2107 0
-2068 -2108 0
-2068 -2109 0
-2068 -2110 0
-2068 -2111 0
-2068 -2112 0
-2068 -2113 0
-2068 -2114 0
-2068 -2115 0
-2068 -2116 0
-2068 -2117 0
-2068 -2118 0
-2068 -2119 0
-2068 -2120 0
-2068 -2121 0
-2068 -2122 0
-2068 -2123 0
-2068 -2124 0
-2068 -2125 0
-2068 -2126 0
-2068 -2127 0
-2068 -2128 0
-2068 -2129 0
-2068 -2130 0
-2068 -2131 0
-2068 -2132 0
-2068 -2133 0
-2068 -2134 0
-2068 -2135 0
-2069 -2070 0
-2069 -2071 0
-2069 -2072 0
-2069 -2073 0
-2069 -2074 0
-2069 -2075 0
-2069 -2076 0
-2069 -2077 0
-2069 -2078 0
-2069 -2079 0
-2069 -2080 0
-2069 -2081 0
-2069 -2082 0
-2069 -2083 0
-2069 -2084 0
-2069 -2085 0
-2069 -2086 0
-2069 -2087 0
-2069 -2088 0
-2069 -2089 0
-2069 -2090 0
-2069 -2091 0
-2069 -2092 0
-2069 -2093 0
-2069 -2094 0
-2069 -2095 0
-2069 -2096 0
-2069 -2097 0
-2069 -2098 0
-2069 -2099 0
-2069 -2100 0
-2069 -2101 0
-2069 -2102 0
-2069 -2103 0
-2069 -2104 0
-2069 -2105 0
-2069 -2106 0
-2069 -2107 0
-2069 -2108 0
-2069 -2109 0
-2069 -2110 0
-2069 -2111 0
-2069 -2112 0
-2069 -2113 0
-2069 -2114 0
-2069 -2115 0
-2069 -2116 0
-2069 -2117 0
-2069 -2118 0
-2069 -2119 0
-2069 -2120 0
-2069 -2121 0
-2069 -2122 0
-2069 -2123 0
-2069 -2124 0
-2069 -2125 0
-2069 -2126 0
-2069 -2127 0
-2069 -2128 0
-2069 -2129 0
-2069 -2130 0
-2069 -2131 0
-2069 -2132 0
-2069 -2133 0
-2069 -2134 0
-2069 -2135 0
-2070 -2071 0
-2070 -2072 0
-2070 -2073 0
-2070 -2074 0
-2070 -2075 0
-2070 -2076 0
-2070 -2077 0
-2070 -2078 0
-2070 -2079 0
-2070 -2080 0
-2070 -2081 0
-2070 -2082 0
-2070 -2083 0
-2070 -2084 0
-2070 -2085 0
-2070 -2086 0
-2070 -2087 0
-2070 -2088 0
-2070 -2089 0
-2070 -2090 0
-2070 -2091 0
-2070 -2092 0
-2070 -2093 0
-2070 -2094 0
-2070 -2095 0
-2070 -2096 0
-2070 -2097 0
-2070 -2098 0
-2070 -2099 0
-2070 -2100 0
-2070 -2101 0
-2070 -2102 0
-2070 -2103 0
-2070 -2104 0
-2070 -2105 0
-2070 -2106 0
-2070 -2107 0
-2070 -2108 0
-2070 -2109 0
-2070 -2110 0
-2070 -2111 0
-2070 -2112 0
-2070 -2113 0
-2070 -2114 0
-2070 -2115 0
-2070 -2116 0
-2070 -2117 0
-2070 -2118 0
-2070 -2119 0
-2070 -2120 0
-2070 -2121 0
-2070 -2122 0
-2070 -2123 0
-2070 -2124 0
-2070 -2125 0
-2070 -2126 0
-2070 -2127 0
-2070 -2128 0
-2070 -2129 0
-2070 -2130 0
-2070 -2131 0
-2070 -2132 0
-2070 -2133 0
-2070 -2134 0
-2070 -2135 0
-2071 -2072 0
-2071 -2073 0
-2071 -2074 0
-2071 -2075 0
-2071 -2076 0
-2071 -2077 0
-2071 -2078 0
-2071 -2079 0
-2071 -2080 0
-2071 -2081 0
-2071 -2082 0
-2071 -2083 0
-2071 -2084 0
-2071 -2085 0
-2071 -2086 0
-2071 -2087 0
-2071 -2088 0
-2071 -2089 0
-2071 -2090 0
-2071 -2091 0
-2071 -2092 0
-2071 -2093 0
-2071 -2094 0
-2071 -2095 0
-2071 -2096 0
-2071 -2097 0
-2071 -2098 0
-2071 -2099 0
-2071 -2100 0
-2071 -2101 0
-2071 -2102 0
-2071 -2103 0
-2071 -2104 0
-2071 -2105 0
-2071 -2106 0
-2071 -2107 0
-2071 -2108 0
-2071 -2109 0
-2071 -2110 0
-2071 -2111 0
-2071 -2112 0
-2071 -2113 0
-2071 -2114 0
-2071 -2115 0
-2071 -2116 0
-2071 -2117 0
-2071 -2118 0
-2071 -2119 0
-2071 -2120 0
-2071 -2121 0
-2071 -2122 0
-2071 -2123 0
-2071 -2124 0
-2071 -2125 0
-2071 -2126 0
-2071 -2127 0
-2071 -2128 0
-2071 -2129 0
-2071 -2130 0
-2071 -2131 0
-2071 -2132 0
-2071 -2133 0
-2071 -2134 0
-2071 -2135 0
-2072 -2073 0
-2072 -2074 0
-2072 -2075 0
-2072 -2076 0
-2072 -2077 0
-2072 -2078 0
-2072 -2079 0
-2072 -2080 0
-2072 -2081 0
-2072 -2082 0
-2072 -2083 0
-2072 -2084 0
-2072 -2085 0
-2072 -2086 0
-2072 -2087 0
-2072 -2088 0
-2072 -2089 0
-2072 -2090 0
-2072 -2091 0
-2072 -2092 0
-2072 -2093 0
-2072 -2094 0
-2072 -2095 0
-2072 -2096 0
-2072 -2097 0
-2072 -2098 0
-2072 -2099 0
-2072 -2100 0
-2072 -2101 0
-2072 -2102 0
-2072 -2103 0
-2072 -2104 0
-2072 -2105 0
-2072 -2106 0
-2072 -2107 0
-2072 -2108 0
-2072 -2109 0
-2072 -2110 0
-2072 -2111 0
-2072 -2112 0
-2072 -2113 0
-2072 -2114 0
-2072 -2115 0
-2072 -2116 0
-2072 -2117 0
-2072 -2118 0
-2072 -2119 0
-2072 -2120 0
-2072 -2121 0
-2072 -2122 0
-2072 -2123 0
-2072 -2124 0
-2072 -2125 0
-2072 -2126 0
-2072 -2127 0
-2072 -2128 0
-2072 -2129 0
-2072 -2130 0
-2072 -2131 0
-2072 -2132 0
-2072 -2133 0
-2072 -2134 0
-2072 -2135 0
-2073 -2074 0
-2073 -2075 0
-2073 -2076 0
-2073 -2077 0
-2073 -2078 0
-2073 -2079 0
-2073 -2080 0
-2073 -2081 0
-2073 -2082 0
-2073 -2083 0
-2073 -2084 0
-2073 -2085 0
-2073 -2086 0
-2073 -2087 0
-2073 -2088 0
-2073 -2089 0
-2073 -2090 0
-2073 -2091 0
-2073 -2092 0
-2073 -2093 0
-2073 -2094 0
-2073 -2095 0
-2073 -2096 0
-2073 -2097 0
-2073 -2098 0
-2073 -2099 0
-2073 -2100 0
-2073 -2101 0
-2073 -2102 0
-2073 -2103 0
-2073 -2104 0
-2073 -2105 0
-2073 -2106 0
-2073 -2107 0
-2073 -2108 0
-2073 -2109 0
-2073 -2110 0
-2073 -2111 0
-2073 -2112 0
-2073 -2113 0
-2073 -2114 0
-2073 -2115 0
-2073 -2116 0
-2073 -2117 0
-2073 -2118 0
-2073 -2119 0
-2073 -2120 0
-2073 -2121 0
-2073 -2122 0
-2073 -2123 0
-2073 -2124 0
-2073 -2125 0
-2073 -2126 0
-2073 -2127 0
-2073 -2128 0
-2073 -2129 0
-2073 -2130 0
-2073 -2131 0
-2073 -2132 0
-2073 -2133 0
-2073 -2134 0
-2073 -2135 0
-2074 -2075 0
-2074 -2076 0
-2074 -2077 0
-2074 -2078 0
-2074 -2079 0
-2074 -2080 0
-2074 -2081 0
-2074 -2082 0
-2074 -2083 0
-2074 -2084 0
-2074 -2085 0
-2074 -2086 0
-2074 -2087 0
-2074 -2088 0
-2074 -2089 0
-2074 -2090 0
-2074 -2091 0
-2074 -2092 0
-2074 -2093 0
-2074 -2094 0
-2074 -2095 0
-2074 -2096 0
-2074 -2097 0
-2074 -2098 0
-2074 -2099 0
-2074 -2100 0
-2074 -2101 0
-2074 -2102 0
-2074 -2103 0
-2074 -2104 0
-2074 -2105 0
-2074 -2106 0
-2074 -2107 0
-2074 -2108 0
-2074 -2109 0
-2074 -2110 0
-2074 -2111 0
-2074 -2112 0
-2074 -2113 0
-2074 -2114 0
-2074 -2115 0
-2074 -2116 0
-2074 -2117 0
-2074 -2118 0
-2074 -2119 0
-2074 -2120 0
-2074 -2121 0
-2074 -2122 0
-2074 -2123 0
-2074 -2124 0
-2074 -2125 0
-2074 -2126 0
-2074 -2127 0
-2074 -2128 0
-2074 -2129 0
-2074 -2130 0
-2074 -2131 0
-2074 -2132 0
-2074 -2133 0
-2074 -2134 0
-2074 -2135 0
-2075 -2076 0
-2075 -2077 0
-2075 -2078 0
-2075 -2079 0
-2075 -2080 0
-2075 -2081 0
-2075 -2082 0
-2075 -2083 0
-2075 -2084 0
-2075 -2085 0
-2075 -2086 0
-2075 -2087 0
-2075 -2088 0
-2075 -2089 0
-2075 -2090 0
-2075 -2091 0
-2075 -2092 0
-2075 -2093 0
-2075 -2094 0
-2075 -2095 0
-2075 -2096 0
-2075 -2097 0
-2075 -2098 0
-2075 -2099 0
-2075 -2100 0
-2075 -2101 0
-2075 -2102 0
-2075 -2103 0
-2075 -2104 0
-2075 -2105 0
-2075 -2106 0
-2075 -2107 0
-2075 -2108 0
-2075 -2109 0
-2075 -2110 0
-2075 -2111 0
-2075 -2112 0
-2075 -2113 0
-2075 -2114 0
-2075 -2115 0
-2075 -2116 0
-2075 -2117 0
-2075 -2118 0
-2075 -2119 0
-2075 -2120 0
-2075 -2121 0
-2075 -2122 0
-2075 -2123 0
-2075 -2124 0
-2075 -2125 0
-2075 -2126 0
-2075 -2127 0
-2075 -2128 0
-2075 -2129 0
-2075 -2130 0
-2075 -2131 0
-2075 -2132 0
-2075 -2133 0
-2075 -2134 0
-2075 -2135 0
-2076 -2077 0
-2076 -2078 0
-2076 -2079 0
-2076 -2080 0
-2076 -2081 0
-2076 -2082 0
-2076 -2083 0
-2076 -2084 0
-2076 -2085 0
-2076 -2086 0
-2076 -2087 0
-2076 -2088 0
-2076 -2089 0
-2076 -2090 0
-2076 -2091 0
-2076 -2092 0
-2076 -2093 0
-2076 -2094 0
-2076 -2095 0
-2076 -2096 0
-2076 -2097 0
-2076 -2098 0
-2076 -2099 0
-2076 -2100 0
-2076 -2101 0
-2076 -2102 0
-2076 -2103 0
-2076 -2104 0
-2076 -2105 0
-2076 -2106 0
-2076 -2107 0
-2076 -2108 0
-2076 -2109 0
-2076 -2110 0
-2076 -2111 0
-2076 -2112 0
-2076 -2113 0
-2076 -2114 0
-2076 -2115 0
-2076 -2116 0
-2076 -2117 0
-2076 -2118 0
-2076 -2119 0
-2076 -2120 0
-2076 -2121 0
-2076 -2122 0
-2076 -2123 0
-2076 -2124 0
-2076 -2125 0
-2076 -2126 0
-2076 -2127 0
-2076 -2128 0
-2076 -2129 0
-2076 -2130 0
-2076 -2131 0
-2076 -2132 0
-2076 -2133 0
-2076 -2134 0
-2076 -2135 0
-2077 -2078 0
-2077 -2079 0
-2077 -2080 0
-2077 -2081 0
-2077 -2082 0
-2077 -2083 0
-2077 -2084 0
-2077 -2085 0
-2077 -2086 0
-2077 -2087 0
-2077 -2088 0
-2077 -2089 0
-2077 -2090 0
-2077 -2091 0
-2077 -2092 0
-2077 -2093 0
-2077 -2094 0
-2077 -2095 0
-2077 -2096 0
-2077 -2097 0
-2077 -2098 0
-2077 -2099 0
-2077 -2100 0
-2077 -2101 0
-2077 -2102 0
-2077 -2103 0
-2077 -2104 0
-2077 -2105 0
-2077 -2106 0
-2077 -2107 0
-2077 -2108 0
-2077 -2109 0
-2077 -2110 0
-2077 -2111 0
-2077 -2112 0
-2077 -2113 0
-2077 -2114 0
-2077 -2115 0
-2077 -2116 0
-2077 -2117 0
-2077 -2118 0
-2077 -2119 0
-2077 -2120 0
-2077 -2121 0
-2077 -2122 0
-2077 -2123 0
-2077 -2124 0
-2077 -2125 0
-2077 -2126 0
-2077 -2127 0
-2077 -2128 0
-2077 -2129 0
-2077 -2130 0
-2077 -2131 0
-2077 -2132 0
-2077 -2133 0
-2077 -2134 0
-2077 -2135 0
-2078 -2079 0
-2078 -2080 0
-2078 -2081 0
-2078 -2082 0
-2078 -2083 0
-2078 -2084 0
-2078 -2085 0
-2078 -2086 0
-2078 -2087 0
-2078 -2088 0
-2078 -2089 0
-2078 -2090 0
-2078 -2091 0
-2078 -2092 0
-2078 -2093 0
-2078 -2094 0
-2078 -2095 0
-2078 -2096 0
-2078 -2097 0
-2078 -2098 0
-2078 -2099 0
-2078 -2100 0
-2078 -2101 0
-2078 -2102 0
-2078 -2103 0
-2078 -2104 0
-2078 -2105 0
-2078 -2106 0
-2078 -2107 0
-2078 -2108 0
-2078 -2109 0
-2078 -2110 0
-2078 -2111 0
-2078 -2112 0
-2078 -2113 0
-2078 -2114 0
-2078 -2115 0
-2078 -2116 0
-2078 -2117 0
-2078 -2118 0
-2078 -2119 0
-2078 -2120 0
-2078 -2121 0
-2078 -2122 0
-2078 -2123 0
-2078 -2124 0
-2078 -2125 0
-2078 -2126 0
-2078 -2127 0
-2078 -2128 0
-2078 -2129 0
-2078 -2130 0
-2078 -2131 0
-2078 -2132 0
-2078 -2133 0
-2078 -2134 0
-2078 -2135 0
-2079 -2080 0
-2079 -2081 0
-2079 -2082 0
-2079 -2083 0
-2079 -2084 0
-2079 -2085 0
-2079 -2086 0
-2079 -2087 0
-2079 -2088 0
-2079 -2089 0
-2079 -2090 0
-2079 -2091 0
-2079 -2092 0
-2079 -2093 0
-2079 -2094 0
-2079 -2095 0
-2079 -2096 0
-2079 -2097 0
-2079 -2098 0
-2079 -2099 0
-2079 -2100 0
-2079 -2101 0
-2079 -2102 0
-2079 -2103 0
-2079 -2104 0
-2079 -2105 0
-2079 -2106 0
-2079 -2107 0
-2079 -2108 0
-2079 -2109 0
-2079 -2110 0
-2079 -2111 0
-2079 -2112 0
-2079 -2113 0
-2079 -2114 0
-2079 -2115 0
-2079 -2116 0
-2079 -2117 0
-2079 -2118 0
-2079 -2119 0
-2079 -2120 0
-2079 -2121 0
-2079 -2122 0
-2079 -2123 0
-2079 -2124 0
-2079 -2125 0
-2079 -2126 0
-2079 -2127 0
-2079 -2128 0
-2079 -2129 0
-2079 -2130 0
-2079 -2131 0
-2079 -2132 0
-2079 -2133 0
-2079 -2134 0
-2079 -2135 0
-2080 -2081 0
-2080 -2082 0
-2080 -2083 0
-2080 -2084 0
-2080 -2085 0
-2080 -2086 0
-2080 -2087 0
-2080 -2088 0
-2080 -2089 0
-2080 -2090 0
-2080 -2091 0
-2080 -2092 0
-2080 -2093 0
-2080 -2094 0
-2080 -2095 0
-2080 -2096 0
-2080 -2097 0
-2080 -2098 0
-2080 -2099 0
-2080 -2100 0
-2080 -2101 0
-2080 -2102 0
-2080 -2103 0
-2080 -2104 0
-2080 -2105 0
-2080 -2106 0
-2080 -2107 0
-2080 -2108 0
-2080 -2109 0
-2080 -2110 0
-2080 -2111 0
-2080 -2112 0
-2080 -2113 0
-2080 -2114 0
-2080 -2115 0
-2080 -2116 0
-2080 -2117 0
-2080 -2118 0
-2080 -2119 0
-2080 -2120 0
-2080 -2121 0
-2080 -2122 0
-2080 -2123 0
-2080 -2124 0
-2080 -2125 0
-2080 -2126 0
-2080 -2127 0
-2080 -2128 0
-2080 -2129 0
-2080 -2130 0
-2080 -2131 0
-2080 -2132 0
-2080 -2133 0
-2080 -2134 0
-2080 -2135 0
-2081 -2082 0
-2081 -2083 0
-2081 -2084 0
-2081 -2085 0
-2081 -2086 0
-2081 -2087 0
-2081 -2088 0
-2081 -2089 0
-2081 -2090 0
-2081 -2091 0
-2081 -2092 0
-2081 -2093 0
-2081 -2094 0
-2081 -2095 0
-2081 -2096 0
-2081 -2097 0
-2081 -2098 0
-2081 -2099 0
-2081 -2100 0
-2081 -2101 0
-2081 -2102 0
-2081 -2103 0
-2081 -2104 0
-2081 -2105 0
-2081 -2106 0
-2081 -2107 0
-2081 -2108 0
-2081 -2109 0
-2081 -2110 0
-2081 -2111 0
-2081 -2112 0
-2081 -2113 0
-2081 -2114 0
-2081 -2115 0
-2081 -2116 0
-2081 -2117 0
-2081 -2118 0
-2081 -2119 0
-2081 -2120 0
-2081 -2121 0
-2081 -2122 0
-2081 -2123 0
-2081 -2124 0
-2081 -2125 0
-2081 -2126 0
-2081 -2127 0
-2081 -2128 0
-2081 -2129 0
-2081 -2130 0
-2081 -2131 0
-2081 -2132 0
-2081 -2133 0
-2081 -2134 0
-2081 -2135 0
-2082 -2083 0
-2082 -2084 0
-2082 -2085 0
-2082 -2086 0
-2082 -2087 0
-2082 -2088 0
-2082 -2089 0
-2082 -2090 0
-2082 -2091 0
-2082 -2092 0
-2082 -2093 0
-2082 -2094 0
-2082 -2095 0
-2082 -2096 0
-2082 -2097 0
-2082 -2098 0
-2082 -2099 0
-2082 -2100 0
-2082 -2101 0
-2082 -2102 0
-2082 -2103 0
-2082 -2104 0
-2082 -2105 0
-2082 -2106 0
-2082 -2107 0
-2082 -2108 0
-2082 -2109 0
-2082 -2110 0
-2082 -2111 0
-2082 -2112 0
-2082 -2113 0
-2082 -2114 0
-2082 -2115 0
-2082 -2116 0
-2082 -2117 0
-2082 -2118 0
-2082 -2119 0
-2082 -2120 0
-2082 -2121 0
-2082 -2122 0
-2082 -2123 0
-2082 -2124 0
-2082 -2125 0
-2082 -2126 0
-2082 -2127 0
-2082 -2128 0
-2082 -2129 0
-2082 -2130 0
-2082 -2131 0
-2082 -2132 0
-2082 -2133 0
-2082 -2134 0
-2082 -2135 0
-2083 -2084 0
-2083 -2085 0
-2083 -2086 0
-2083 -2087 0
-2083 -2088 0
-2083 -2089 0
-2083 -2090 0
-2083 -2091 0
-2083 -2092 0
-2083 -2093 0
-2083 -2094 0
-2083 -2095 0
-2083 -2096 0
-2083 -2097 0
-2083 -2098 0
-2083 -2099 0
-2083 -2100 0
-2083 -2101 0
-2083 -2102 0
-2083 -2103 0
-2083 -2104 0
-2083 -2105 0
-2083 -2106 0
-2083 -2107 0
-2083 -2108 0
-2083 -2109 0
-2083 -2110 0
-2083 -2111 0
-2083 -2112 0
-2083 -2113 0
-2083 -2114 0
-2083 -2115 0
-2083 -2116 0
-2083 -2117 0
-2083 -2118 0
-2083 -2119 0
-2083 -2120 0
-2083 -2121 0
-2083 -2122 0
-2083 -2123 0
-2083 -2124 0
-2083 -2125 0
-2083 -2126 0
-2083 -2127 0
-2083 -2128 0
-2083 -2129 0
-2083 -2130 0
-2083 -2131 0
-2083 -2132 0
-2083 -2133 0
-2083 -2134 0
-2083 -2135 0
-2084 -2085 0
-2084 -2086 0
-2084 -2087 0
-2084 -2088 0
-2084 -2089 0
-2084 -2090 0
-2084 -2091 0
-2084 -2092 0
-2084 -2093 0
-2084 -2094 0
-2084 -2095 0
-2084 -2096 0
-2084 -2097 0
-2084 -2098 0
-2084 -2099 0
-2084 -2100 0
-2084 -2101 0
-2084 -2102 0
-2084 -2103 0
-2084 -2104 0
-2084 -2105 0
-2084 -2106 0
-2084 -2107 0
-2084 -2108 0
-2084 -2109 0
-2084 -2110 0
-2084 -2111 0
-2084 -2112 0
-2084 -2113 0
-2084 -2114 0
-2084 -2115 0
-2084 -2116 0
-2084 -2117 0
-2084 -2118 0
-2084 -2119 0
-2084 -2120 0
-2084 -2121 0
-2084 -2122 0
-2084 -2123 0
-2084 -2124 0
-2084 -2125 0
-2084 -2126 0
-2084 -2127 0
-2084 -2128 0
-2084 -2129 0
-2084 -2130 0
-2084 -2131 0
-2084 -2132 0
-2084 -2133 0
-2084 -2134 0
-2084 -2135 0
-2085 -2086 0
-2085 -2087 0
-2085 -2088 0
-2085 -2089 0
-2085 -2090 0
-2085 -2091 0
-2085 -2092 0
-2085 -2093 0
-2085 -2094 0
-2085 -2095 0
-2085 -2096 0
-2085 -2097 0
-2085 -2098 0
-2085 -2099 0
-2085 -2100 0
-2085 -2101 0
-2085 -2102 0
-2085 -2103 0
-2085 -2104 0
-2085 -2105 0
-2085 -2106 0
-2085 -2107 0
-2085 -2108 0
-2085 -2109 0
-2085 -2110 0
-2085 -2111 0
-2085 -2112 0
-2085 -2113 0
-2085 -2114 0
-2085 -2115 0
-2085 -2116 0
-2085 -2117 0
-2085 -2118 0
-2085 -2119 0
-2085 -2120 0
-2085 -2121 0
-2085 -2122 0
-2085 -2123 0
-2085 -2124 0
-2085 -2125 0
-2085 -2126 0
-2085 -2127 0
-2085 -2128 0
-2085 -2129 0
-2085 -2130 0
-2085 -2131 0
-2085 -2132 0
-2085 -2133 0
-2085 -2134 0
-2085 -2135 0
-2086 -2087 0
-2086 -2088 0
-2086 -2089 0
-2086 -2090 0
-2086 -2091 0
-2086 -2092 0
-2086 -2093 0
-2086 -2094 0
-2086 -2095 0
-2086 -2096 0
-2086 -2097 0
-2086 -2098 0
-2086 -2099 0
-2086 -2100 0
-2086 -2101 0
-2086 -2102 0
-2086 -2103 0
-2086 -2104 0
-2086 -2105 0
-2086 -2106 0
-2086 -2107 0
-2086 -2108 0
-2086 -2109 0
-2086 -2110 0
-2086 -2111 0
-2086 -2112 0
-2086 -2113 0
-2086 -2114 0
-2086 -2115 0
-2086 -2116 0
-2086 -2117 0
-2086 -2118 0
-2086 -2119 0
-2086 -2120 0
-2086 -2121 0
-2086 -2122 0
-2086 -2123 0
-2086 -2124 0
-2086 -2125 0
-2086 -2126 0
-2086 -2127 0
-2086 -2128 0
-2086 -2129 0
-2086 -2130 0
-2086 -2131 0
-2086 -2132 0
-2086 -2133 0
-2086 -2134 0
-2086 -2135 0
-2087 -2088 0
-2087 -2089 0
-2087 -2090 0
-2087 -2091 0
-2087 -2092 0
-2087 -2093 0
-2087 -2094 0
-2087 -2095 0
-2087 -2096 0
-2087 -2097 0
-2087 -2098 0
-2087 -2099 0
-2087 -2100 0
-2087 -2101 0
-2087 -2102 0
-2087 -2103 0
-2087 -2104 0
-2087 -2105 0
-2087 -2106 0
-2087 -2107 0
-2087 -2108 0
-2087 -2109 0
-2087 -2110 0
-2087 -2111 0
-2087 -2112 0
-2087 -2113 0
-2087 -2114 0
-2087 -2115 0
-2087 -2116 0
-2087 -2117 0
-2087 -2118 0
-2087 -2119 0
-2087 -2120 0
-2087 -2121 0
-2087 -2122 0
-2087 -2123 0
-2087 -2124 0
-2087 -2125 0
-2087 -2126 0
-2087 -2127 0
-2087 -2128 0
-2087 -2129 0
-2087 -2130 0
-2087 -2131 0
-2087 -2132 0
-2087 -2133 0
-2087 -2134 0
-2087 -2135 0
-2088 -2089 0
-2088 -2090 0
-2088 -2091 0
-2088 -2092 0
-2088 -2093 0
-2088 -2094 0
-2088 -2095 0
-2088 -2096 0
-2088 -2097 0
-2088 -2098 0
-2088 -2099 0
-2088 -2100 0
-2088 -2101 0
-2088 -2102 0
-2088 -2103 0
-2088 -2104 0
-2088 -2105 0
-2088 -2106 0
-2088 -2107 0
-2088 -2108 0
-2088 -2109 0
-2088 -2110 0
-2088 -2111 0
-2088 -2112 0
-2088 -2113 0
-2088 -2114 0
-2088 -2115 0
-2088 -2116 0
-2088 -2117 0
-2088 -2118 0
-2088 -2119 0
-2088 -2120 0
-2088 -2121 0
-2088 -2122 0
-2088 -2123 0
-2088 -2124 0
-2088 -2125 0
-2088 -2126 0
-2088 -2127 0
-2088 -2128 0
-2088 -2129 0
-2088 -2130 0
-2088 -2131 0
-2088 -2132 0
-2088 -2133 0
-2088 -2134 0
-2088 -2135 0
-2089 -2090 0
-2089 -2091 0
-2089 -2092 0
-2089 -2093 0
-2089 -2094 0
-2089 -2095 0
-2089 -2096 0
-2089 -2097 0
-2089 -2098 0
-2089 -2099 0
-2089 -2100 0
-2089 -2101 0
-2089 -2102 0
-2089 -2103 0
-2089 -2104 0
-2089 -2105 0
-2089 -2106 0
-2089 -2107 0
-2089 -2108 0
-2089 -2109 0
-2089 -2110 0
-2089 -2111 0
-2089 -2112 0
-2089 -2113 0
-2089 -2114 0
-2089 -2115 0
-2089 -2116 0
-2089 -2117 0
-2089 -2118 0
-2089 -2119 0
-2089 -2120 0
-2089 -2121 0
-2089 -2122 0
-2089 -2123 0
-2089 -2124 0
-2089 -2125 0
-2089 -2126 0
-2089 -2127 0
-2089 -2128 0
-2089 -2129 0
-2089 -2130 0
-2089 -2131 0
-2089 -2132 0
-2089 -2133 0
-2089 -2134 0
-2089 -2135 0
-2090 -2091 0
-2090 -2092 0
-2090 -2093 0
-2090 -2094 0
-2090 -2095 0
-2090 -2096 0
-2090 -2097 0
-2090 -2098 0
-2090 -2099 0
-2090 -2100 0
-2090 -2101 0
-2090 -2102 0
-2090 -2103 0
-2090 -2104 0
-2090 -2105 0
-2090 -2106 0
-2090 -2107 0
-2090 -2108 0
-2090 -2109 0
-2090 -2110 0
-2090 -2111 0
-2090 -2112 0
-2090 -2113 0
-2090 -2114 0
-2090 -2115 0
-2090 -2116 0
-2090 -2117 0
-2090 -2118 0
-2090 -2119 0
-2090 -2120 0
-2090 -2121 0
-2090 -2122 0
-2090 -2123 0
-2090 -2124 0
-2090 -2125 0
-2090 -2126 0
-2090 -2127 0
-2090 -2128 0
-2090 -2129 0
-2090 -2130 0
-2090 -2131 0
-2090 -2132 0
-2090 -2133 0
-2090 -2134 0
-2090 -2135 0
-2091 -2092 0
-2091 -2093 0
-2091 -2094 0
-2091 -2095 0
-2091 -2096 0
-2091 -2097 0
-2091 -2098 0
-2091 -2099 0
-2091 -2100 0
-2091 -2101 0
-2091 -2102 0
-2091 -2103 0
-2091 -2104 0
-2091 -2105 0
-2091 -2106 0
-2091 -2107 0
-2091 -2108 0
-2091 -2109 0
-2091 -2110 0
-2091 -2111 0
-2091 -2112 0
-2091 -2113 0
-2091 -2114 0
-2091 -2115 0
-2091 -2116 0
-2091 -2117 0
-2091 -2118 0
-2091 -2119 0
-2091 -2120 0
-2091 -2121 0
-2091 -2122 0
-2091 -2123 0
-2091 -2124 0
-2091 -2125 0
-2091 -2126 0
-2091 -2127 0
-2091 -2128 0
-2091 -2129 0
-2091 -2130 0
-2091 -2131 0
-2091 -2132 0
-2091 -2133 0
-2091 -2134 0
-2091 -2135 0
-2092 -2093 0
-2092 -2094 0
-2092 -2095 0
-2092 -2096 0
-2092 -2097 0
-2092 -2098 0
-2092 -2099 0
-2092 -2100 0
-2092 -2101 0
-2092 -2102 0
-2092 -2103 0
-2092 -2104 0
-2092 -2105 0
-2092 -2106 0
-2092 -2107 0
-2092 -2108 0
-2092 -2109 0
-2092 -2110 0
-2092 -2111 0
-2092 -2112 0
-2092 -2113 0
-2092 -2114 0
-2092 -2115 0
-2092 -2116 0
-2092 -2117 0
-2092 -2118 0
-2092 -2119 0
-2092 -2120 0
-2092 -2121 0
-2092 -2122 0
-2092 -2123 0
-2092 -2124 0
-2092 -2125 0
-2092 -2126 0
-2092 -2127 0
-2092 -2128 0
-2092 -2129 0
-2092 -2130 0
-2092 -2131 0
-2092 -2132 0
-2092 -2133 0
-2092 -2134 0
-2092 -2135 0
-2093 -2094 0
-2093 -2095 0
-2093 -2096 0
-2093 -2097 0
-2093 -2098 0
-2093 -2099 0
-2093 -2100 0
-2093 -2101 0
-2093 -2102 0
-2093 -2103 0
-2093 -2104 0
-2093 -2105 0
-2093 -2106 0
-2093 -2107 0
-2093 -2108 0
-2093 -2109 0
-2093 -2110 0
-2093 -2111 0
-2093 -2112 0
-2093 -2113 0
-2093 -2114 0
-2093 -2115 0
-2093 -2116 0
-2093 -2117 0
-2093 -2118 0
-2093 -2119 0
-2093 -2120 0
-2093 -2121 0
-2093 -2122 0
-2093 -2123 0
-2093 -2124 0
-2093 -2125 0
-2093 -2126 0
-2093 -2127 0
-2093 -2128 0
-2093 -2129 0
-2093 -2130 0
-2093 -2131 0
-2093 -2132 0
-2093 -2133 0
-2093 -2134 0
-2093 -2135 0
-2094 -2095 0
-2094 -2096 0
-2094 -2097 0
-2094 -2098 0
-2094 -2099 0
-2094 -2100 0
-2094 -2101 0
-2094 -2102 0
-2094 -2103 0
-2094 -2104 0
-2094 -2105 0
-2094 -2106 0
-2094 -2107 0
-2094 -2108 0
-2094 -2109 0
-2094 -2110 0
-2094 -2111 0
-2094 -2112 0
-2094 -2113 0
-2094 -2114 0
-2094 -2115 0
-2094 -2116 0
-2094 -2117 0
-2094 -2118 0
-2094 -2119 0
-2094 -2120 0
-2094 -2121 0
-2094 -2122 0
-2094 -2123 0
-2094 -2124 0
-2094 -2125 0
-2094 -2126 0
-2094 -2127 0
-2094 -2128 0
-2094 -2129 0
-2094 -2130 0
-2094 -2131 0
-2094 -2132 0
-2094 -2133 0
-2094 -2134 0
-2094 -2135 0
-2095 -2096 0
-2095 -2097 0
-2095 -2098 0
-2095 -2099 0
-2095 -2100 0
-2095 -2101 0
-2095 -2102 0
-2095 -2103 0
-2095 -2104 0
-2095 -2105 0
-2095 -2106 0
-2095 -2107 0
-2095 -2108 0
-2095 -2109 0
-2095 -2110 0
-2095 -2111 0
-2095 -2112 0
-2095 -2113 0
-2095 -2114 0
-2095 -2115 0
-2095 -2116 0
-2095 -2117 0
-2095 -2118 0
-2095 -2119 0
-2095 -2120 0
-2095 -2121 0
-2095 -2122 0
-2095 -2123 0
-2095 -2124 0
-2095 -2125 0
-2095 -2126 0
-2095 -2127 0
-2095 -2128 0
-2095 -2129 0
-2095 -2130 0
-2095 -2131 0
-2095 -2132 0
-2095 -2133 0
-2095 -2134 0
-2095 -2135 0
-2096 -2097 0
-2096 -2098 0
-2096 -2099 0
-2096 -2100 0
-2096 -2101 0
-2096 -2102 0
-2096 -2103 0
-2096 -2104 0
-2096 -2105 0
-2096 -2106 0
-2096 -2107 0
-2096 -2108 0
-2096 -2109 0
-2096 -2110 0
-2096 -2111 0
-2096 -2112 0
-2096 -2113 0
-2096 -2114 0
-2096 -2115 0
-2096 -2116 0
-2096 -2117 0
-2096 -2118 0
-2096 -2119 0
-2096 -2120 0
-2096 -2121 0
-2096 -2122 0
-2096 -2123 0
-2096 -2124 0
-2096 -2125 0
-2096 -2126 0
-2096 -2127 0
-2096 -2128 0
-2096 -2129 0
-2096 -2130 0
-2096 -2131 0
-2096 -2132 0
-2096 -2133 0
-2096 -2134 0
-2096 -2135 0
-2097 -2098 0
-2097 -2099 0
-2097 -2100 0
-2097 -2101 0
-2097 -2102 0
-2097 -2103 0
-2097 -2104 0
-2097 -2105 0
-2097 -2106 0
-2097 -2107 0
-2097 -2108 0
-2097 -2109 0
-2097 -2110 0
-2097 -2111 0
-2097 -2112 0
-2097 -2113 0
-2097 -2114 0
-2097 -2115 0
-2097 -2116 0
-2097 -2117 0
-2097 -2118 0
-2097 -2119 0
-2097 -2120 0
-2097 -2121 0
-2097 -2122 0
-2097 -2123 0
-2097 -2124 0
-2097 -2125 0
-2097 -2126 0
-2097 -2127 0
-2097 -2128 0
-2097 -2129 0
-2097 -2130 0
-2097 -2131 0
-2097 -2132 0
-2097 -2133 0
-2097 -2134 0
-2097 -2135 0
-2098 -2099 0
-2098 -2100 0
-2098 -2101 0
-2098 -2102 0
-2098 -2103 0
-2098 -2104 0
-2098 -2105 0
-2098 -2106 0
-2098 -2107 0
-2098 -2108 0
-2098 -2109 0
-2098 -2110 0
-2098 -2111 0
-2098 -2112 0
-2098 -2113 0
-2098 -2114 0
-2098 -2115 0
-2098 -2116 0
-2098 -2117 0
-2098 -2118 0
-2098 -2119 0
-2098 -2120 0
-2098 -2121 0
-2098 -2122 0
-2098 -2123 0
-2098 -2124 0
-2098 -2125 0
-2098 -2126 0
-2098 -2127 0
-2098 -2128 0
-2098 -2129 0
-2098 -2130 0
-2098 -2131 0
-2098 -2132 0
-2098 -2133 0
-2098 -2134 0
-2098 -2135 0
-2099 -2100 0
-2099 -2101 0
-2099 -2102 0
-2099 -2103 0
-2099 -2104 0
-2099 -2105 0
-2099 -2106 0
-2099 -2107 0
-2099 -2108 0
-2099 -2109 0
-2099 -2110 0
-2099 -2111 0
-2099 -2112 0
-2099 -2113 0
-2099 -2114 0
-2099 -2115 0
-2099 -2116 0
-2099 -2117 0
-2099 -2118 0
-2099 -2119 0
-2099 -2120 0
-2099 -2121 0
-2099 -2122 0
-2099 -2123 0
-2099 -2124 0
-2099 -2125 0
-2099 -2126 0
-2099 -2127 0
-2099 -2128 0
-2099 -2129 0
-2099 -2130 0
-2099 -2131 0
-2099 -2132 0
-2099 -2133 0
-2099 -2134 0
-2099 -2135 0
-2100 -2101 0
-2100 -2102 0
-2100 -2103 0
-2100 -2104 0
-2100 -2105 0
-2100 -2106 0
-2100 -2107 0
-2100 -2108 0
-2100 -2109 0
-2100 -2110 0
-2100 -2111 0
-2100 -2112 0
-2100 -2113 0
-2100 -2114 0
-2100 -2115 0
-2100 -2116 0
-2100 -2117 0
-2100 -2118 0
-2100 -2119 0
-2100 -2120 0
-2100 -2121 0
-2100 -2122 0
-2100 -2123 0
-2100 -2124 0
-2100 -2125 0
-2100 -2126 0
-2100 -2127 0
-2100 -2128 0
-2100 -2129 0
-2100 -2130 0
-2100 -2131 0
-2100 -2132 0
-2100 -2133 0
-2100 -2134 0
-2100 -2135 0
-2101 -2102 0
-2101 -2103 0
-2101 -2104 0
-2101 -2105 0
-2101 -2106 0
-2101 -2107 0
-2101 -2108 0
-2101 -2109 0
-2101 -2110 0
-2101 -2111 0
-2101 -2112 0
-2101 -2113 0
-2101 -2114 0
-2101 -2115 0
-2101 -2116 0
-2101 -2117 0
-2101 -2118 0
-2101 -2119 0
-2101 -2120 0
-2101 -2121 0
-2101 -2122 0
-2101 -2123 0
-2101 -2124 0
-2101 -2125 0
-2101 -2126 0
-2101 -2127 0
-2101 -2128 0
-2101 -2129 0
-2101 -2130 0
-2101 -2131 0
-2101 -2132 0
-2101 -2133 0
-2101 -2134 0
-2101 -2135 0
-2102 -2103 0
-2102 -2104 0
-2102 -2105 0
-2102 -2106 0
-2102 -2107 0
-2102 -2108 0
-2102 -2109 0
-2102 -2110 0
-2102 -2111 0
-2102 -2112 0
-2102 -2113 0
-2102 -2114 0
-2102 -2115 0
-2102 -2116 0
-2102 -2117 0
-2102 -2118 0
-2102 -2119 0
-2102 -2120 0
-2102 -2121 0
-2102 -2122 0
-2102 -2123 0
-2102 -2124 0
-2102 -2125 0
-2102 -2126 0
-2102 -2127 0
-2102 -2128 0
-2102 -2129 0
-2102 -2130 0
-2102 -2131 0
-2102 -2132 0
-2102 -2133 0
-2102 -2134 0
-2102 -2135 0
-2103 -2104 0
-2103 -2105 0
-2103 -2106 0
-2103 -2107 0
-2103 -2108 0
-2103 -2109 0
-2103 -2110 0
-2103 -2111 0
-2103 -2112 0
-2103 -2113 0
-2103 -2114 0
-2103 -2115 0
-2103 -2116 0
-2103 -2117 0
-2103 -2118 0
-2103 -2119 0
-2103 -2120 0
-2103 -2121 0
-2103 -2122 0
-2103 -2123 0
-2103 -2124 0
-2103 -2125 0
-2103 -2126 0
-2103 -2127 0
-2103 -2128 0
-2103 -2129 0
-2103 -2130 0
-2103 -2131 0
-2103 -2132 0
-2103 -2133 0
-2103 -2134 0
-2103 -2135 0
-2104 -2105 0
-2104 -2106 0
-2104 -2107 0
-2104 -2108 0
-2104 -2109 0
-2104 -2110 0
-2104 -2111 0
-2104 -2112 0
-2104 -2113 0
-2104 -2114 0
-2104 -2115 0
-2104 -2116 0
-2104 -2117 0
-2104 -2118 0
-2104 -2119 0
-2104 -2120 0
-2104 -2121 0
-2104 -2122 0
-2104 -2123 0
-2104 -2124 0
-2104 -2125 0
-2104 -2126 0
-2104 -2127 0
-2104 -2128 0
-2104 -2129 0
-2104 -2130 0
-2104 -2131 0
-2104 -2132 0
-2104 -2133 0
-2104 -2134 0
-2104 -2135 0
-2105 -2106 0
-2105 -2107 0
-2105 -2108 0
-2105 -2109 0
-2105 -2110 0
-2105 -2111 0
-2105 -2112 0
-2105 -2113 0
-2105 -2114 0
-2105 -2115 0
-2105 -2116 0
-2105 -2117 0
-2105 -2118 0
-2105 -2119 0
-2105 -2120 0
-2105 -2121 0
-2105 -2122 0
-2105 -2123 0
-2105 -2124 0
-2105 -2125 0
-2105 -2126 0
-2105 -2127 0
-2105 -2128 0
-2105 -2129 0
-2105 -2130 0
-2105 -2131 0
-2105 -2132 0
-2105 -2133 0
-2105 -2134 0
-2105 -2135 0
-2106 -2107 0
-2106 -2108 0
-2106 -2109 0
-2106 -2110 0
-2106 -2111 0
-2106 -2112 0
-2106 -2113 0
-2106 -2114 0
-2106 -2115 0
-2106 -2116 0
-2106 -2117 0
-2106 -2118 0
-2106 -2119 0
-2106 -2120 0
-2106 -2121 0
-2106 -2122 0
-2106 -2123 0
-2106 -2124 0
-2106 -2125 0
-2106 -2126 0
-2106 -2127 0
-2106 -2128 0
-2106 -2129 0
-2106 -2130 0
-2106 -2131 0
-2106 -2132 0
-2106 -2133 0
-2106 -2134 0
-2106 -2135 0
-2107 -2108 0
-2107 -2109 0
-2107 -2110 0
-2107 -2111 0
-2107 -2112 0
-2107 -2113 0
-2107 -2114 0
-2107 -2115 0
-2107 -2116 0
-2107 -2117 0
-2107 -2118 0
-2107 -2119 0
-2107 -2120 0
-2107 -2121 0
-2107 -2122 0
-2107 -2123 0
-2107 -2124 0
-2107 -2125 0
-2107 -2126 0
-2107 -2127 0
-2107 -2128 0
-2107 -2129 0
-2107 -2130 0
-2107 -2131 0
-2107 -2132 0
-2107 -2133 0
-2107 -2134 0
-2107 -2135 0
-2108 -2109 0
-2108 -2110 0
-2108 -2111 0
-2108 -2112 0
-2108 -2113 0
-2108 -2114 0
-2108 -2115 0
-2108 -2116 0
-2108 -2117 0
-2108 -2118 0
-2108 -2119 0
-2108 -2120 0
-2108 -2121 0
-2108 -2122 0
-2108 -2123 0
-2108 -2124 0
-2108 -2125 0
-2108 -2126 0
-2108 -2127 0
-2108 -2128 0
-2108 -2129 0
-2108 -2130 0
-2108 -2131 0
-2108 -2132 0
-2108 -2133 0
-2108 -2134 0
-2108 -2135 0
-2109 -2110 0
-2109 -2111 0
-2109 -2112 0
-2109 -2113 0
-2109 -2114 0
-2109 -2115 0
-2109 -2116 0
-2109 -2117 0
-2109 -2118 0
-2109 -2119 0
-2109 -2120 0
-2109 -2121 0
-2109 -2122 0
-2109 -2123 0
-2109 -2124 0
-2109 -2125 0
-2109 -2126 0
-2109 -2127 0
-2109 -2128 0
-2109 -2129 0
-2109 -2130 0
-2109 -2131 0
-2109 -2132 0
-2109 -2133 0
-2109 -2134 0
-2109 -2135 0
-2110 -2111 0
-2110 -2112 0
-2110 -2113 0
-2110 -2114 0
-2110 -2115 0
-2110 -2116 0
-2110 -2117 0
-2110 -2118 0
-2110 -2119 0
-2110 -2120 0
-2110 -2121 0
-2110 -2122 0
-2110 -2123 0
-2110 -2124 0
-2110 -2125 0
-2110 -2126 0
-2110 -2127 0
-2110 -2128 0
-2110 -2129 0
-2110 -2130 0
-2110 -2131 0
-2110 -2132 0
-2110 -2133 0
-2110 -2134 0
-2110 -2135 0
-2111 -2112 0
-2111 -2113 0
-2111 -2114 0
-2111 -2115 0
-2111 -2116 0
-2111 -2117 0
-2111 -2118 0
-2111 -2119 0
-2111 -2120 0
-2111 -2121 0
-2111 -2122 0
-2111 -2123 0
-2111 -2124 0
-2111 -2125 0
-2111 -2126 0
-2111 -2127 0
-2111 -2128 0
-2111 -2129 0
-2111 -2130 0
-2111 -2131 0
-2111 -2132 0
-2111 -2133 0
-2111 -2134 0
-2111 -2135 0
-2112 -2113 0
-2112 -2114 0
-2112 -2115 0
-2112 -2116 0
-2112 -2117 0
-2112 -2118 0
-2112 -2119 0
-2112 -2120 0
-2112 -2121 0
-2112 -2122 0
-2112 -2123 0
-2112 -2124 0
-2112 -2125 0
-2112 -2126 0
-2112 -2127 0
-2112 -2128 0
-2112 -2129 0
-2112 -2130 0
-2112 -2131 0
-2112 -2132 0
-2112 -2133 0
-2112 -2134 0
-2112 -2135 0
-2113 -2114 0
-2113 -2115 0
-2113 -2116 0
-2113 -2117 0
-2113 -2118 0
-2113 -2119 0
-2113 -2120 0
-2113 -2121 0
-2113 -2122 0
-2113 -2123 0
-2113 -2124 0
-2113 -2125 0
-2113 -2126 0
-2113 -2127 0
-2113 -2128 0
-2113 -2129 0
-2113 -2130 0
-2113 -2131 0
-2113 -2132 0
-2113 -2133 0
-2113 -2134 0
-2113 -2135 0
-2114 -2115 0
-2114 -2116 0
-2114 -2117 0
-2114 -2118 0
-2114 -2119 0
-2114 -2120 0
-2114 -2121 0
-2114 -2122 0
-2114 -2123 0
-2114 -2124 0
-2114 -2125 0
-2114 -2126 0
-2114 -2127 0
-2114 -2128 0
-2114 -2129 0
-2114 -2130 0
-2114 -2131 0
-2114 -2132 0
-2114 -2133 0
-2114 -2134 0
-2114 -2135 0
-2115 -2116 0
-2115 -2117 0
-2115 -2118 0
-2115 -2119 0
-2115 -2120 0
-2115 -2121 0
-2115 -2122 0
-2115 -2123 0
-2115 -2124 0
-2115 -2125 0
-2115 -2126 0
-2115 -2127 0
-2115 -2128 0
-2115 -2129 0
-2115 -2130 0
-2115 -2131 0
-2115 -2132 0
-2115 -2133 0
-2115 -2134 0
-2115 -2135 0
-2116 -2117 0
-2116 -2118 0
-2116 -2119 0
-2116 -2120 0
-2116 -2121 0
-2116 -2122 0
-2116 -2123 0
-2116 -2124 0
-2116 -2125 0
-2116 -2126 0
-2116 -2127 0
-2116 -2128 0
-2116 -2129 0
-2116 -2130 0
-2116 -2131 0
-2116 -2132 0
-2116 -2133 0
-2116 -2134 0
-2116 -2135 0
-2117 -2118 0
-2117 -2119 0
-2117 -2120 0
-2117 -2121 0
-2117 -2122 0
-2117 -2123 0
-2117 -2124 0
-2117 -2125 0
-2117 -2126 0
-2117 -2127 0
-2117 -2128 0
-2117 -2129 0
-2117 -2130 0
-2117 -2131 0
-2117 -2132 0
-2117 -2133 0
-2117 -2134 0
-2117 -2135 0
-2118 -2119 0
-2118 -2120 0
-2118 -2121 0
-2118 -2122 0
-2118 -2123 0
-2118 -2124 0
-2118 -2125 0
-2118 -2126 0
-2118 -2127 0
-2118 -2128 0
-2118 -2129 0
-2118 -2130 0
-2118 -2131 0
-2118 -2132 0
-2118 -2133 0
-2118 -2134 0
-2118 -2135 0
-2119 -2120 0
-2119 -2121 0
-2119 -2122 0
-2119 -2123 0
-2119 -2124 0
-2119 -2125 0
-2119 -2126 0
-2119 -2127 0
-2119 -2128 0
-2119 -2129 0
-2119 -2130 0
-2119 -2131 0
-2119 -2132 0
-2119 -2133 0
-2119 -2134 0
-2119 -2135 0
-2120 -2121 0
-2120 -2122 0
-2120 -2123 0
-2120 -2124 0
-2120 -2125 0
-2120 -2126 0
-2120 -2127 0
-2120 -2128 0
-2120 -2129 0
-2120 -2130 0
-2120 -2131 0
-2120 -2132 0
-2120 -2133 0
-2120 -2134 0
-2120 -2135 0
-2121 -2122 0
-2121 -2123 0
-2121 -2124 0
-2121 -2125 0
-2121 -2126 0
-2121 -2127 0
-2121 -2128 0
-2121 -2129 0
-2121 -2130 0
-2121 -2131 0
-2121 -2132 0
-2121 -2133 0
-2121 -2134 0
-2121 -2135 0
-2122 -2123 0
-2122 -2124 0
-2122 -2125 0
-2122 -2126 0
-2122 -2127 0
-2122 -2128 0
-2122 -2129 0
-2122 -2130 0
-2122 -2131 0
-2122 -2132 0
-2122 -2133 0
-2122 -2134 0
-2122 -2135 0
-2123 -2124 0
-2123 -2125 0
-2123 -2126 0
-2123 -2127 0
-2123 -2128 0
-2123 -2129 0
-2123 -2130 0
-2123 -2131 0
-2123 -2132 0
-2123 -2133 0
-2123 -2134 0
-2123 -2135 0
-2124 -2125 0
-2124 -2126 0
-2124 -2127 0
-2124 -2128 0
-2124 -2129 0
-2124 -2130 0
-2124 -2131 0
-2124 -2132 0
-2124 -2133 0
-2124 -2134 0
-2124 -2135 0
-2125 -2126 0
-2125 -2127 0
-2125 -2128 0
-2125 -2129 0
-2125 -2130 0
-2125 -2131 0
-2125 -2132 0
-2125 -2133 0
-2125 -2134 0
-2125 -2135 0
-2126 -2127 0
-2126 -2128 0
-2126 -2129 0
-2126 -2130 0
-2126 -2131 0
-2126 -2132 0
-2126 -2133 0
-2126 -2134 0
-2126 -2135 0
-2127 -2128 0
-2127 -2129 0
-2127 -2130 0
-2127 -2131 0
-2127 -2132 0
-2127 -2133 0
-2127 -2134 0
-2127 -2135 0
-2128 -2129 0
-2128 -2130 0
-2128 -2131 0
-2128 -2132 0
-2128 -2133 0
-2128 -2134 0
-2128 -2135 0
-2129 -2130 0
-2129 -2131 0
-2129 -2132 0
-2129 -2133 0
-2129 -2134 0
-2129 -2135 0
-2130 -2131 0
-2130 -2132 0
-2130 -2133 0
-2130 -2134 0
-2130 -2135 0
-2131 -2132 0
-2131 -2133 0
-2131 -2134 0
-2131 -2135 0
-2132 -2133 0
-2132 -2134 0
-2132 -2135 0
-2133 -2134 0
-2133 -2135 0
-2134 -2135 0
-2052 782 0
-2052 1029 0
-2052 -832 0
-2052 -833 0
-2052 -834 0
-2052 -835 0
-2052 -836 0
-2052 -837 1036 0
-2052 -837 -772 -779 0
-2052 -837 -844 0
-2052 -837 -902 0
-2052 -837 -959 0
-2052 -838 1037 0
-2052 -838 -772 -780 0
-2052 -838 -846 0
-2052 -838 -904 0
-2052 -838 -961 0
-2052 -839 1038 0
-2052 -839 -772 -781 0
-2052 -839 -848 0
-2052 -839 -906 0
-2052 -839 -963 0
-2052 -840 0
-2053 782 0
-2053 1030 0
-2053 -831 0
-2053 -833 0
-2053 -834 0
-2053 -835 0
-2053 -836 0
-2053 -837 1036 0
-2053 -837 -773 -779 0
-2053 -837 -852 0
-2053 -837 -910 0
-2053 -837 -967 0
-2053 -838 1037 0
-2053 -838 -773 -780 0
-2053 -838 -854 0
-2053 -838 -912 0
-2053 -838 -969 0
-2053 -839 1038 0
-2053 -839 -773 -781 0
-2053 -839 -856 0
-2053 -839 -914 0
-2053 -839 -971 0
-2053 -840 0
-2054 782 0
-2054 1031 0
-2054 -831 0
-2054 -832 0
-2054 -834 0
-2054 -835 0
-2054 -836 0
-2054 -837 1036 0
-2054 -837 -774 -779 0
-2054 -837 -860 0
-2054 -837 -918 0
-2054 -837 -975 0
-2054 -838 1037 0
-2054 -838 -774 -780 0
-2054 -838 -862 0
-2054 -838 -920 0
-2054 -838 -977 0
-2054 -839 1038 0
-2054 -839 -774 -781 0
-2054 -839 -864 0
-2054 -839 -922 0
-2054 -839 -979 0
-2054 -840 0
-2055 782 0
-2055 1032 0
-2055 -831 0
-2055 -832 0
-2055 -833 0
-2055 -835 0
-2055 -836 0
-2055 -837 1036 0
-2055 -837 -775 -779 0
-2055 -837 -868 0
-2055 -837 -926 0
-2055 -837 -983 0
-2055 -838 1037 0
-2055 -838 -775 -780 0
-2055 -838 -870 0
-2055 -838 -928 0
-2055 -838 -985 0
-2055 -839 1038 0
-2055 -839 -775 -781 0
-2055 -839 -872 0
-2055 -839 -930 0
-2055 -839 -987 0
-2055 -840 0
-2056 782 0
-2056 1033 0
-2056 -831 0
-2056 -832 0
-2056 -833 0
-2056 -834 0
-2056 -836 0
-2056 -837 1036 0
-2056 -837 -776 -779 0
-2056 -837 -876 0
-2056 -837 -934 0
-2056 -837 -991 0
-2056 -838 1037 0
-2056 -838 -776 -780 0
-2056 -838 -878 0
-2056 -838 -936 0
-2056 -838 -993 0
-2056 -839 1038 0
-2056 -839 -776 -781 0
-2056 -839 -880 0
-2056 -839 -938 0
-2056 -839 -995 0
-2056 -840 0
-2057 782 0
-2057 1034 0
-2057 -831 0
-2057 -832 0
-2057 -833 0
-2057 -834 0
-2057 -835 0
-2057 -837 1036 0
-2057 -837 -777 -779 0
-2057 -837 -884 0
-2057 -837 -942 0
-2057 -837 -999 0
-2057 -838 1037 0
-2057 -838 -777 -780 0
-2057 -838 -886 0
-2057 -838 -944 0
-2057 -838 -1001 0
-2057 -839 1038 0
-2057 -839 -777 -781 0
-2057 -839 -888 0
-2057 -839 -946 0
-2057 -839 -1003 0
-2057 -840 0
-2058 782 0
-2058 1029 0
-2058 -891 0
-2058 -892 0
-2058 -893 0
-2058 -894 0
-2058 -895 1036 0
-2058 -895 -772 -779 0
-2058 -895 -844 0
-2058 -895 -902 0
-2058 -895 -959 0
-2058 -896 1037 0
-2058 -896 -772 -780 0
-2058 -896 -846 0
-2058 -896 -904 0
-2058 -896 -961 0
-2058 -897 1038 0
-2058 -897 -772 -781 0
-2058 -897 -848 0
-2058 -897 -906 0
-2058 -897 -963 0
-2058 -898 0
-2059 782 0
-2059 1030 0
-2059 -892 0
-2059 -893 0
-2059 -894 0
-2059 -895 1036 0
-2059 -895 -773 -779 0
-2059 -895 -852 0
-2059 -895 -910 0
-2059 -895 -967 0
-2059 -896 1037 0
-2059 -896 -773 -780 0
-2059 -896 -854 0
-2059 -896 -912 0
-2059 -896 -969 0
-2059 -897 1038 0
-2059 -897 -773 -781 0
-2059 -897 -856 0
-2059 -897 -914 0
-2059 -897 -971 0
-2059 -898 0
-2060 782 0
-2060 1031 0
-2060 -890 0
-2060 -893 0
-2060 -894 0
-2060 -895 1036 0
-2060 -895 -774 -779 0
-2060 -895 -860 0
-2060 -895 -918 0
-2060 -895 -975 0
-2060 -896 1037 0
-2060 -896 -774 -780 0
-2060 -896 -862 0
-2060 -896 -920 0
-2060 -896 -977 0
-2060 -897 1038 0
-2060 -897 -774 -781 0
-2060 -897 -864 0
-2060 -897 -922 0
-2060 -897 -979 0
-2060 -898 0
-2061 782 0
-2061 1032 0
-2061 -890 0
-2061 -891 0
-2061 -894 0
-2061 -895 1036 0
-2061 -895 -775 -779 0
-2061 -895 -868 0
-2061 -895 -926 0
-2061 -895 -983 0
-2061 -896 1037 0
-2061 -896 -775 -780 0
-2061 -896 -870 0
-2061 -896 -928 0
-2061 -896 -985 0
-2061 -897 1038 0
-2061 -897 -775 -781 0
-2061 -897 -872 0
-2061 -897 -930 0
-2061 -897 -987 0
-2061 -898 0
-2062 782 0
-2062 1033 0
-2062 -890 0
-2062 -891 0
-2062 -892 0
-2062 -895 1036 0
-2062 -895 -776 -779 0
-2062 -895 -876 0
-2062 -895 -934 0
-2062 -895 -991 0
-2062 -896 1037 0
-2062 -896 -776 -780 0
-2062 -896 -878 0
-2062 -896 -936 0
-2062 -896 -993 0
-2062 -897 1038 0
-2062 -897 -776 -781 0
-2062 -897 -880 0
-2062 -897 -938 0
-2062 -897 -995 0
-2062 -898 0
-2063 782 0
-2063 1034 0
-2063 -890 0
-2063 -891 0
-2063 -892 0
-2063 -893 0
-2063 -895 1036 0
-2063 -895 -777 -779 0
-2063 -895 -884 0
-2063 -895 -942 0
-2063 -895 -999 0
-2063 -896 1037 0
-2063 -896 -777 -780 0
-2063 -896 -886 0
-2063 -896 -944 0
-2063 -896 -1001 0
-2063 -897 1038 0
-2063 -897 -777 -781 0
-2063 -897 -888 0
-2063 -897 -946 0
-2063 -897 -1003 0
-2063 -898 0
-2064 782 0
-2064 1029 0
-2064 -949 0
-2064 -950 0
-2064 -951 0
-2064 -952 1036 0
-2064 -952 -772 -779 0
-2064 -952 -844 0
-2064 -952 -902 0
-2064 -952 -959 0
-2064 -953 1037 0
-2064 -953 -772 -780 0
-2064 -953 -846 0
-2064 -953 -904 0
-2064 -953 -961 0
-2064 -954 1038 0
-2064 -954 -772 -781 0
-2064 -954 -848 0
-2064 -954 -906 0
-2064 -954 -963 0
-2064 -955 0
-2065 782 0
-2065 1030 0
-2065 -950 0
-2065 -951 0
-2065 -952 1036 0
-2065 -952 -773 -779 0
-2065 -952 -852 0
-2065 -952 -910 0
-2065 -952 -967 0
-2065 -953 1037 0
-2065 -953 -773 -780 0
-2065 -953 -854 0
-2065 -953 -912 0
-2065 -953 -969 0
-2065 -954 1038 0
-2065 -954 -773 -781 0
-2065 -954 -856 0
-2065 -954 -914 0
-2065 -954 -971 0
-2065 -955 0
-2066 782 0
-2066 1031 0
-2066 -951 0
-2066 -952 1036 0
-2066 -952 -774 -779 0
-2066 -952 -860 0
-2066 -952 -918 0
-2066 -952 -975 0
-2066 -953 1037 0
-2066 -953 -774 -780 0
-2066 -953 -862 0
-2066 -953 -920 0
-2066 -953 -977 0
-2066 -954 1038 0
-2066 -954 -774 -781 0
-2066 -954 -864 0
-2066 -954 -922 0
-2066 -954 -979 0
-2066 -955 0
-2067 782 0
-2067 1032 0
-2067 -948 0
-2067 -952 1036 0
-2067 -952 -775 -779 0
-2067 -952 -868 0
-2067 -952 -926 0
-2067 -952 -983 0
-2067 -953 1037 0
-2067 -953 -775 -780 0
-2067 -953 -870 0
-2067 -953 -928 0
-2067 -953 -985 0
-2067 -954 1038 0
-2067 -954 -775 -781 0
-2067 -954 -872 0
-2067 -954 -930 0
-2067 -954 -987 0
-2067 -955 0
-2068 782 0
-2068 1033 0
-2068 -948 0
-2068 -949 0
-2068 -952 1036 0
-2068 -952 -776 -779 0
-2068 -952 -876 0
-2068 -952 -934 0
-2068 -952 -991 0
-2068 -953 1037 0
-2068 -953 -776 -780 0
-2068 -953 -878 0
-2068 -953 -936 0
-2068 -953 -993 0
-2068 -954 1038 0
-2068 -954 -776 -781 0
-2068 -954 -880 0
-2068 -954 -938 0
-2068 -954 -995 0
-2068 -955 0
-2069 782 0
-2069 1034 0
-2069 -948 0
-2069 -949 0
-2069 -950 0
-2069 -952 1036 0
-2069 -952 -777 -779 0
-2069 -952 -884 0
-2069 -952 -942 0
-2069 -952 -999 0
-2069 -953 1037 0
-2069 -953 -777 -780 0
-2069 -953 -886 0
-2069 -953 -944 0
-2069 -953 -1001 0
-2069 -954 1038 0
-2069 -954 -777 -781 0
-2069 -954 -888 0
-2069 -954 -946 0
-2069 -954 -1003 0
-2069 -955 0
-2070 782 0
-2070 1029 0
-2070 1035 0
-2070 -772 -778 0
-2070 -842 0
-2070 -900 0
-2070 -957 0
-2071 782 0
-2071 1030 0
-2071 1035 0
-2071 -773 -778 0
-2071 -850 0
-2071 -908 0
-2071 -965 0
-2072 782 0
-2072 1031 0
-2072 1035 0
-2072 -774 -778 0
-2072 -858 0
-2072 -916 0
-2072 -973 0
-2073 782 0
-2073 1032 0
-2073 1035 0
-2073 -775 -778 0
-2073 -866 0
-2073 -924 0
-2073 -981 0
-2074 782 0
-2074 1033 0
-2074 1035 0
-2074 -776 -778 0
-2074 -874 0
-2074 -932 0
-2074 -989 0
-2075 782 0
-2075 1034 0
-2075 1035 0
-2075 -777 -778 0
-2075 -882 0
-2075 -940 0
-2075 -997 0
-2076 841 0
-2076 1088 0
-2076 -773 0
-2076 -774 0
-2076 -775 0
-2076 -776 0
-2076 -777 0
-2076 -778 1095 0
-2076 -778 -831 -838 0
-2076 -778 -785 0
-2076 -778 -902 0
-2076 -778 -959 0
-2076 -779 1096 0
-2076 -779 -831 -839 0
-2076 -779 -787 0
-2076 -779 -904 0
-2076 -779 -961 0
-2076 -780 1097 0
-2076 -780 -831 -840 0
-2076 -780 -789 0
-2076 -780 -906 0
-2076 -780 -963 0
-2076 -781 0
-2077 841 0
-2077 1089 0
-2077 -772 0
-2077 -774 0
-2077 -775 0
-2077 -776 0
-2077 -777 0
-2077 -778 1095 0
-2077 -778 -832 -838 0
-2077 -778 -793 0
-2077 -778 -910 0
-2077 -778 -967 0
-2077 -779 1096 0
-2077 -779 -832 -839 0
-2077 -779 -795 0
-2077 -779 -912 0
-2077 -779 -969 0
-2077 -780 1097 0
-2077 -780 -832 -840 0
-2077 -780 -797 0
-2077 -780 -914 0
-2077 -780 -971 0
-2077 -781 0
-2078 841 0
-2078 1090 0
-2078 -772 0
-2078 -773 0
-2078 -775 0
-2078 -776 0
-2078 -777 0
-2078 -778 1095 0
-2078 -778 -833 -838 0
-2078 -778 -801 0
-2078 -778 -918 0
-2078 -778 -975 0
-2078 -779 1096 0
-2078 -779 -833 -839 0
-2078 -779 -803 0
-2078 -779 -920 0
-2078 -779 -977 0
-2078 -780 1097 0
-2078 -780 -833 -840 0
-2078 -780 -805 0
-2078 -780 -922 0
-2078 -780 -979 0
-2078 -781 0
-2079 841 0
-2079 1091 0
-2079 -772 0
-2079 -773 0
-2079 -774 0
-2079 -776 0
-2079 -777 0
-2079 -778 1095 0
-2079 -778 -834 -838 0
-2079 -778 -809 0
-2079 -778 -926 0
-2079 -778 -983 0
-2079 -779 1096 0
-2079 -779 -834 -839 0
-2079 -779 -811 0
-2079 -779 -928 0
-2079 -779 -985 0
-2079 -780 1097 0
-2079 -780 -834 -840 0
-2079 -780 -813 0
-2079 -780 -930 0
-2079 -780 -987 0
-2079 -781 0
-2080 841 0
-2080 1092 0
-2080 -772 0
-2080 -773 0
-2080 -774 0
-2080 -775 0
-2080 -777 0
-2080 -778 1095 0
-2080 -778 -835 -838 0
-2080 -778 -817 0
-2080 -778 -934 0
-2080 -778 -991 0
-2080 -779 1096 0
-2080 -779 -835 -839 0
-2080 -779 -819 0
-2080 -779 -936 0
-2080 -779 -993 0
-2080 -780 1097 0
-2080 -780 -835 -840 0
-2080 -780 -821 0
-2080 -780 -938 0
-2080 -780 -995 0
-2080 -781 0
-2081 841 0
-2081 1093 0
-2081 -772 0
-2081 -773 0
-2081 -774 0
-2081 -775 0
-2081 -776 0
-2081 -778 1095 0
-2081 -778 -836 -838 0
-2081 -778 -825 0
-2081 -778 -942 0
-2081 -778 -999 0
-2081 -779 1096 0
-2081 -779 -836 -839 0
-2081 -779 -827 0
-2081 -779 -944 0
-2081 -779 -1001 0
-2081 -780 1097 0
-2081 -780 -836 -840 0
-2081 -780 -829 0
-2081 -780 -946 0
-2081 -780 -1003 0
-2081 -781 0
-2082 841 0
-2082 1088 0
-2082 -891 0
-2082 -892 0
-2082 -893 0
-2082 -894 0
-2082 -895 1095 0
-2082 -895 -831 -838 0
-2082 -895 -785 0
-2082 -895 -902 0
-2082 -895 -959 0
-2082 -896 1096 0
-2082 -896 -831 -839 0
-2082 -896 -787 0
-2082 -896 -904 0
-2082 -896 -961 0
-2082 -897 1097 0
-2082 -897 -831 -840 0
-2082 -897 -789 0
-2082 -897 -906 0
-2082 -897 -963 0
-2082 -898 0
-2083 841 0
-2083 1089 0
-2083 -892 0
-2083 -893 0
-2083 -894 0
-2083 -895 1095 0
-2083 -895 -832 -838 0
-2083 -895 -793 0
-2083 -895 -910 0
-2083 -895 -967 0
-2083 -896 1096 0
-2083 -896 -832 -839 0
-2083 -896 -795 0
-2083 -896 -912 0
-2083 -896 -969 0
-2083 -897 1097 0
-2083 -897 -832 -840 0
-2083 -897 -797 0
-2083 -897 -914 0
-2083 -897 -971 0
-2083 -898 0
-2084 841 0
-2084 1090 0
-2084 -890 0
-2084 -893 0
-2084 -894 0
-2084 -895 1095 0
-2084 -895 -833 -838 0
-2084 -895 -801 0
-2084 -895 -918 0
-2084 -895 -975 0
-2084 -896 1096 0
-2084 -896 -833 -839 0
-2084 -896 -803 0
-2084 -896 -920 0
-2084 -896 -977 0
-2084 -897 1097 0
-2084 -897 -833 -840 0
-2084 -897 -805 0
-2084 -897 -922 0
-2084 -897 -979 0
-2084 -898 0
-2085 841 0
-2085 1091 0
-2085 -890 0
-2085 -891 0
-2085 -894 0
-2085 -895 1095 0
-2085 -895 -834 -838 0
-2085 -895 -809 0
-2085 -895 -926 0
-2085 -895 -983 0
-2085 -896 1096 0
-2085 -896 -834 -839 0
-2085 -896 -811 0
-2085 -896 -928 0
-2085 -896 -985 0
-2085 -897 1097 0
-2085 -897 -834 -840 0
-2085 -897 -813 0
-2085 -897 -930 0
-2085 -897 -987 0
-2085 -898 0
-2086 841 0
-2086 1092 0
-2086 -890 0
-2086 -891 0
-2086 -892 0
-2086 -895 1095 0
-2086 -895 -835 -838 0
-2086 -895 -817 0
-2086 -895 -934 0
-2086 -895 -991 0
-2086 -896 1096 0
-2086 -896 -835 -839 0
-2086 -896 -819 0
-2086 -896 -936 0
-2086 -896 -993 0
-2086 -897 1097 0
-2086 -897 -835 -840 0
-2086 -897 -821 0
-2086 -897 -938 0
-2086 -897 -995 0
-2086 -898 0
-2087 841 0
-2087 1093 0
-2087 -890 0
-2087 -891 0
-2087 -892 0
-2087 -893 0
-2087 -895 1095 0
-2087 -895 -836 -838 0
-2087 -895 -825 0
-2087 -895 -942 0
-2087 -895 -999 0
-2087 -896 1096 0
-2087 -896 -836 -839 0
-2087 -896 -827 0
-2087 -896 -944 0
-2087 -896 -1001 0
-2087 -897 1097 0
-2087 -897 -836 -840 0
-2087 -897 -829 0
-2087 -897 -946 0
-2087 -897 -1003 0
-2087 -898 0
-2088 841 0
-2088 1088 0
-2088 -949 0
-2088 -950 0
-2088 -951 0
-2088 -952 1095 0
-2088 -952 -831 -838 0
-2088 -952 -785 0
-2088 -952 -902 0
-2088 -952 -959 0
-2088 -953 1096 0
-2088 -953 -831 -839 0
-2088 -953 -787 0
-2088 -953 -904 0
-2088 -953 -961 0
-2088 -954 1097 0
-2088 -954 -831 -840 0
-2088 -954 -789 0
-2088 -954 -906 0
-2088 -954 -963 0
-2088 -955 0
-2089 841 0
-2089 1089 0
-2089 -950 0
-2089 -951 0
-2089 -952 1095 0
-2089 -952 -832 -838 0
-2089 -952 -793 0
-2089 -952 -910 0
-2089 -952 -967 0
-2089 -953 1096 0
-2089 -953 -832 -839 0
-2089 -953 -795 0
-2089 -953 -912 0
-2089 -953 -969 0
-2089 -954 1097 0
-2089 -954 -832 -840 0
-2089 -954 -797 0
-2089 -954 -914 0
-2089 -954 -971 0
-2089 -955 0
-2090 841 0
-2090 1090 0
-2090 -951 0
-2090 -952 1095 0
-2090 -952 -833 -838 0
-2090 -952 -801 0
-2090 -952 -918 0
-2090 -952 -975 0
-2090 -953 1096 0
-2090 -953 -833 -839 0
-2090 -953 -803 0
-2090 -953 -920 0
-2090 -953 -977 0
-2090 -954 1097 0
-2090 -954 -833 -840 0
-2090 -954 -805 0
-2090 -954 -922 0
-2090 -954 -979 0
-2090 -955 0
-2091 841 0
-2091 1091 0
-2091 -948 0
-2091 -952 1095 0
-2091 -952 -834 -838 0
-2091 -952 -809 0
-2091 -952 -926 0
-2091 -952 -983 0
-2091 -953 1096 0
-2091 -953 -834 -839 0
-2091 -953 -811 0
-2091 -953 -928 0
-2091 -953 -985 0
-2091 -954 1097 0
-2091 -954 -834 -840 0
-2091 -954 -813 0
-2091 -954 -930 0
-2091 -954 -987 0
-2091 -955 0
-2092 841 0
-2092 1092 0
-2092 -948 0
-2092 -949 0
-2092 -952 1095 0
-2092 -952 -835 -838 0
-2092 -952 -817 0
-2092 -952 -934 0
-2092 -952 -991 0
-2092 -953 1096 0
-2092 -953 -835 -839 0
-2092 -953 -819 0
-2092 -953 -936 0
-2092 -953 -993 0
-2092 -954 1097 0
-2092 -954 -835 -840 0
-2092 -954 -821 0
-2092 -954 -938 0
-2092 -954 -995 0
-2092 -955 0
-2093 841 0
-2093 1093 0
-2093 -948 0
-2093 -949 0
-2093 -950 0
-2093 -952 1095 0
-2093 -952 -836 -838 0
-2093 -952 -825 0
-2093 -952 -942 0
-2093 -952 -999 0
-2093 -953 1096 0
-2093 -953 -836 -839 0
-2093 -953 -827 0
-2093 -953 -944 0
-2093 -953 -1001 0
-2093 -954 1097 0
-2093 -954 -836 -840 0
-2093 -954 -829 0
-2093 -954 -946 0
-2093 -954 -1003 0
-2093 -955 0
-2094 841 0
-2094 1088 0
-2094 1094 0
-2094 -831 -837 0
-2094 -783 0
-2094 -900 0
-2094 -957 0
-2095 841 0
-2095 1089 0
-2095 1094 0
-2095 -832 -837 0
-2095 -791 0
-2095 -908 0
-2095 -965 0
-2096 841 0
-2096 1090 0
-2096 1094 0
-2096 -833 -837 0
-2096 -799 0
-2096 -916 0
-2096 -973 0
-2097 841 0
-2097 1091 0
-2097 1094 0
-2097 -834 -837 0
-2097 -807 0
-2097 -924 0
-2097 -981 0
-2098 841 0
-2098 1092 0
-2098 1094 0
-2098 -835 -837 0
-2098 -815 0
-2098 -932 0
-2098 -989 0
-2099 841 0
-2099 1093 0
-2099 1094 0
-2099 -836 -837 0
-2099 -823 0
-2099 -940 0
-2099 -997 0
-2100 899 0
-2100 1147 0
-2100 -774 0
-2100 -775 0
-2100 -776 0
-2100 -777 0
-2100 -778 1153 0
-2100 -778 -890 -896 0
-2100 -778 -785 0
-2100 -778 -793 0
-2100 -778 -844 0
-2100 -778 -852 0
-2100 -778 -959 0
-2100 -778 -967 0
-2100 -779 1154 0
-2100 -779 -890 -897 0
-2100 -779 -787 0
-2100 -779 -795 0
-2100 -779 -846 0
-2100 -779 -854 0
-2100 -779 -961 0
-2100 -779 -969 0
-2100 -780 1155 0
-2100 -780 -890 -898 0
-2100 -780 -789 0
-2100 -780 -797 0
-2100 -780 -848 0
-2100 -780 -856 0
-2100 -780 -963 0
-2100 -780 -971 0
-2100 -781 0
-2101 899 0
-2101 1148 0
-2101 -772 0
-2101 -775 0
-2101 -776 0
-2101 -777 0
-2101 -778 1153 0
-2101 -778 -891 -896 0
-2101 -778 -793 0
-2101 -778 -801 0
-2101 -778 -852 0
-2101 -778 -860 0
-2101 -778 -967 0
-2101 -778 -975 0
-2101 -779 1154 0
-2101 -779 -891 -897 0
-2101 -779 -795 0
-2101 -779 -803 0
-2101 -779 -854 0
-2101 -779 -862 0
-2101 -779 -969 0
-2101 -779 -977 0
-2101 -780 1155 0
-2101 -780 -891 -898 0
-2101 -780 -797 0
-2101 -780 -805 0
-2101 -780 -856 0
-2101 -780 -864 0
-2101 -780 -971 0
-2101 -780 -979 0
-2101 -781 0
-2102 899 0
-2102 1149 0
-2102 -772 0
-2102 -773 0
-2102 -776 0
-2102 -777 0
-2102 -778 1153 0
-2102 -778 -892 -896 0
-2102 -778 -801 0
-2102 -778 -809 0
-2102 -778 -860 0
-2102 -778 -868 0
-2102 -778 -975 0
-2102 -778 -983 0
-2102 -779 1154 0
-2102 -779 -892 -897 0
-2102 -779 -803 0
-2102 -779 -811 0
-2102 -779 -862 0
-2102 -779 -870 0
-2102 -779 -977 0
-2102 -779 -985 0
-2102 -780 1155 0
-2102 -780 -892 -898 0
-2102 -780 -805 0
-2102 -780 -813 0
-2102 -780 -864 0
-2102 -780 -872 0
-2102 -780 -979 0
-2102 -780 -987 0
-2102 -781 0
-2103 899 0
-2103 1150 0
-2103 -772 0
-2103 -773 0
-2103 -774 0
-2103 -777 0
-2103 -778 1153 0
-2103 -778 -893 -896 0
-2103 -778 -809 0
-2103 -778 -817 0
-2103 -778 -868 0
-2103 -778 -876 0
-2103 -778 -983 0
-2103 -778 -991 0
-2103 -779 1154 0
-2103 -779 -893 -897 0
-2103 -779 -811 0
-2103 -779 -819 0
-2103 -779 -870 0
-2103 -779 -878 0
-2103 -779 -985 0
-2103 -779 -993 0
-2103 -780 1155 0
-2103 -780 -893 -898 0
-2103 -780 -813 0
-2103 -780 -821 0
-2103 -780 -872 0
-2103 -780 -880 0
-2103 -780 -987 0
-2103 -780 -995 0
-2103 -781 0
-2104 899 0
-2104 1151 0
-2104 -772 0
-2104 -773 0
-2104 -774 0
-2104 -775 0
-2104 -778 1153 0
-2104 -778 -894 -896 0
-2104 -778 -817 0
-2104 -778 -825 0
-2104 -778 -876 0
-2104 -778 -884 0
-2104 -778 -991 0
-2104 -778 -999 0
-2104 -779 1154 0
-2104 -779 -894 -897 0
-2104 -779 -819 0
-2104 -779 -827 0
-2104 -779 -878 0
-2104 -779 -886 0
-2104 -779 -993 0
-2104 -779 -1001 0
-2104 -780 1155 0
-2104 -780 -894 -898 0
-2104 -780 -821 0
-2104 -780 -829 0
-2104 -780 -880 0
-2104 -780 -888 0
-2104 -780 -995 0
-2104 -780 -1003 0
-2104 -781 0
-2105 899 0
-2105 1147 0
-2105 -833 0
-2105 -834 0
-2105 -835 0
-2105 -836 0
-2105 -837 1153 0
-2105 -837 -890 -896 0
-2105 -837 -785 0
-2105 -837 -793 0
-2105 -837 -844 0
-2105 -837 -852 0
-2105 -837 -959 0
-2105 -837 -967 0
-2105 -838 1154 0
-2105 -838 -890 -897 0
-2105 -838 -787 0
-2105 -838 -795 0
-2105 -838 -846 0
-2105 -838 -854 0
-2105 -838 -961 0
-2105 -838 -969 0
-2105 -839 1155 0
-2105 -839 -890 -898 0
-2105 -839 -789 0
-2105 -839 -797 0
-2105 -839 -848 0
-2105 -839 -856 0
-2105 -839 -963 0
-2105 -839 -971 0
-2105 -840 0
-2106 899 0
-2106 1148 0
-2106 -831 0
-2106 -834 0
-2106 -835 0
-2106 -836 0
-2106 -837 1153 0
-2106 -837 -891 -896 0
-2106 -837 -793 0
-2106 -837 -801 0
-2106 -837 -852 0
-2106 -837 -860 0
-2106 -837 -967 0
-2106 -837 -975 0
-2106 -838 1154 0
-2106 -838 -891 -897 0
-2106 -838 -795 0
-2106 -838 -803 0
-2106 -838 -854 0
-2106 -838 -862 0
-2106 -838 -969 0
-2106 -838 -977 0
-2106 -839 1155 0
-2106 -839 -891 -898 0
-2106 -839 -797 0
-2106 -839 -805 0
-2106 -839 -856 0
-2106 -839 -864 0
-2106 -839 -971 0
-2106 -839 -979 0
-2106 -840 0
-2107 899 0
-2107 1149 0
-2107 -831 0
-2107 -832 0
-2107 -835 0
-2107 -836 0
-2107 -837 1153 0
-2107 -837 -892 -896 0
-2107 -837 -801 0
-2107 -837 -809 0
-2107 -837 -860 0
-2107 -837 -868 0
-2107 -837 -975 0
-2107 -837 -983 0
-2107 -838 1154 0
-2107 -838 -892 -897 0
-2107 -838 -803 0
-2107 -838 -811 0
-2107 -838 -862 0
-2107 -838 -870 0
-2107 -838 -977 0
-2107 -838 -985 0
-2107 -839 1155 0
-2107 -839 -892 -898 0
-2107 -839 -805 0
-2107 -839 -813 0
-2107 -839 -864 0
-2107 -839 -872 0
-2107 -839 -979 0
-2107 -839 -987 0
-2107 -840 0
-2108 899 0
-2108 1150 0
-2108 -831 0
-2108 -832 0
-2108 -833 0
-2108 -836 0
-2108 -837 1153 0
-2108 -837 -893 -896 0
-2108 -837 -809 0
-2108 -837 -817 0
-2108 -837 -868 0
-2108 -837 -876 0
-2108 -837 -983 0
-2108 -837 -991 0
-2108 -838 1154 0
-2108 -838 -893 -897 0
-2108 -838 -811 0
-2108 -838 -819 0
-2108 -838 -870 0
-2108 -838 -878 0
-2108 -838 -985 0
-2108 -838 -993 0
-2108 -839 1155 0
-2108 -839 -893 -898 0
-2108 -839 -813 0
-2108 -839 -821 0
-2108 -839 -872 0
-2108 -839 -880 0
-2108 -839 -987 0
-2108 -839 -995 0
-2108 -840 0
-2109 899 0
-2109 1151 0
-2109 -831 0
-2109 -832 0
-2109 -833 0
-2109 -834 0
-2109 -837 1153 0
-2109 -837 -894 -896 0
-2109 -837 -817 0
-2109 -837 -825 0
-2109 -837 -876 0
-2109 -837 -884 0
-2109 -837 -991 0
-2109 -837 -999 0
-2109 -838 1154 0
-2109 -838 -894 -897 0
-2109 -838 -819 0
-2109 -838 -827 0
-2109 -838 -878 0
-2109 -838 -886 0
-2109 -838 -993 0
-2109 -838 -1001 0
-2109 -839 1155 0
-2109 -839 -894 -898 0
-2109 -839 -821 0
-2109 -839 -829 0
-2109 -839 -880 0
-2109 -839 -888 0
-2109 -839 -995 0
-2109 -839 -1003 0
-2109 -840 0
-2110 899 0
-2110 1147 0
-2110 -950 0
-2110 -951 0
-2110 -952 1153 0
-2110 -952 -890 -896 0
-2110 -952 -785 0
-2110 -952 -793 0
-2110 -952 -844 0
-2110 -952 -852 0
-2110 -952 -959 0
-2110 -952 -967 0
-2110 -953 1154 0
-2110 -953 -890 -897 0
-2110 -953 -787 0
-2110 -953 -795 0
-2110 -953 -846 0
-2110 -953 -854 0
-2110 -953 -961 0
-2110 -953 -969 0
-2110 -954 1155 0
-2110 -954 -890 -898 0
-2110 -954 -789 0
-2110 -954 -797 0
-2110 -954 -848 0
-2110 -954 -856 0
-2110 -954 -963 0
-2110 -954 -971 0
-2110 -955 0
-2111 899 0
-2111 1148 0
-2111 -951 0
-2111 -952 1153 0
-2111 -952 -891 -896 0
-2111 -952 -793 0
-2111 -952 -801 0
-2111 -952 -852 0
-2111 -952 -860 0
-2111 -952 -967 0
-2111 -952 -975 0
-2111 -953 1154 0
-2111 -953 -891 -897 0
-2111 -953 -795 0
-2111 -953 -803 0
-2111 -953 -854 0
-2111 -953 -862 0
-2111 -953 -969 0
-2111 -953 -977 0
-2111 -954 1155 0
-2111 -954 -891 -898 0
-2111 -954 -797 0
-2111 -954 -805 0
-2111 -954 -856 0
-2111 -954 -864 0
-2111 -954 -971 0
-2111 -954 -979 0
-2111 -955 0
-2112 899 0
-2112 1149 0
-2112 -952 1153 0
-2112 -952 -892 -896 0
-2112 -952 -801 0
-2112 -952 -809 0
-2112 -952 -860 0
-2112 -952 -868 0
-2112 -952 -975 0
-2112 -952 -983 0
-2112 -953 1154 0
-2112 -953 -892 -897 0
-2112 -953 -803 0
-2112 -953 -811 0
-2112 -953 -862 0
-2112 -953 -870 0
-2112 -953 -977 0
-2112 -953 -985 0
-2112 -954 1155 0
-2112 -954 -892 -898 0
-2112 -954 -805 0
-2112 -954 -813 0
-2112 -954 -864 0
-2112 -954 -872 0
-2112 -954 -979 0
-2112 -954 -987 0
-2112 -955 0
-2113 899 0
-2113 1150 0
-2113 -948 0
-2113 -952 1153 0
-2113 -952 -893 -896 0
-2113 -952 -809 0
-2113 -952 -817 0
-2113 -952 -868 0
-2113 -952 -876 0
-2113 -952 -983 0
-2113 -952 -991 0
-2113 -953 1154 0
-2113 -953 -893 -897 0
-2113 -953 -811 0
-2113 -953 -819 0
-2113 -953 -870 0
-2113 -953 -878 0
-2113 -953 -985 0
-2113 -953 -993 0
-2113 -954 1155 0
-2113 -954 -893 -898 0
-2113 -954 -813 0
-2113 -954 -821 0
-2113 -954 -872 0
-2113 -954 -880 0
-2113 -954 -987 0
-2113 -954 -995 0
-2113 -955 0
-2114 899 0
-2114 1151 0
-2114 -948 0
-2114 -949 0
-2114 -952 1153 0
-2114 -952 -894 -896 0
-2114 -952 -817 0
-2114 -952 -825 0
-2114 -952 -876 0
-2114 -952 -884 0
-2114 -952 -991 0
-2114 -952 -999 0
-2114 -953 1154 0
-2114 -953 -894 -897 0
-2114 -953 -819 0
-2114 -953 -827 0
-2114 -953 -878 0
-2114 -953 -886 0
-2114 -953 -993 0
-2114 -953 -1001 0
-2114 -954 1155 0
-2114 -954 -894 -898 0
-2114 -954 -821 0
-2114 -954 -829 0
-2114 -954 -880 0
-2114 -954 -888 0
-2114 -954 -995 0
-2114 -954 -1003 0
-2114 -955 0
-2115 899 0
-2115 1147 0
-2115 1152 0
-2115 -890 -895 0
-2115 -783 0
-2115 -791 0
-2115 -842 0
-2115 -850 0
-2115 -957 0
-2115 -965 0
-2116 899 0
-2116 1148 0
-2116 1152 0
-2116 -891 -895 0
-2116 -791 0
-2116 -799 0
-2116 -850 0
-2116 -858 0
-2116 -965 0
-2116 -973 0
-2117 899 0
-2117 1149 0
-2117 1152 0
-2117 -892 -895 0
-2117 -799 0
-2117 -807 0
-2117 -858 0
-2117 -866 0
-2117 -973 0
-2117 -981 0
-2118 899 0
-2118 1150 0
-2118 1152 0
-2118 -893 -895 0
-2118 -807 0
-2118 -815 0
-2118 -866 0
-2118 -874 0
-2118 -981 0
-2118 -989 0
-2119 899 0
-2119 1151 0
-2119 1152 0
-2119 -894 -895 0
-2119 -815 0
-2119 -823 0
-2119 -874 0
-2119 -882 0
-2119 -989 0
-2119 -997 0
-2120 956 0
-2120 1205 0
-2120 -775 0
-2120 -776 0
-2120 -777 0
-2120 -778 1210 0
-2120 -778 -948 -953 0
-2120 -778 -785 0
-2120 -778 -793 0
-2120 -778 -801 0
-2120 -778 -844 0
-2120 -778 -852 0
-2120 -778 -860 0
-2120 -778 -902 0
-2120 -778 -910 0
-2120 -778 -918 0
-2120 -779 1211 0
-2120 -779 -948 -954 0
-2120 -779 -787 0
-2120 -779 -795 0
-2120 -779 -803 0
-2120 -779 -846 0
-2120 -779 -854 0
-2120 -779 -862 0
-2120 -779 -904 0
-2120 -779 -912 0
-2120 -779 -920 0
-2120 -780 1212 0
-2120 -780 -948 -955 0
-2120 -780 -789 0
-2120 -780 -797 0
-2120 -780 -805 0
-2120 -780 -848 0
-2120 -780 -856 0
-2120 -780 -864 0
-2120 -780 -906 0
-2120 -780 -914 0
-2120 -780 -922 0
-2120 -781 0
-2121 956 0
-2121 1206 0
-2121 -772 0
-2121 -776 0
-2121 -777 0
-2121 -778 1210 0
-2121 -778 -949 -953 0
-2121 -778 -793 0
-2121 -778 -801 0
-2121 -778 -809 0
-2121 -778 -852 0
-2121 -778 -860 0
-2121 -778 -868 0
-2121 -778 -910 0
-2121 -778 -918 0
-2121 -778 -926 0
-2121 -779 1211 0
-2121 -779 -949 -954 0
-2121 -779 -795 0
-2121 -779 -803 0
-2121 -779 -811 0
-2121 -779 -854 0
-2121 -779 -862 0
-2121 -779 -870 0
-2121 -779 -912 0
-2121 -779 -920 0
-2121 -779 -928 0
-2121 -780 1212 0
-2121 -780 -949 -955 0
-2121 -780 -797 0
-2121 -780 -805 0
-2121 -780 -813 0
-2121 -780 -856 0
-2121 -780 -864 0
-2121 -780 -872 0
-2121 -780 -914 0
-2121 -780 -922 0
-2121 -780 -930 0
-2121 -781 0
-2122 956 0
-2122 1207 0
-2122 -772 0
-2122 -773 0
-2122 -777 0
-2122 -778 1210 0
-2122 -778 -950 -953 0
-2122 -778 -801 0
-2122 -778 -809 0
-2122 -778 -817 0
-2122 -778 -860 0
-2122 -778 -868 0
-2122 -778 -876 0
-2122 -778 -918 0
-2122 -778 -926 0
-2122 -778 -934 0
-2122 -779 1211 0
-2122 -779 -950 -954 0
-2122 -779 -803 0
-2122 -779 -811 0
-2122 -779 -819 0
-2122 -779 -862 0
-2122 -779 -870 0
-2122 -779 -878 0
-2122 -779 -920 0
-2122 -779 -928 0
-2122 -779 -936 0
-2122 -780 1212 0
-2122 -780 -950 -955 0
-2122 -780 -805 0
-2122 -780 -813 0
-2122 -780 -821 0
-2122 -780 -864 0
-2122 -780 -872 0
-2122 -780 -880 0
-2122 -780 -922 0
-2122 -780 -930 0
-2122 -780 -938 0
-2122 -781 0
-2123 956 0
-2123 1208 0
-2123 -772 0
-2123 -773 0
-2123 -774 0
-2123 -778 1210 0
-2123 -778 -951 -953 0
-2123 -778 -809 0
-2123 -778 -817 0
-2123 -778 -825 0
-2123 -778 -868 0
-2123 -778 -876 0
-2123 -778 -884 0
-2123 -778 -926 0
-2123 -778 -934 0
-2123 -778 -942 0
-2123 -779 1211 0
-2123 -779 -951 -954 0
-2123 -779 -811 0
-2123 -779 -819 0
-2123 -779 -827 0
-2123 -779 -870 0
-2123 -779 -878 0
-2123 -779 -886 0
-2123 -779 -928 0
-2123 -779 -936 0
-2123 -779 -944 0
-2123 -780 1212 0
-2123 -780 -951 -955 0
-2123 -780 -813 0
-2123 -780 -821 0
-2123 -780 -829 0
-2123 -780 -872 0
-2123 -780 -880 0
-2123 -780 -888 0
-2123 -780 -930 0
-2123 -780 -938 0
-2123 -780 -946 0
-2123 -781 0
-2124 956 0
-2124 1205 0
-2124 -834 0
-2124 -835 0
-2124 -836 0
-2124 -837 1210 0
-2124 -837 -948 -953 0
-2124 -837 -785 0
-2124 -837 -793 0
-2124 -837 -801 0
-2124 -837 -844 0
-2124 -837 -852 0
-2124 -837 -860 0
-2124 -837 -902 0
-2124 -837 -910 0
-2124 -837 -918 0
-2124 -838 1211 0
-2124 -838 -948 -954 0
-2124 -838 -787 0
-2124 -838 -795 0
-2124 -838 -803 0
-2124 -838 -846 0
-2124 -838 -854 0
-2124 -838 -862 0
-2124 -838 -904 0
-2124 -838 -912 0
-2124 -838 -920 0
-2124 -839 1212 0
-2124 -839 -948 -955 0
-2124 -839 -789 0
-2124 -839 -797 0
-2124 -839 -805 0
-2124 -839 -848 0
-2124 -839 -856 0
-2124 -839 -864 0
-2124 -839 -906 0
-2124 -839 -914 0
-2124 -839 -922 0
-2124 -840 0
-2125 956 0
-2125 1206 0
-2125 -831 0
-2125 -835 0
-2125 -836 0
-2125 -837 1210 0
-2125 -837 -949 -953 0
-2125 -837 -793 0
-2125 -837 -801 0
-2125 -837 -809 0
-2125 -837 -852 0
-2125 -837 -860 0
-2125 -837 -868 0
-2125 -837 -910 0
-2125 -837 -918 0
-2125 -837 -926 0
-2125 -838 1211 0
-2125 -838 -949 -954 0
-2125 -838 -795 0
-2125 -838 -803 0
-2125 -838 -811 0
-2125 -838 -854 0
-2125 -838 -862 0
-2125 -838 -870 0
-2125 -838 -912 0
-2125 -838 -920 0
-2125 -838 -928 0
-2125 -839 1212 0
-2125 -839 -949 -955 0
-2125 -839 -797 0
-2125 -839 -805 0
-2125 -839 -813 0
-2125 -839 -856 0
-2125 -839 -864 0
-2125 -839 -872 0
-2125 -839 -914 0
-2125 -839 -922 0
-2125 -839 -930 0
-2125 -840 0
-2126 956 0
-2126 1207 0
-2126 -831 0
-2126 -832 0
-2126 -836 0
-2126 -837 1210 0
-2126 -837 -950 -953 0
-2126 -837 -801 0
-2126 -837 -809 0
-2126 -837 -817 0
-2126 -837 -860 0
-2126 -837 -868 0
-2126 -837 -876 0
-2126 -837 -918 0
-2126 -837 -926 0
-2126 -837 -934 0
-2126 -838 1211 0
-2126 -838 -950 -954 0
-2126 -838 -803 0
-2126 -838 -811 0
-2126 -838 -819 0
-2126 -838 -862 0
-2126 -838 -870 0
-2126 -838 -878 0
-2126 -838 -920 0
-2126 -838 -928 0
-2126 -838 -936 0
-2126 -839 1212 0
-2126 -839 -950 -955 0
-2126 -839 -805 0
-2126 -839 -813 0
-2126 -839 -821 0
-2126 -839 -864 0
-2126 -839 -872 0
-2126 -839 -880 0
-2126 -839 -922 0
-2126 -839 -930 0
-2126 -839 -938 0
-2126 -840 0
-2127 956 0
-2127 1208 0
-2127 -831 0
-2127 -832 0
-2127 -833 0
-2127 -837 1210 0
-2127 -837 -951 -953 0
-2127 -837 -809 0
-2127 -837 -817 0
-2127 -837 -825 0
-2127 -837 -868 0
-2127 -837 -876 0
-2127 -837 -884 0
-2127 -837 -926 0
-2127 -837 -934 0
-2127 -837 -942 0
-2127 -838 1211 0
-2127 -838 -951 -954 0
-2127 -838 -811 0
-2127 -838 -819 0
-2127 -838 -827 0
-2127 -838 -870 0
-2127 -838 -878 0
-2127 -838 -886 0
-2127 -838 -928 0
-2127 -838 -936 0
-2127 -838 -944 0
-2127 -839 1212 0
-2127 -839 -951 -955 0
-2127 -839 -813 0
-2127 -839 -821 0
-2127 -839 -829 0
-2127 -839 -872 0
-2127 -839 -880 0
-2127 -839 -888 0
-2127 -839 -930 0
-2127 -839 -938 0
-2127 -839 -946 0
-2127 -840 0
-2128 956 0
-2128 1205 0
-2128 -893 0
-2128 -894 0
-2128 -895 1210 0
-2128 -895 -948 -953 0
-2128 -895 -785 0
-2128 -895 -793 0
-2128 -895 -801 0
-2128 -895 -844 0
-2128 -895 -852 0
-2128 -895 -860 0
-2128 -895 -902 0
-2128 -895 -910 0
-2128 -895 -918 0
-2128 -896 1211 0
-2128 -896 -948 -954 0
-2128 -896 -787 0
-2128 -896 -795 0
-2128 -896 -803 0
-2128 -896 -846 0
-2128 -896 -854 0
-2128 -896 -862 0
-2128 -896 -904 0
-2128 -896 -912 0
-2128 -896 -920 0
-2128 -897 1212 0
-2128 -897 -948 -955 0
-2128 -897 -789 0
-2128 -897 -797 0
-2128 -897 -805 0
-2128 -897 -848 0
-2128 -897 -856 0
-2128 -897 -864 0
-2128 -897 -906 0
-2128 -897 -914 0
-2128 -897 -922 0
-2128 -898 0
-2129 956 0
-2129 1206 0
-2129 -894 0
-2129 -895 1210 0
-2129 -895 -949 -953 0
-2129 -895 -793 0
-2129 -895 -801 0
-2129 -895 -809 0
-2129 -895 -852 0
-2129 -895 -860 0
-2129 -895 -868 0
-2129 -895 -910 0
-2129 -895 -918 0
-2129 -895 -926 0
-2129 -896 1211 0
-2129 -896 -949 -954 0
-2129 -896 -795 0
-2129 -896 -803 0
-2129 -896 -811 0
-2129 -896 -854 0
-2129 -896 -862 0
-2129 -896 -870 0
-2129 -896 -912 0
-2129 -896 -920 0
-2129 -896 -928 0
-2129 -897 1212 0
-2129 -897 -949 -955 0
-2129 -897 -797 0
-2129 -897 -805 0
-2129 -897 -813 0
-2129 -897 -856 0
-2129 -897 -864 0
-2129 -897 -872 0
-2129 -897 -914 0
-2129 -897 -922 0
-2129 -897 -930 0
-2129 -898 0
-2130 956 0
-2130 1207 0
-2130 -890 0
-2130 -895 1210 0
-2130 -895 -950 -953 0
-2130 -895 -801 0
-2130 -895 -809 0
-2130 -895 -817 0
-2130 -895 -860 0
-2130 -895 -868 0
-2130 -895 -876 0
-2130 -895 -918 0
-2130 -895 -926 0
-2130 -895 -934 0
-2130 -896 1211 0
-2130 -896 -950 -954 0
-2130 -896 -803 0
-2130 -896 -811 0
-2130 -896 -819 0
-2130 -896 -862 0
-2130 -896 -870 0
-2130 -896 -878 0
-2130 -896 -920 0
-2130 -896 -928 0
-2130 -896 -936 0
-2130 -897 1212 0
-2130 -897 -950 -955 0
-2130 -897 -805 0
-2130 -897 -813 0
-2130 -897 -821 0
-2130 -897 -864 0
-2130 -897 -872 0
-2130 -897 -880 0
-2130 -897 -922 0
-2130 -897 -930 0
-2130 -897 -938 0
-2130 -898 0
-2131 956 0
-2131 1208 0
-2131 -890 0
-2131 -891 0
-2131 -895 1210 0
-2131 -895 -951 -953 0
-2131 -895 -809 0
-2131 -895 -817 0
-2131 -895 -825 0
-2131 -895 -868 0
-2131 -895 -876 0
-2131 -895 -884 0
-2131 -895 -926 0
-2131 -895 -934 0
-2131 -895 -942 0
-2131 -896 1211 0
-2131 -896 -951 -954 0
-2131 -896 -811 0
-2131 -896 -819 0
-2131 -896 -827 0
-2131 -896 -870 0
-2131 -896 -878 0
-2131 -896 -886 0
-2131 -896 -928 0
-2131 -896 -936 0
-2131 -896 -944 0
-2131 -897 1212 0
-2131 -897 -951 -955 0
-2131 -897 -813 0
-2131 -897 -821 0
-2131 -897 -829 0
-2131 -897 -872 0
-2131 -897 -880 0
-2131 -897 -888 0
-2131 -897 -930 0
-2131 -897 -938 0
-2131 -897 -946 0
-2131 -898 0
-2132 956 0
-2132 1205 0
-2132 1209 0
-2132 -948 -952 0
-2132 -783 0
-2132 -791 0
-2132 -799 0
-2132 -842 0
-2132 -850 0
-2132 -858 0
-2132 -900 0
-2132 -908 0
-2132 -916 0
-2133 956 0
-2133 1206 0
-2133 1209 0
-2133 -949 -952 0
-2133 -791 0
-2133 -799 0
-2133 -807 0
-2133 -850 0
-2133 -858 0
-2133 -866 0
-2133 -908 0
-2133 -916 0
-2133 -924 0
-2134 956 0
-2134 1207 0
-2134 1209 0
-2134 -950 -952 0
-2134 -799 0
-2134 -807 0
-2134 -815 0
-2134 -858 0
-2134 -866 0
-2134 -874 0
-2134 -916 0
-2134 -924 0
-2134 -932 0
-2135 956 0
-2135 1208 0
-2135 1209 0
-2135 -951 -952 0
-2135 -807 0
-2135 -815 0
-2135 -823 0
-2135 -866 0
-2135 -874 0
-2135 -882 0
-2135 -924 0
-2135 -932 0
-2135 -940 0
-772 1029 2052 2053 2054 2055 2056 2057 2058 2059 2060 2061 2062 2063 2064 2065 2066 2067 2068 2069 2070 2071 2072 2073 2074 2075 0
-773 1030 2052 2053 2054 2055 2056 2057 2058 2059 2060 2061 2062 2063 2064 2065 2066 2067 2068 2069 2070 2071 2072 2073 2074 2075 0
-774 1031 2052 2053 2054 2055 2056 2057 2058 2059 2060 2061 2062 2063 2064 2065 2066 2067 2068 2069 2070 2071 2072 2073 2074 2075 0
-775 1032 2052 2053 2054 2055 2056 2057 2058 2059 2060 2061 2062 2063 2064 2065 2066 2067 2068 2069 2070 2071 2072 2073 2074 2075 0
-776 1033 2052 2053 2054 2055 2056 2057 2058 2059 2060 2061 2062 2063 2064 2065 2066 2067 2068 2069 2070 2071 2072 2073 2074 2075 0
-777 1034 2052 2053 2054 2055 2056 2057 2058 2059 2060 2061 2062 2063 2064 2065 2066 2067 2068 2069 2070 2071 2072 2073 2074 2075 0
-778 1035 2052 2053 2054 2055 2056 2057 2058 2059 2060 2061 2062 2063 2064 2065 2066 2067 2068 2069 2070 2071 2072 2073 2074 2075 0
-779 1036 2052 2053 2054 2055 2056 2057 2058 2059 2060 2061 2062 2063 2064 2065 2066 2067 2068 2069 2070 2071 2072 2073 2074 2075 0
-780 1037 2052 2053 2054 2055 2056 2057 2058 2059 2060 2061 2062 2063 2064 2065 2066 2067 2068 2069 2070 2071 2072 2073 2074 2075 0
-781 1038 2052 2053 2054 2055 2056 2057 2058 2059 2060 2061 2062 2063 2064 2065 2066 2067 2068 2069 2070 2071 2072 2073 2074 2075 0
-831 1088 2076 2077 2078 2079 2080 2081 2082 2083 2084 2085 2086 2087 2088 2089 2090 2091 2092 2093 2094 2095 2096 2097 2098 2099 0
-832 1089 2076 2077 2078 2079 2080 2081 2082 2083 2084 2085 2086 2087 2088 2089 2090 2091 2092 2093 2094 2095 2096 2097 2098 2099 0
-833 1090 2076 2077 2078 2079 2080 2081 2082 2083 2084 2085 2086 2087 2088 2089 2090 2091 2092 2093 2094 2095 2096 2097 2098 2099 0
-834 1091 2076 2077 2078 2079 2080 2081 2082 2083 2084 2085 2086 2087 2088 2089 2090 2091 2092 2093 2094 2095 2096 2097 2098 2099 0
-835 1092 2076 2077 2078 2079 2080 2081 2082 2083 2084 2085 2086 2087 2088 2089 2090 2091 2092 2093 2094 2095 2096 2097 2098 2099 0
-836 1093 2076 2077 2078 2079 2080 2081 2082 2083 2084 2085 2086 2087 2088 2089 2090 2091 2092 2093 2094 2095 2096 2097 2098 2099 0
-837 1094 2076 2077 2078 2079 2080 2081 2082 2083 2084 2085 2086 2087 2088 2089 2090 2091 2092 2093 2094 2095 2096 2097 2098 2099 0
-838 1095 2076 2077 2078 2079 2080 2081 2082 2083 2084 2085 2086 2087 2088 2089 2090 2091 2092 2093 2094 2095 2096 2097 2098 2099 0
-839 1096 2076 2077 2078 2079 2080 2081 2082 2083 2084 2085 2086 2087 2088 2089 2090 2091 2092 2093 2094 2095 2096 2097 2098 2099 0
-840 1097 2076 2077 2078 2079 2080 2081 2082 2083 2084 2085 2086 2087 2088 2089 2090 2091 2092 2093 2094 2095 2096 2097 2098 2099 0
-890 1147 2100 2101 2102 2103 2104 2105 2106 2107 2108 2109 2110 2111 2112 2113 2114 2115 2116 2117 2118 2119 0
-891 1148 2100 2101 2102 2103 2104 2105 2106 2107 2108 2109 2110 2111 2112 2113 2114 2115 2116 2117 2118 2119 0
-892 1149 2100 2101 2102 2103 2104 2105 2106 2107 2108 2109 2110 2111 2112 2113 2114 2115 2116 2117 2118 2119 0
-893 1150 2100 2101 2102 2103 2104 2105 2106 2107 2108 2109 2110 2111 2112 2113 2114 2115 2116 2117 2118 2119 0
-894 1151 2100 2101 2102 2103 2104 2105 2106 2107 2108 2109 2110 2111 2112 2113 2114 2115 2116 2117 2118 2119 0
-895 1152 2100 2101 2102 2103 2104 2105 2106 2107 2108 2109 2110 2111 2112 2113 2114 2115 2116 2117 2118 2119 0
-896 1153 2100 2101 2102 2103 2104 2105 2106 2107 2108 2109 2110 2111 2112 2113 2114 2115 2116 2117 2118 2119 0
-897 1154 2100 2101 2102 2103 2104 2105 2106 2107 2108 2109 2110 2111 2112 2113 2114 2115 2116 2117 2118 2119 0
-898 1155 2100 2101 2102 2103 2104 2105 2106 2107 2108 2109 2110 2111 2112 2113 2114 2115 2116 2117 2118 2119 0
-948 1205 2120 2121 2122 2123 2124 2125 2126 2127 2128 2129 2130 2131 2132 2133 2134 2135 0
-949 1206 2120 2121 2122 2123 2124 2125 2126 2127 2128 2129 2130 2131 2132 2133 2134 2135 0
-950 1207 2120 2121 2122 2123 2124 2125 2126 2127 2128 2129 2130 2131 2132 2133 2134 2135 0
-951 1208 2120 2121 2122 2123 2124 2125 2126 2127 2128 2129 2130 2131 2132 2133 2134 2135 0
-952 1209 2120 2121 2122 2123 2124 2125 2126 2127 2128 2129 2130 2131 2132 2133 2134 2135 0
-953 1210 2120 2121 2122 2123 2124 2125 2126 2127 2128 2129 2130 2131 2132 2133 2134 2135 0
-954 1211 2120 2121 2122 2123 2124 2125 2126 2127 2128 2129 2130 2131 2132 2133 2134 2135 0
-955 1212 2120 2121 2122 2123 2124 2125 2126 2127 2128 2129 2130 2131 2132 2133 2134 2135 0
-2136 -2137 0
-2136 -2138 0
-2136 -2139 0
-2136 -2140 0
-2136 -2141 0
-2136 -2142 0
-2136 -2143 0
-2136 -2144 0
-2136 -2145 0
-2136 -2146 0
-2136 -2147 0
-2136 -2148 0
-2136 -2149 0
-2136 -2150 0
-2136 -2151 0
-2136 -2152 0
-2136 -2153 0
-2136 -2154 0
-2136 -2155 0
-2136 -2156 0
-2136 -2157 0
-2136 -2158 0
-2136 -2159 0
-2136 -2160 0
-2136 -2161 0
-2136 -2162 0
-2136 -2163 0
-2136 -2164 0
-2136 -2165 0
-2136 -2166 0
-2136 -2167 0
-2136 -2168 0
-2136 -2169 0
-2136 -2170 0
-2136 -2171 0
-2136 -2172 0
-2136 -2173 0
-2136 -2174 0
-2136 -2175 0
-2136 -2176 0
-2136 -2177 0
-2136 -2178 0
-2136 -2179 0
-2136 -2180 0
-2136 -2181 0
-2136 -2182 0
-2136 -2183 0
-2136 -2184 0
-2136 -2185 0
-2136 -2186 0
-2136 -2187 0
-2136 -2188 0
-2136 -2189 0
-2136 -2190 0
-2136 -2191 0
-2136 -2192 0
-2136 -2193 0
-2136 -2194 0
-2136 -2195 0
-2136 -2196 0
-2136 -2197 0
-2136 -2198 0
-2136 -2199 0
-2136 -2200 0
-2136 -2201 0
-2136 -2202 0
-2136 -2203 0
-2136 -2204 0
-2136 -2205 0
-2136 -2206 0
-2136 -2207 0
-2136 -2208 0
-2136 -2209 0
-2136 -2210 0
-2136 -2211 0
-2136 -2212 0
-2136 -2213 0
-2136 -2214 0
-2136 -2215 0
-2136 -2216 0
-2136 -2217 0
-2136 -2218 0
-2136 -2219 0
-2137 -2138 0
-2137 -2139 0
-2137 -2140 0
-2137 -2141 0
-2137 -2142 0
-2137 -2143 0
-2137 -2144 0
-2137 -2145 0
-2137 -2146 0
-2137 -2147 0
-2137 -2148 0
-2137 -2149 0
-2137 -2150 0
-2137 -2151 0
-2137 -2152 0
-2137 -2153 0
-2137 -2154 0
-2137 -2155 0
-2137 -2156 0
-2137 -2157 0
-2137 -2158 0
-2137 -2159 0
-2137 -2160 0
-2137 -2161 0
-2137 -2162 0
-2137 -2163 0
-2137 -2164 0
-2137 -2165 0
-2137 -2166 0
-2137 -2167 0
-2137 -2168 0
-2137 -2169 0
-2137 -2170 0
-2137 -2171 0
-2137 -2172 0
-2137 -2173 0
-2137 -2174 0
-2137 -2175 0
-2137 -2176 0
-2137 -2177 0
-2137 -2178 0
-2137 -2179 0
-2137 -2180 0
-2137 -2181 0
-2137 -2182 0
-2137 -2183 0
-2137 -2184 0
-2137 -2185 0
-2137 -2186 0
-2137 -2187 0
-2137 -2188 0
-2137 -2189 0
-2137 -2190 0
-2137 -2191 0
-2137 -2192 0
-2137 -2193 0
-2137 -2194 0
-2137 -2195 0
-2137 -2196 0
-2137 -2197 0
-2137 -2198 0
-2137 -2199 0
-2137 -2200 0
-2137 -2201 0
-2137 -2202 0
-2137 -2203 0
-2137 -2204 0
-2137 -2205 0
-2137 -2206 0
-2137 -2207 0
-2137 -2208 0
-2137 -2209 0
-2137 -2210 0
-2137 -2211 0
-2137 -2212 0
-2137 -2213 0
-2137 -2214 0
-2137 -2215 0
-2137 -2216 0
-2137 -2217 0
-2137 -2218 0
-2137 -2219 0
-2138 -2139 0
-2138 -2140 0
-2138 -2141 0
-2138 -2142 0
-2138 -2143 0
-2138 -2144 0
-2138 -2145 0
-2138 -2146 0
-2138 -2147 0
-2138 -2148 0
-2138 -2149 0
-2138 -2150 0
-2138 -2151 0
-2138 -2152 0
-2138 -2153 0
-2138 -2154 0
-2138 -2155 0
-2138 -2156 0
-2138 -2157 0
-2138 -2158 0
-2138 -2159 0
-2138 -2160 0
-2138 -2161 0
-2138 -2162 0
-2138 -2163 0
-2138 -2164 0
-2138 -2165 0
-2138 -2166 0
-2138 -2167 0
-2138 -2168 0
-2138 -2169 0
-2138 -2170 0
-2138 -2171 0
-2138 -2172 0
-2138 -2173 0
-2138 -2174 0
-2138 -2175 0
-2138 -2176 0
-2138 -2177 0
-2138 -2178 0
-2138 -2179 0
-2138 -2180 0
-2138 -2181 0
-2138 -2182 0
-2138 -2183 0
-2138 -2184 0
-2138 -2185 0
-2138 -2186 0
-2138 -2187 0
-2138 -2188 0
-2138 -2189 0
-2138 -2190 0
-2138 -2191 0
-2138 -2192 0
-2138 -2193 0
-2138 -2194 0
-2138 -2195 0
-2138 -2196 0
-2138 -2197 0
-2138 -2198 0
-2138 -2199 0
-2138 -2200 0
-2138 -2201 0
-2138 -2202 0
-2138 -2203 0
-2138 -2204 0
-2138 -2205 0
-2138 -2206 0
-2138 -2207 0
-2138 -2208 0
-2138 -2209 0
-2138 -2210 0
-2138 -2211 0
-2138 -2212 0
-2138 -2213 0
-2138 -2214 0
-2138 -2215 0
-2138 -2216 0
-2138 -2217 0
-2138 -2218 0
-2138 -2219 0
-2139 -2140 0
-2139 -2141 0
-2139 -2142 0
-2139 -2143 0
-2139 -2144 0
-2139 -2145 0
-2139 -2146 0
-2139 -2147 0
-2139 -2148 0
-2139 -2149 0
-2139 -2150 0
-2139 -2151 0
-2139 -2152 0
-2139 -2153 0
-2139 -2154 0
-2139 -2155 0
-2139 -2156 0
-2139 -2157 0
-2139 -2158 0
-2139 -2159 0
-2139 -2160 0
-2139 -2161 0
-2139 -2162 0
-2139 -2163 0
-2139 -2164 0
-2139 -2165 0
-2139 -2166 0
-2139 -2167 0
-2139 -2168 0
-2139 -2169 0
-2139 -2170 0
-2139 -2171 0
-2139 -2172 0
-2139 -2173 0
-2139 -2174 0
-2139 -2175 0
-2139 -2176 0
-2139 -2177 0
-2139 -2178 0
-2139 -2179 0
-2139 -2180 0
-2139 -2181 0
-2139 -2182 0
-2139 -2183 0
-2139 -2184 0
-2139 -2185 0
-2139 -2186 0
-2139 -2187 0
-2139 -2188 0
-2139 -2189 0
-2139 -2190 0
-2139 -2191 0
-2139 -2192 0
-2139 -2193 0
-2139 -2194 0
-2139 -2195 0
-2139 -2196 0
-2139 -2197 0
-2139 -2198 0
-2139 -2199 0
-2139 -2200 0
-2139 -2201 0
-2139 -2202 0
-2139 -2203 0
-2139 -2204 0
-2139 -2205 0
-2139 -2206 0
-2139 -2207 0
-2139 -2208 0
-2139 -2209 0
-2139 -2210 0
-2139 -2211 0
-2139 -2212 0
-2139 -2213 0
-2139 -2214 0
-2139 -2215 0
-2139 -2216 0
-2139 -2217 0
-2139 -2218 0
-2139 -2219 0
-2140 -2141 0
-2140 -2142 0
-2140 -2143 0
-2140 -2144 0
-2140 -2145 0
-2140 -2146 0
-2140 -2147 0
-2140 -2148 0
-2140 -2149 0
-2140 -2150 0
-2140 -2151 0
-2140 -2152 0
-2140 -2153 0
-2140 -2154 0
-2140 -2155 0
-2140 -2156 0
-2140 -2157 0
-2140 -2158 0
-2140 -2159 0
-2140 -2160 0
-2140 -2161 0
-2140 -2162 0
-2140 -2163 0
-2140 -2164 0
-2140 -2165 0
-2140 -2166 0
-2140 -2167 0
-2140 -2168 0
-2140 -2169 0
-2140 -2170 0
-2140 -2171 0
-2140 -2172 0
-2140 -2173 0
-2140 -2174 0
-2140 -2175 0
-2140 -2176 0
-2140 -2177 0
-2140 -2178 0
-2140 -2179 0
-2140 -2180 0
-2140 -2181 0
-2140 -2182 0
-2140 -2183 0
-2140 -2184 0
-2140 -2185 0
-2140 -2186 0
-2140 -2187 0
-2140 -2188 0
-2140 -2189 0
-2140 -2190 0
-2140 -2191 0
-2140 -2192 0
-2140 -2193 0
-2140 -2194 0
-2140 -2195 0
-2140 -2196 0
-2140 -2197 0
-2140 -2198 0
-2140 -2199 0
-2140 -2200 0
-2140 -2201 0
-2140 -2202 0
-2140 -2203 0
-2140 -2204 0
-2140 -2205 0
-2140 -2206 0
-2140 -2207 0
-2140 -2208 0
-2140 -2209 0
-2140 -2210 0
-2140 -2211 0
-2140 -2212 0
-2140 -2213 0
-2140 -2214 0
-2140 -2215 0
-2140 -2216 0
-2140 -2217 0
-2140 -2218 0
-2140 -2219 0
-2141 -2142 0
-2141 -2143 0
-2141 -2144 0
-2141 -2145 0
-2141 -2146 0
-2141 -2147 0
-2141 -2148 0
-2141 -2149 0
-2141 -2150 0
-2141 -2151 0
-2141 -2152 0
-2141 -2153 0
-2141 -2154 0
-2141 -2155 0
-2141 -2156 0
-2141 -2157 0
-2141 -2158 0
-2141 -2159 0
-2141 -2160 0
-2141 -2161 0
-2141 -2162 0
-2141 -2163 0
-2141 -2164 0
-2141 -2165 0
-2141 -2166 0
-2141 -2167 0
-2141 -2168 0
-2141 -2169 0
-2141 -2170 0
-2141 -2171 0
-2141 -2172 0
-2141 -2173 0
-2141 -2174 0
-2141 -2175 0
-2141 -2176 0
-2141 -2177 0
-2141 -2178 0
-2141 -2179 0
-2141 -2180 0
-2141 -2181 0
-2141 -2182 0
-2141 -2183 0
-2141 -2184 0
-2141 -2185 0
-2141 -2186 0
-2141 -2187 0
-2141 -2188 0
-2141 -2189 0
-2141 -2190 0
-2141 -2191 0
-2141 -2192 0
-2141 -2193 0
-2141 -2194 0
-2141 -2195 0
-2141 -2196 0
-2141 -2197 0
-2141 -2198 0
-2141 -2199 0
-2141 -2200 0
-2141 -2201 0
-2141 -2202 0
-2141 -2203 0
-2141 -2204 0
-2141 -2205 0
-2141 -2206 0
-2141 -2207 0
-2141 -2208 0
-2141 -2209 0
-2141 -2210 0
-2141 -2211 0
-2141 -2212 0
-2141 -2213 0
-2141 -2214 0
-2141 -2215 0
-2141 -2216 0
-2141 -2217 0
-2141 -2218 0
-2141 -2219 0
-2142 -2143 0
-2142 -2144 0
-2142 -2145 0
-2142 -2146 0
-2142 -2147 0
-2142 -2148 0
-2142 -2149 0
-2142 -2150 0
-2142 -2151 0
-2142 -2152 0
-2142 -2153 0
-2142 -2154 0
-2142 -2155 0
-2142 -2156 0
-2142 -2157 0
-2142 -2158 0
-2142 -2159 0
-2142 -2160 0
-2142 -2161 0
-2142 -2162 0
-2142 -2163 0
-2142 -2164 0
-2142 -2165 0
-2142 -2166 0
-2142 -2167 0
-2142 -2168 0
-2142 -2169 0
-2142 -2170 0
-2142 -2171 0
-2142 -2172 0
-2142 -2173 0
-2142 -2174 0
-2142 -2175 0
-2142 -2176 0
-2142 -2177 0
-2142 -2178 0
-2142 -2179 0
-2142 -2180 0
-2142 -2181 0
-2142 -2182 0
-2142 -2183 0
-2142 -2184 0
-2142 -2185 0
-2142 -2186 0
-2142 -2187 0
-2142 -2188 0
-2142 -2189 0
-2142 -2190 0
-2142 -2191 0
-2142 -2192 0
-2142 -2193 0
-2142 -2194 0
-2142 -2195 0
-2142 -2196 0
-2142 -2197 0
-2142 -2198 0
-2142 -2199 0
-2142 -2200 0
-2142 -2201 0
-2142 -2202 0
-2142 -2203 0
-2142 -2204 0
-2142 -2205 0
-2142 -2206 0
-2142 -2207 0
-2142 -2208 0
-2142 -2209 0
-2142 -2210 0
-2142 -2211 0
-2142 -2212 0
-2142 -2213 0
-2142 -2214 0
-2142 -2215 0
-2142 -2216 0
-2142 -2217 0
-2142 -2218 0
-2142 -2219 0
-2143 -2144 0
-2143 -2145 0
-2143 -2146 0
-2143 -2147 0
-2143 -2148 0
-2143 -2149 0
-2143 -2150 0
-2143 -2151 0
-2143 -2152 0
-2143 -2153 0
-2143 -2154 0
-2143 -2155 0
-2143 -2156 0
-2143 -2157 0
-2143 -2158 0
-2143 -2159 0
-2143 -2160 0
-2143 -2161 0
-2143 -2162 0
-2143 -2163 0
-2143 -2164 0
-2143 -2165 0
-2143 -2166 0
-2143 -2167 0
-2143 -2168 0
-2143 -2169 0
-2143 -2170 0
-2143 -2171 0
-2143 -2172 0
-2143 -2173 0
-2143 -2174 0
-2143 -2175 0
-2143 -2176 0
-2143 -2177 0
-2143 -2178 0
-2143 -2179 0
-2143 -2180 0
-2143 -2181 0
-2143 -2182 0
-2143 -2183 0
-2143 -2184 0
-2143 -2185 0
-2143 -2186 0
-2143 -2187 0
-2143 -2188 0
-2143 -2189 0
-2143 -2190 0
-2143 -2191 0
-2143 -2192 0
-2143 -2193 0
-2143 -2194 0
-2143 -2195 0
-2143 -2196 0
-2143 -2197 0
-2143 -2198 0
-2143 -2199 0
-2143 -2200 0
-2143 -2201 0
-2143 -2202 0
-2143 -2203 0
-2143 -2204 0
-2143 -2205 0
-2143 -2206 0
-2143 -2207 0
-2143 -2208 0
-2143 -2209 0
-2143 -2210 0
-2143 -2211 0
-2143 -2212 0
-2143 -2213 0
-2143 -2214 0
-2143 -2215 0
-2143 -2216 0
-2143 -2217 0
-2143 -2218 0
-2143 -2219 0
-2144 -2145 0
-2144 -2146 0
-2144 -2147 0
-2144 -2148 0
-2144 -2149 0
-2144 -2150 0
-2144 -2151 0
-2144 -2152 0
-2144 -2153 0
-2144 -2154 0
-2144 -2155 0
-2144 -2156 0
-2144 -2157 0
-2144 -2158 0
-2144 -2159 0
-2144 -2160 0
-2144 -2161 0
-2144 -2162 0
-2144 -2163 0
-2144 -2164 0
-2144 -2165 0
-2144 -2166 0
-2144 -2167 0
-2144 -2168 0
-2144 -2169 0
-2144 -2170 0
-2144 -2171 0
-2144 -2172 0
-2144 -2173 0
-2144 -2174 0
-2144 -2175 0
-2144 -2176 0
-2144 -2177 0
-2144 -2178 0
-2144 -2179 0
-2144 -2180 0
-2144 -2181 0
-2144 -2182 0
-2144 -2183 0
-2144 -2184 0
-2144 -2185 0
-2144 -2186 0
-2144 -2187 0
-2144 -2188 0
-2144 -2189 0
-2144 -2190 0
-2144 -2191 0
-2144 -2192 0
-2144 -2193 0
-2144 -2194 0
-2144 -2195 0
-2144 -2196 0
-2144 -2197 0
-2144 -2198 0
-2144 -2199 0
-2144 -2200 0
-2144 -2201 0
-2144 -2202 0
-2144 -2203 0
-2144 -2204 0
-2144 -2205 0
-2144 -2206 0
-2144 -2207 0
-2144 -2208 0
-2144 -2209 0
-2144 -2210 0
-2144 -2211 0
-2144 -2212 0
-2144 -2213 0
-2144 -2214 0
-2144 -2215 0
-2144 -2216 0
-2144 -2217 0
-2144 -2218 0
-2144 -2219 0
-2145 -2146 0
-2145 -2147 0
-2145 -2148 0
-2145 -2149 0
-2145 -2150 0
-2145 -2151 0
-2145 -2152 0
-2145 -2153 0
-2145 -2154 0
-2145 -2155 0
-2145 -2156 0
-2145 -2157 0
-2145 -2158 0
-2145 -2159 0
-2145 -2160 0
-2145 -2161 0
-2145 -2162 0
-2145 -2163 0
-2145 -2164 0
-2145 -2165 0
-2145 -2166 0
-2145 -2167 0
-2145 -2168 0
-2145 -2169 0
-2145 -2170 0
-2145 -2171 0
-2145 -2172 0
-2145 -2173 0
-2145 -2174 0
-2145 -2175 0
-2145 -2176 0
-2145 -2177 0
-2145 -2178 0
-2145 -2179 0
-2145 -2180 0
-2145 -2181 0
-2145 -2182 0
-2145 -2183 0
-2145 -2184 0
-2145 -2185 0
-2145 -2186 0
-2145 -2187 0
-2145 -2188 0
-2145 -2189 0
-2145 -2190 0
-2145 -2191 0
-2145 -2192 0
-2145 -2193 0
-2145 -2194 0
-2145 -2195 0
-2145 -2196 0
-2145 -2197 0
-2145 -2198 0
-2145 -2199 0
-2145 -2200 0
-2145 -2201 0
-2145 -2202 0
-2145 -2203 0
-2145 -2204 0
-2145 -2205 0
-2145 -2206 0
-2145 -2207 0
-2145 -2208 0
-2145 -2209 0
-2145 -2210 0
-2145 -2211 0
-2145 -2212 0
-2145 -2213 0
-2145 -2214 0
-2145 -2215 0
-2145 -2216 0
-2145 -2217 0
-2145 -2218 0
-2145 -2219 0
-2146 -2147 0
-2146 -2148 0
-2146 -2149 0
-2146 -2150 0
-2146 -2151 0
-2146 -2152 0
-2146 -2153 0
-2146 -2154 0
-2146 -2155 0
-2146 -2156 0
-2146 -2157 0
-2146 -2158 0
-2146 -2159 0
-2146 -2160 0
-2146 -2161 0
-2146 -2162 0
-2146 -2163 0
-2146 -2164 0
-2146 -2165 0
-2146 -2166 0
-2146 -2167 0
-2146 -2168 0
-2146 -2169 0
-2146 -2170 0
-2146 -2171 0
-2146 -2172 0
-2146 -2173 0
-2146 -2174 0
-2146 -2175 0
-2146 -2176 0
-2146 -2177 0
-2146 -2178 0
-2146 -2179 0
-2146 -2180 0
-2146 -2181 0
-2146 -2182 0
-2146 -2183 0
-2146 -2184 0
-2146 -2185 0
-2146 -2186 0
-2146 -2187 0
-2146 -2188 0
-2146 -2189 0
-2146 -2190 0
-2146 -2191 0
-2146 -2192 0
-2146 -2193 0
-2146 -2194 0
-2146 -2195 0
-2146 -2196 0
-2146 -2197 0
-2146 -2198 0
-2146 -2199 0
-2146 -2200 0
-2146 -2201 0
-2146 -2202 0
-2146 -2203 0
-2146 -2204 0
-2146 -2205 0
-2146 -2206 0
-2146 -2207 0
-2146 -2208 0
-2146 -2209 0
-2146 -2210 0
-2146 -2211 0
-2146 -2212 0
-2146 -2213 0
-2146 -2214 0
-2146 -2215 0
-2146 -2216 0
-2146 -2217 0
-2146 -2218 0
-2146 -2219 0
-2147 -2148 0
-2147 -2149 0
-2147 -2150 0
-2147 -2151 0
-2147 -2152 0
-2147 -2153 0
-2147 -2154 0
-2147 -2155 0
-2147 -2156 0
-2147 -2157 0
-2147 -2158 0
-2147 -2159 0
-2147 -2160 0
-2147 -2161 0
-2147 -2162 0
-2147 -2163 0
-2147 -2164 0
-2147 -2165 0
-2147 -2166 0
-2147 -2167 0
-2147 -2168 0
-2147 -2169 0
-2147 -2170 0
-2147 -2171 0
-2147 -2172 0
-2147 -2173 0
-2147 -2174 0
-2147 -2175 0
-2147 -2176 0
-2147 -2177 0
-2147 -2178 0
-2147 -2179 0
-2147 -2180 0
-2147 -2181 0
-2147 -2182 0
-2147 -2183 0
-2147 -2184 0
-2147 -2185 0
-2147 -2186 0
-2147 -2187 0
-2147 -2188 0
-2147 -2189 0
-2147 -2190 0
-2147 -2191 0
-2147 -2192 0
-2147 -2193 0
-2147 -2194 0
-2147 -2195 0
-2147 -2196 0
-2147 -2197 0
-2147 -2198 0
-2147 -2199 0
-2147 -2200 0
-2147 -2201 0
-2147 -2202 0
-2147 -2203 0
-2147 -2204 0
-2147 -2205 0
-2147 -2206 0
-2147 -2207 0
-2147 -2208 0
-2147 -2209 0
-2147 -2210 0
-2147 -2211 0
-2147 -2212 0
-2147 -2213 0
-2147 -2214 0
-2147 -2215 0
-2147 -2216 0
-2147 -2217 0
-2147 -2218 0
-2147 -2219 0
-2148 -2149 0
-2148 -2150 0
-2148 -2151 0
-2148 -2152 0
-2148 -2153 0
-2148 -2154 0
-2148 -2155 0
-2148 -2156 0
-2148 -2157 0
-2148 -2158 0
-2148 -2159 0
-2148 -2160 0
-2148 -2161 0
-2148 -2162 0
-2148 -2163 0
-2148 -2164 0
-2148 -2165 0
-2148 -2166 0
-2148 -2167 0
-2148 -2168 0
-2148 -2169 0
-2148 -2170 0
-2148 -2171 0
-2148 -2172 0
-2148 -2173 0
-2148 -2174 0
-2148 -2175 0
-2148 -2176 0
-2148 -2177 0
-2148 -2178 0
-2148 -2179 0
-2148 -2180 0
-2148 -2181 0
-2148 -2182 0
-2148 -2183 0
-2148 -2184 0
-2148 -2185 0
-2148 -2186 0
-2148 -2187 0
-2148 -2188 0
-2148 -2189 0
-2148 -2190 0
-2148 -2191 0
-2148 -2192 0
-2148 -2193 0
-2148 -2194 0
-2148 -2195 0
-2148 -2196 0
-2148 -2197 0
-2148 -2198 0
-2148 -2199 0
-2148 -2200 0
-2148 -2201 0
-2148 -2202 0
-2148 -2203 0
-2148 -2204 0
-2148 -2205 0
-2148 -2206 0
-2148 -2207 0
-2148 -2208 0
-2148 -2209 0
-2148 -2210 0
-2148 -2211 0
-2148 -2212 0
-2148 -2213 0
-2148 -2214 0
-2148 -2215 0
-2148 -2216 0
-2148 -2217 0
-2148 -2218 0
-2148 -2219 0
-2149 -2150 0
-2149 -2151 0
-2149 -2152 0
-2149 -2153 0
-2149 -2154 0
-2149 -2155 0
-2149 -2156 0
-2149 -2157 0
-2149 -2158 0
-2149 -2159 0
-2149 -2160 0
-2149 -2161 0
-2149 -2162 0
-2149 -2163 0
-2149 -2164 0
-2149 -2165 0
-2149 -2166 0
-2149 -2167 0
-2149 -2168 0
-2149 -2169 0
-2149 -2170 0
-2149 -2171 0
-2149 -2172 0
-2149 -2173 0
-2149 -2174 0
-2149 -2175 0
-2149 -2176 0
-2149 -2177 0
-2149 -2178 0
-2149 -2179 0
-2149 -2180 0
-2149 -2181 0
-2149 -2182 0
-2149 -2183 0
-2149 -2184 0
-2149 -2185 0
-2149 -2186 0
-2149 -2187 0
-2149 -2188 0
-2149 -2189 0
-2149 -2190 0
-2149 -2191 0
-2149 -2192 0
-2149 -2193 0
-2149 -2194 0
-2149 -2195 0
-2149 -2196 0
-2149 -2197 0
-2149 -2198 0
-2149 -2199 0
-2149 -2200 0
-2149 -2201 0
-2149 -2202 0
-2149 -2203 0
-2149 -2204 0
-2149 -2205 0
-2149 -2206 0
-2149 -2207 0
-2149 -2208 0
-2149 -2209 0
-2149 -2210 0
-2149 -2211 0
-2149 -2212 0
-2149 -2213 0
-2149 -2214 0
-2149 -2215 0
-2149 -2216 0
-2149 -2217 0
-2149 -2218 0
-2149 -2219 0
-2150 -2151 0
-2150 -2152 0
-2150 -2153 0
-2150 -2154 0
-2150 -2155 0
-2150 -2156 0
-2150 -2157 0
-2150 -2158 0
-2150 -2159 0
-2150 -2160 0
-2150 -2161 0
-2150 -2162 0
-2150 -2163 0
-2150 -2164 0
-2150 -2165 0
-2150 -2166 0
-2150 -2167 0
-2150 -2168 0
-2150 -2169 0
-2150 -2170 0
-2150 -2171 0
-2150 -2172 0
-2150 -2173 0
-2150 -2174 0
-2150 -2175 0
-2150 -2176 0
-2150 -2177 0
-2150 -2178 0
-2150 -2179 0
-2150 -2180 0
-2150 -2181 0
-2150 -2182 0
-2150 -2183 0
-2150 -2184 0
-2150 -2185 0
-2150 -2186 0
-2150 -2187 0
-2150 -2188 0
-2150 -2189 0
-2150 -2190 0
-2150 -2191 0
-2150 -2192 0
-2150 -2193 0
-2150 -2194 0
-2150 -2195 0
-2150 -2196 0
-2150 -2197 0
-2150 -2198 0
-2150 -2199 0
-2150 -2200 0
-2150 -2201 0
-2150 -2202 0
-2150 -2203 0
-2150 -2204 0
-2150 -2205 0
-2150 -2206 0
-2150 -2207 0
-2150 -2208 0
-2150 -2209 0
-2150 -2210 0
-2150 -2211 0
-2150 -2212 0
-2150 -2213 0
-2150 -2214 0
-2150 -2215 0
-2150 -2216 0
-2150 -2217 0
-2150 -2218 0
-2150 -2219 0
-2151 -2152 0
-2151 -2153 0
-2151 -2154 0
-2151 -2155 0
-2151 -2156 0
-2151 -2157 0
-2151 -2158 0
-2151 -2159 0
-2151 -2160 0
-2151 -2161 0
-2151 -2162 0
-2151 -2163 0
-2151 -2164 0
-2151 -2165 0
-2151 -2166 0
-2151 -2167 0
-2151 -2168 0
-2151 -2169 0
-2151 -2170 0
-2151 -2171 0
-2151 -2172 0
-2151 -2173 0
-2151 -2174 0
-2151 -2175 0
-2151 -2176 0
-2151 -2177 0
-2151 -2178 0
-2151 -2179 0
-2151 -2180 0
-2151 -2181 0
-2151 -2182 0
-2151 -2183 0
-2151 -2184 0
-2151 -2185 0
-2151 -2186 0
-2151 -2187 0
-2151 -2188 0
-2151 -2189 0
-2151 -2190 0
-2151 -2191 0
-2151 -2192 0
-2151 -2193 0
-2151 -2194 0
-2151 -2195 0
-2151 -2196 0
-2151 -2197 0
-2151 -2198 0
-2151 -2199 0
-2151 -2200 0
-2151 -2201 0
-2151 -2202 0
-2151 -2203 0
-2151 -2204 0
-2151 -2205 0
-2151 -2206 0
-2151 -2207 0
-2151 -2208 0
-2151 -2209 0
-2151 -2210 0
-2151 -2211 0
-2151 -2212 0
-2151 -2213 0
-2151 -2214 0
-2151 -2215 0
-2151 -2216 0
-2151 -2217 0
-2151 -2218 0
-2151 -2219 0
-2152 -2153 0
-2152 -2154 0
-2152 -2155 0
-2152 -2156 0
-2152 -2157 0
-2152 -2158 0
-2152 -2159 0
-2152 -2160 0
-2152 -2161 0
-2152 -2162 0
-2152 -2163 0
-2152 -2164 0
-2152 -2165 0
-2152 -2166 0
-2152 -2167 0
-2152 -2168 0
-2152 -2169 0
-2152 -2170 0
-2152 -2171 0
-2152 -2172 0
-2152 -2173 0
-2152 -2174 0
-2152 -2175 0
-2152 -2176 0
-2152 -2177 0
-2152 -2178 0
-2152 -2179 0
-2152 -2180 0
-2152 -2181 0
-2152 -2182 0
-2152 -2183 0
-2152 -2184 0
-2152 -2185 0
-2152 -2186 0
-2152 -2187 0
-2152 -2188 0
-2152 -2189 0
-2152 -2190 0
-2152 -2191 0
-2152 -2192 0
-2152 -2193 0
-2152 -2194 0
-2152 -2195 0
-2152 -2196 0
-2152 -2197 0
-2152 -2198 0
-2152 -2199 0
-2152 -2200 0
-2152 -2201 0
-2152 -2202 0
-2152 -2203 0
-2152 -2204 0
-2152 -2205 0
-2152 -2206 0
-2152 -2207 0
-2152 -2208 0
-2152 -2209 0
-2152 -2210 0
-2152 -2211 0
-2152 -2212 0
-2152 -2213 0
-2152 -2214 0
-2152 -2215 0
-2152 -2216 0
-2152 -2217 0
-2152 -2218 0
-2152 -2219 0
-2153 -2154 0
-2153 -2155 0
-2153 -2156 0
-2153 -2157 0
-2153 -2158 0
-2153 -2159 0
-2153 -2160 0
-2153 -2161 0
-2153 -2162 0
-2153 -2163 0
-2153 -2164 0
-2153 -2165 0
-2153 -2166 0
-2153 -2167 0
-2153 -2168 0
-2153 -2169 0
-2153 -2170 0
-2153 -2171 0
-2153 -2172 0
-2153 -2173 0
-2153 -2174 0
-2153 -2175 0
-2153 -2176 0
-2153 -2177 0
-2153 -2178 0
-2153 -2179 0
-2153 -2180 0
-2153 -2181 0
-2153 -2182 0
-2153 -2183 0
-2153 -2184 0
-2153 -2185 0
-2153 -2186 0
-2153 -2187 0
-2153 -2188 0
-2153 -2189 0
-2153 -2190 0
-2153 -2191 0
-2153 -2192 0
-2153 -2193 0
-2153 -2194 0
-2153 -2195 0
-2153 -2196 0
-2153 -2197 0
-2153 -2198 0
-2153 -2199 0
-2153 -2200 0
-2153 -2201 0
-2153 -2202 0
-2153 -2203 0
-2153 -2204 0
-2153 -2205 0
-2153 -2206 0
-2153 -2207 0
-2153 -2208 0
-2153 -2209 0
-2153 -2210 0
-2153 -2211 0
-2153 -2212 0
-2153 -2213 0
-2153 -2214 0
-2153 -2215 0
-2153 -2216 0
-2153 -2217 0
-2153 -2218 0
-2153 -2219 0
-2154 -2155 0
-2154 -2156 0
-2154 -2157 0
-2154 -2158 0
-2154 -2159 0
-2154 -2160 0
-2154 -2161 0
-2154 -2162 0
-2154 -2163 0
-2154 -2164 0
-2154 -2165 0
-2154 -2166 0
-2154 -2167 0
-2154 -2168 0
-2154 -2169 0
-2154 -2170 0
-2154 -2171 0
-2154 -2172 0
-2154 -2173 0
-2154 -2174 0
-2154 -2175 0
-2154 -2176 0
-2154 -2177 0
-2154 -2178 0
-2154 -2179 0
-2154 -2180 0
-2154 -2181 0
-2154 -2182 0
-2154 -2183 0
-2154 -2184 0
-2154 -2185 0
-2154 -2186 0
-2154 -2187 0
-2154 -2188 0
-2154 -2189 0
-2154 -2190 0
-2154 -2191 0
-2154 -2192 0
-2154 -2193 0
-2154 -2194 0
-2154 -2195 0
-2154 -2196 0
-2154 -2197 0
-2154 -2198 0
-2154 -2199 0
-2154 -2200 0
-2154 -2201 0
-2154 -2202 0
-2154 -2203 0
-2154 -2204 0
-2154 -2205 0
-2154 -2206 0
-2154 -2207 0
-2154 -2208 0
-2154 -2209 0
-2154 -2210 0
-2154 -2211 0
-2154 -2212 0
-2154 -2213 0
-2154 -2214 0
-2154 -2215 0
-2154 -2216 0
-2154 -2217 0
-2154 -2218 0
-2154 -2219 0
-2155 -2156 0
-2155 -2157 0
-2155 -2158 0
-2155 -2159 0
-2155 -2160 0
-2155 -2161 0
-2155 -2162 0
-2155 -2163 0
-2155 -2164 0
-2155 -2165 0
-2155 -2166 0
-2155 -2167 0
-2155 -2168 0
-2155 -2169 0
-2155 -2170 0
-2155 -2171 0
-2155 -2172 0
-2155 -2173 0
-2155 -2174 0
-2155 -2175 0
-2155 -2176 0
-2155 -2177 0
-2155 -2178 0
-2155 -2179 0
-2155 -2180 0
-2155 -2181 0
-2155 -2182 0
-2155 -2183 0
-2155 -2184 0
-2155 -2185 0
-2155 -2186 0
-2155 -2187 0
-2155 -2188 0
-2155 -2189 0
-2155 -2190 0
-2155 -2191 0
-2155 -2192 0
-2155 -2193 0
-2155 -2194 0
-2155 -2195 0
-2155 -2196 0
-2155 -2197 0
-2155 -2198 0
-2155 -2199 0
-2155 -2200 0
-2155 -2201 0
-2155 -2202 0
-2155 -2203 0
-2155 -2204 0
-2155 -2205 0
-2155 -2206 0
-2155 -2207 0
-2155 -2208 0
-2155 -2209 0
-2155 -2210 0
-2155 -2211 0
-2155 -2212 0
-2155 -2213 0
-2155 -2214 0
-2155 -2215 0
-2155 -2216 0
-2155 -2217 0
-2155 -2218 0
-2155 -2219 0
-2156 -2157 0
-2156 -2158 0
-2156 -2159 0
-2156 -2160 0
-2156 -2161 0
-2156 -2162 0
-2156 -2163 0
-2156 -2164 0
-2156 -2165 0
-2156 -2166 0
-2156 -2167 0
-2156 -2168 0
-2156 -2169 0
-2156 -2170 0
-2156 -2171 0
-2156 -2172 0
-2156 -2173 0
-2156 -2174 0
-2156 -2175 0
-2156 -2176 0
-2156 -2177 0
-2156 -2178 0
-2156 -2179 0
-2156 -2180 0
-2156 -2181 0
-2156 -2182 0
-2156 -2183 0
-2156 -2184 0
-2156 -2185 0
-2156 -2186 0
-2156 -2187 0
-2156 -2188 0
-2156 -2189 0
-2156 -2190 0
-2156 -2191 0
-2156 -2192 0
-2156 -2193 0
-2156 -2194 0
-2156 -2195 0
-2156 -2196 0
-2156 -2197 0
-2156 -2198 0
-2156 -2199 0
-2156 -2200 0
-2156 -2201 0
-2156 -2202 0
-2156 -2203 0
-2156 -2204 0
-2156 -2205 0
-2156 -2206 0
-2156 -2207 0
-2156 -2208 0
-2156 -2209 0
-2156 -2210 0
-2156 -2211 0
-2156 -2212 0
-2156 -2213 0
-2156 -2214 0
-2156 -2215 0
-2156 -2216 0
-2156 -2217 0
-2156 -2218 0
-2156 -2219 0
-2157 -2158 0
-2157 -2159 0
-2157 -2160 0
-2157 -2161 0
-2157 -2162 0
-2157 -2163 0
-2157 -2164 0
-2157 -2165 0
-2157 -2166 0
-2157 -2167 0
-2157 -2168 0
-2157 -2169 0
-2157 -2170 0
-2157 -2171 0
-2157 -2172 0
-2157 -2173 0
-2157 -2174 0
-2157 -2175 0
-2157 -2176 0
-2157 -2177 0
-2157 -2178 0
-2157 -2179 0
-2157 -2180 0
-2157 -2181 0
-2157 -2182 0
-2157 -2183 0
-2157 -2184 0
-2157 -2185 0
-2157 -2186 0
-2157 -2187 0
-2157 -2188 0
-2157 -2189 0
-2157 -2190 0
-2157 -2191 0
-2157 -2192 0
-2157 -2193 0
-2157 -2194 0
-2157 -2195 0
-2157 -2196 0
-2157 -2197 0
-2157 -2198 0
-2157 -2199 0
-2157 -2200 0
-2157 -2201 0
-2157 -2202 0
-2157 -2203 0
-2157 -2204 0
-2157 -2205 0
-2157 -2206 0
-2157 -2207 0
-2157 -2208 0
-2157 -2209 0
-2157 -2210 0
-2157 -2211 0
-2157 -2212 0
-2157 -2213 0
-2157 -2214 0
-2157 -2215 0
-2157 -2216 0
-2157 -2217 0
-2157 -2218 0
-2157 -2219 0
-2158 -2159 0
-2158 -2160 0
-2158 -2161 0
-2158 -2162 0
-2158 -2163 0
-2158 -2164 0
-2158 -2165 0
-2158 -2166 0
-2158 -2167 0
-2158 -2168 0
-2158 -2169 0
-2158 -2170 0
-2158 -2171 0
-2158 -2172 0
-2158 -2173 0
-2158 -2174 0
-2158 -2175 0
-2158 -2176 0
-2158 -2177 0
-2158 -2178 0
-2158 -2179 0
-2158 -2180 0
-2158 -2181 0
-2158 -2182 0
-2158 -2183 0
-2158 -2184 0
-2158 -2185 0
-2158 -2186 0
-2158 -2187 0
-2158 -2188 0
-2158 -2189 0
-2158 -2190 0
-2158 -2191 0
-2158 -2192 0
-2158 -2193 0
-2158 -2194 0
-2158 -2195 0
-2158 -2196 0
-2158 -2197 0
-2158 -2198 0
-2158 -2199 0
-2158 -2200 0
-2158 -2201 0
-2158 -2202 0
-2158 -2203 0
-2158 -2204 0
-2158 -2205 0
-2158 -2206 0
-2158 -2207 0
-2158 -2208 0
-2158 -2209 0
-2158 -2210 0
-2158 -2211 0
-2158 -2212 0
-2158 -2213 0
-2158 -2214 0
-2158 -2215 0
-2158 -2216 0
-2158 -2217 0
-2158 -2218 0
-2158 -2219 0
-2159 -2160 0
-2159 -2161 0
-2159 -2162 0
-2159 -2163 0
-2159 -2164 0
-2159 -2165 0
-2159 -2166 0
-2159 -2167 0
-2159 -2168 0
-2159 -2169 0
-2159 -2170 0
-2159 -2171 0
-2159 -2172 0
-2159 -2173 0
-2159 -2174 0
-2159 -2175 0
-2159 -2176 0
-2159 -2177 0
-2159 -2178 0
-2159 -2179 0
-2159 -2180 0
-2159 -2181 0
-2159 -2182 0
-2159 -2183 0
-2159 -2184 0
-2159 -2185 0
-2159 -2186 0
-2159 -2187 0
-2159 -2188 0
-2159 -2189 0
-2159 -2190 0
-2159 -2191 0
-2159 -2192 0
-2159 -2193 0
-2159 -2194 0
-2159 -2195 0
-2159 -2196 0
-2159 -2197 0
-2159 -2198 0
-2159 -2199 0
-2159 -2200 0
-2159 -2201 0
-2159 -2202 0
-2159 -2203 0
-2159 -2204 0
-2159 -2205 0
-2159 -2206 0
-2159 -2207 0
-2159 -2208 0
-2159 -2209 0
-2159 -2210 0
-2159 -2211 0
-2159 -2212 0
-2159 -2213 0
-2159 -2214 0
-2159 -2215 0
-2159 -2216 0
-2159 -2217 0
-2159 -2218 0
-2159 -2219 0
-2160 -2161 0
-2160 -2162 0
-2160 -2163 0
-2160 -2164 0
-2160 -2165 0
-2160 -2166 0
-2160 -2167 0
-2160 -2168 0
-2160 -2169 0
-2160 -2170 0
-2160 -2171 0
-2160 -2172 0
-2160 -2173 0
-2160 -2174 0
-2160 -2175 0
-2160 -2176 0
-2160 -2177 0
-2160 -2178 0
-2160 -2179 0
-2160 -2180 0
-2160 -2181 0
-2160 -2182 0
-2160 -2183 0
-2160 -2184 0
-2160 -2185 0
-2160 -2186 0
-2160 -2187 0
-2160 -2188 0
-2160 -2189 0
-2160 -2190 0
-2160 -2191 0
-2160 -2192 0
-2160 -2193 0
-2160 -2194 0
-2160 -2195 0
-2160 -2196 0
-2160 -2197 0
-2160 -2198 0
-2160 -2199 0
-2160 -2200 0
-2160 -2201 0
-2160 -2202 0
-2160 -2203 0
-2160 -2204 0
-2160 -2205 0
-2160 -2206 0
-2160 -2207 0
-2160 -2208 0
-2160 -2209 0
-2160 -2210 0
-2160 -2211 0
-2160 -2212 0
-2160 -2213 0
-2160 -2214 0
-2160 -2215 0
-2160 -2216 0
-2160 -2217 0
-2160 -2218 0
-2160 -2219 0
-2161 -2162 0
-2161 -2163 0
-2161 -2164 0
-2161 -2165 0
-2161 -2166 0
-2161 -2167 0
-2161 -2168 0
-2161 -2169 0
-2161 -2170 0
-2161 -2171 0
-2161 -2172 0
-2161 -2173 0
-2161 -2174 0
-2161 -2175 0
-2161 -2176 0
-2161 -2177 0
-2161 -2178 0
-2161 -2179 0
-2161 -2180 0
-2161 -2181 0
-2161 -2182 0
-2161 -2183 0
-2161 -2184 0
-2161 -2185 0
-2161 -2186 0
-2161 -2187 0
-2161 -2188 0
-2161 -2189 0
-2161 -2190 0
-2161 -2191 0
-2161 -2192 0
-2161 -2193 0
-2161 -2194 0
-2161 -2195 0
-2161 -2196 0
-2161 -2197 0
-2161 -2198 0
-2161 -2199 0
-2161 -2200 0
-2161 -2201 0
-2161 -2202 0
-2161 -2203 0
-2161 -2204 0
-2161 -2205 0
-2161 -2206 0
-2161 -2207 0
-2161 -2208 0
-2161 -2209 0
-2161 -2210 0
-2161 -2211 0
-2161 -2212 0
-2161 -2213 0
-2161 -2214 0
-2161 -2215 0
-2161 -2216 0
-2161 -2217 0
-2161 -2218 0
-2161 -2219 0
-2162 -2163 0
-2162 -2164 0
-2162 -2165 0
-2162 -2166 0
-2162 -2167 0
-2162 -2168 0
-2162 -2169 0
-2162 -2170 0
-2162 -2171 0
-2162 -2172 0
-2162 -2173 0
-2162 -2174 0
-2162 -2175 0
-2162 -2176 0
-2162 -2177 0
-2162 -2178 0
-2162 -2179 0
-2162 -2180 0
-2162 -2181 0
-2162 -2182 0
-2162 -2183 0
-2162 -2184 0
-2162 -2185 0
-2162 -2186 0
-2162 -2187 0
-2162 -2188 0
-2162 -2189 0
-2162 -2190 0
-2162 -2191 0
-2162 -2192 0
-2162 -2193 0
-2162 -2194 0
-2162 -2195 0
-2162 -2196 0
-2162 -2197 0
-2162 -2198 0
-2162 -2199 0
-2162 -2200 0
-2162 -2201 0
-2162 -2202 0
-2162 -2203 0
-2162 -2204 0
-2162 -2205 0
-2162 -2206 0
-2162 -2207 0
-2162 -2208 0
-2162 -2209 0
-2162 -2210 0
-2162 -2211 0
-2162 -2212 0
-2162 -2213 0
-2162 -2214 0
-2162 -2215 0
-2162 -2216 0
-2162 -2217 0
-2162 -2218 0
-2162 -2219 0
-2163 -2164 0
-2163 -2165 0
-2163 -2166 0
-2163 -2167 0
-2163 -2168 0
-2163 -2169 0
-2163 -2170 0
-2163 -2171 0
-2163 -2172 0
-2163 -2173 0
-2163 -2174 0
-2163 -2175 0
-2163 -2176 0
-2163 -2177 0
-2163 -2178 0
-2163 -2179 0
-2163 -2180 0
-2163 -2181 0
-2163 -2182 0
-2163 -2183 0
-2163 -2184 0
-2163 -2185 0
-2163 -2186 0
-2163 -2187 0
-2163 -2188 0
-2163 -2189 0
-2163 -2190 0
-2163 -2191 0
-2163 -2192 0
-2163 -2193 0
-2163 -2194 0
-2163 -2195 0
-2163 -2196 0
-2163 -2197 0
-2163 -2198 0
-2163 -2199 0
-2163 -2200 0
-2163 -2201 0
-2163 -2202 0
-2163 -2203 0
-2163 -2204 0
-2163 -2205 0
-2163 -2206 0
-2163 -2207 0
-2163 -2208 0
-2163 -2209 0
-2163 -2210 0
-2163 -2211 0
-2163 -2212 0
-2163 -2213 0
-2163 -2214 0
-2163 -2215 0
-2163 -2216 0
-2163 -2217 0
-2163 -2218 0
-2163 -2219 0
-2164 -2165 0
-2164 -2166 0
-2164 -2167 0
-2164 -2168 0
-2164 -2169 0
-2164 -2170 0
-2164 -2171 0
-2164 -2172 0
-2164 -2173 0
-2164 -2174 0
-2164 -2175 0
-2164 -2176 0
-2164 -2177 0
-2164 -2178 0
-2164 -2179 0
-2164 -2180 0
-2164 -2181 0
-2164 -2182 0
-2164 -2183 0
-2164 -2184 0
-2164 -2185 0
-2164 -2186 0
-2164 -2187 0
-2164 -2188 0
-2164 -2189 0
-2164 -2190 0
-2164 -2191 0
-2164 -2192 0
-2164 -2193 0
-2164 -2194 0
-2164 -2195 0
-2164 -2196 0
-2164 -2197 0
-2164 -2198 0
-2164 -2199 0
-2164 -2200 0
-2164 -2201 0
-2164 -2202 0
-2164 -2203 0
-2164 -2204 0
-2164 -2205 0
-2164 -2206 0
-2164 -2207 0
-2164 -2208 0
-2164 -2209 0
-2164 -2210 0
-2164 -2211 0
-2164 -2212 0
-2164 -2213 0
-2164 -2214 0
-2164 -2215 0
-2164 -2216 0
-2164 -2217 0
-2164 -2218 0
-2164 -2219 0
-2165 -2166 0
-2165 -2167 0
-2165 -2168 0
-2165 -2169 0
-2165 -2170 0
-2165 -2171 0
-2165 -2172 0
-2165 -2173 0
-2165 -2174 0
-2165 -2175 0
-2165 -2176 0
-2165 -2177 0
-2165 -2178 0
-2165 -2179 0
-2165 -2180 0
-2165 -2181 0
-2165 -2182 0
-2165 -2183 0
-2165 -2184 0
-2165 -2185 0
-2165 -2186 0
-2165 -2187 0
-2165 -2188 0
-2165 -2189 0
-2165 -2190 0
-2165 -2191 0
-2165 -2192 0
-2165 -2193 0
-2165 -2194 0
-2165 -2195 0
-2165 -2196 0
-2165 -2197 0
-2165 -2198 0
-2165 -2199 0
-2165 -2200 0
-2165 -2201 0
-2165 -2202 0
-2165 -2203 0
-2165 -2204 0
-2165 -2205 0
-2165 -2206 0
-2165 -2207 0
-2165 -2208 0
-2165 -2209 0
-2165 -2210 0
-2165 -2211 0
-2165 -2212 0
-2165 -2213 0
-2165 -2214 0
-2165 -2215 0
-2165 -2216 0
-2165 -2217 0
-2165 -2218 0
-2165 -2219 0
-2166 -2167 0
-2166 -2168 0
-2166 -2169 0
-2166 -2170 0
-2166 -2171 0
-2166 -2172 0
-2166 -2173 0
-2166 -2174 0
-2166 -2175 0
-2166 -2176 0
-2166 -2177 0
-2166 -2178 0
-2166 -2179 0
-2166 -2180 0
-2166 -2181 0
-2166 -2182 0
-2166 -2183 0
-2166 -2184 0
-2166 -2185 0
-2166 -2186 0
-2166 -2187 0
-2166 -2188 0
-2166 -2189 0
-2166 -2190 0
-2166 -2191 0
-2166 -2192 0
-2166 -2193 0
-2166 -2194 0
-2166 -2195 0
-2166 -2196 0
-2166 -2197 0
-2166 -2198 0
-2166 -2199 0
-2166 -2200 0
-2166 -2201 0
-2166 -2202 0
-2166 -2203 0
-2166 -2204 0
-2166 -2205 0
-2166 -2206 0
-2166 -2207 0
-2166 -2208 0
-2166 -2209 0
-2166 -2210 0
-2166 -2211 0
-2166 -2212 0
-2166 -2213 0
-2166 -2214 0
-2166 -2215 0
-2166 -2216 0
-2166 -2217 0
-2166 -2218 0
-2166 -2219 0
-2167 -2168 0
-2167 -2169 0
-2167 -2170 0
-2167 -2171 0
-2167 -2172 0
-2167 -2173 0
-2167 -2174 0
-2167 -2175 0
-2167 -2176 0
-2167 -2177 0
-2167 -2178 0
-2167 -2179 0
-2167 -2180 0
-2167 -2181 0
-2167 -2182 0
-2167 -2183 0
-2167 -2184 0
-2167 -2185 0
-2167 -2186 0
-2167 -2187 0
-2167 -2188 0
-2167 -2189 0
-2167 -2190 0
-2167 -2191 0
-2167 -2192 0
-2167 -2193 0
-2167 -2194 0
-2167 -2195 0
-2167 -2196 0
-2167 -2197 0
-2167 -2198 0
-2167 -2199 0
-2167 -2200 0
-2167 -2201 0
-2167 -2202 0
-2167 -2203 0
-2167 -2204 0
-2167 -2205 0
-2167 -2206 0
-2167 -2207 0
-2167 -2208 0
-2167 -2209 0
-2167 -2210 0
-2167 -2211 0
-2167 -2212 0
-2167 -2213 0
-2167 -2214 0
-2167 -2215 0
-2167 -2216 0
-2167 -2217 0
-2167 -2218 0
-2167 -2219 0
-2168 -2169 0
-2168 -2170 0
-2168 -2171 0
-2168 -2172 0
-2168 -2173 0
-2168 -2174 0
-2168 -2175 0
-2168 -2176 0
-2168 -2177 0
-2168 -2178 0
-2168 -2179 0
-2168 -2180 0
-2168 -2181 0
-2168 -2182 0
-2168 -2183 0
-2168 -2184 0
-2168 -2185 0
-2168 -2186 0
-2168 -2187 0
-2168 -2188 0
-2168 -2189 0
-2168 -2190 0
-2168 -2191 0
-2168 -2192 0
-2168 -2193 0
-2168 -2194 0
-2168 -2195 0
-2168 -2196 0
-2168 -2197 0
-2168 -2198 0
-2168 -2199 0
-2168 -2200 0
-2168 -2201 0
-2168 -2202 0
-2168 -2203 0
-2168 -2204 0
-2168 -2205 0
-2168 -2206 0
-2168 -2207 0
-2168 -2208 0
-2168 -2209 0
-2168 -2210 0
-2168 -2211 0
-2168 -2212 0
-2168 -2213 0
-2168 -2214 0
-2168 -2215 0
-2168 -2216 0
-2168 -2217 0
-2168 -2218 0
-2168 -2219 0
-2169 -2170 0
-2169 -2171 0
-2169 -2172 0
-2169 -2173 0
-2169 -2174 0
-2169 -2175 0
-2169 -2176 0
-2169 -2177 0
-2169 -2178 0
-2169 -2179 0
-2169 -2180 0
-2169 -2181 0
-2169 -2182 0
-2169 -2183 0
-2169 -2184 0
-2169 -2185 0
-2169 -2186 0
-2169 -2187 0
-2169 -2188 0
-2169 -2189 0
-2169 -2190 0
-2169 -2191 0
-2169 -2192 0
-2169 -2193 0
-2169 -2194 0
-2169 -2195 0
-2169 -2196 0
-2169 -2197 0
-2169 -2198 0
-2169 -2199 0
-2169 -2200 0
-2169 -2201 0
-2169 -2202 0
-2169 -2203 0
-2169 -2204 0
-2169 -2205 0
-2169 -2206 0
-2169 -2207 0
-2169 -2208 0
-2169 -2209 0
-2169 -2210 0
-2169 -2211 0
-2169 -2212 0
-2169 -2213 0
-2169 -2214 0
-2169 -2215 0
-2169 -2216 0
-2169 -2217 0
-2169 -2218 0
-2169 -2219 0
-2170 -2171 0
-2170 -2172 0
-2170 -2173 0
-2170 -2174 0
-2170 -2175 0
-2170 -2176 0
-2170 -2177 0
-2170 -2178 0
-2170 -2179 0
-2170 -2180 0
-2170 -2181 0
-2170 -2182 0
-2170 -2183 0
-2170 -2184 0
-2170 -2185 0
-2170 -2186 0
-2170 -2187 0
-2170 -2188 0
-2170 -2189 0
-2170 -2190 0
-2170 -2191 0
-2170 -2192 0
-2170 -2193 0
-2170 -2194 0
-2170 -2195 0
-2170 -2196 0
-2170 -2197 0
-2170 -2198 0
-2170 -2199 0
-2170 -2200 0
-2170 -2201 0
-2170 -2202 0
-2170 -2203 0
-2170 -2204 0
-2170 -2205 0
-2170 -2206 0
-2170 -2207 0
-2170 -2208 0
-2170 -2209 0
-2170 -2210 0
-2170 -2211 0
-2170 -2212 0
-2170 -2213 0
-2170 -2214 0
-2170 -2215 0
-2170 -2216 0
-2170 -2217 0
-2170 -2218 0
-2170 -2219 0
-2171 -2172 0
-2171 -2173 0
-2171 -2174 0
-2171 -2175 0
-2171 -2176 0
-2171 -2177 0
-2171 -2178 0
-2171 -2179 0
-2171 -2180 0
-2171 -2181 0
-2171 -2182 0
-2171 -2183 0
-2171 -2184 0
-2171 -2185 0
-2171 -2186 0
-2171 -2187 0
-2171 -2188 0
-2171 -2189 0
-2171 -2190 0
-2171 -2191 0
-2171 -2192 0
-2171 -2193 0
-2171 -2194 0
-2171 -2195 0
-2171 -2196 0
-2171 -2197 0
-2171 -2198 0
-2171 -2199 0
-2171 -2200 0
-2171 -2201 0
-2171 -2202 0
-2171 -2203 0
-2171 -2204 0
-2171 -2205 0
-2171 -2206 0
-2171 -2207 0
-2171 -2208 0
-2171 -2209 0
-2171 -2210 0
-2171 -2211 0
-2171 -2212 0
-2171 -2213 0
-2171 -2214 0
-2171 -2215 0
-2171 -2216 0
-2171 -2217 0
-2171 -2218 0
-2171 -2219 0
-2172 -2173 0
-2172 -2174 0
-2172 -2175 0
-2172 -2176 0
-2172 -2177 0
-2172 -2178 0
-2172 -2179 0
-2172 -2180 0
-2172 -2181 0
-2172 -2182 0
-2172 -2183 0
-2172 -2184 0
-2172 -2185 0
-2172 -2186 0
-2172 -2187 0
-2172 -2188 0
-2172 -2189 0
-2172 -2190 0
-2172 -2191 0
-2172 -2192 0
-2172 -2193 0
-2172 -2194 0
-2172 -2195 0
-2172 -2196 0
-2172 -2197 0
-2172 -2198 0
-2172 -2199 0
-2172 -2200 0
-2172 -2201 0
-2172 -2202 0
-2172 -2203 0
-2172 -2204 0
-2172 -2205 0
-2172 -2206 0
-2172 -2207 0
-2172 -2208 0
-2172 -2209 0
-2172 -2210 0
-2172 -2211 0
-2172 -2212 0
-2172 -2213 0
-2172 -2214 0
-2172 -2215 0
-2172 -2216 0
-2172 -2217 0
-2172 -2218 0
-2172 -2219 0
-2173 -2174 0
-2173 -2175 0
-2173 -2176 0
-2173 -2177 0
-2173 -2178 0
-2173 -2179 0
-2173 -2180 0
-2173 -2181 0
-2173 -2182 0
-2173 -2183 0
-2173 -2184 0
-2173 -2185 0
-2173 -2186 0
-2173 -2187 0
-2173 -2188 0
-2173 -2189 0
-2173 -2190 0
-2173 -2191 0
-2173 -2192 0
-2173 -2193 0
-2173 -2194 0
-2173 -2195 0
-2173 -2196 0
-2173 -2197 0
-2173 -2198 0
-2173 -2199 0
-2173 -2200 0
-2173 -2201 0
-2173 -2202 0
-2173 -2203 0
-2173 -2204 0
-2173 -2205 0
-2173 -2206 0
-2173 -2207 0
-2173 -2208 0
-2173 -2209 0
-2173 -2210 0
-2173 -2211 0
-2173 -2212 0
-2173 -2213 0
-2173 -2214 0
-2173 -2215 0
-2173 -2216 0
-2173 -2217 0
-2173 -2218 0
-2173 -2219 0
-2174 -2175 0
-2174 -2176 0
-2174 -2177 0
-2174 -2178 0
-2174 -2179 0
-2174 -2180 0
-2174 -2181 0
-2174 -2182 0
-2174 -2183 0
-2174 -2184 0
-2174 -2185 0
-2174 -2186 0
-2174 -2187 0
-2174 -2188 0
-2174 -2189 0
-2174 -2190 0
-2174 -2191 0
-2174 -2192 0
-2174 -2193 0
-2174 -2194 0
-2174 -2195 0
-2174 -2196 0
-2174 -2197 0
-2174 -2198 0
-2174 -2199 0
-2174 -2200 0
-2174 -2201 0
-2174 -2202 0
-2174 -2203 0
-2174 -2204 0
-2174 -2205 0
-2174 -2206 0
-2174 -2207 0
-2174 -2208 0
-2174 -2209 0
-2174 -2210 0
-2174 -2211 0
-2174 -2212 0
-2174 -2213 0
-2174 -2214 0
-2174 -2215 0
-2174 -2216 0
-2174 -2217 0
-2174 -2218 0
-2174 -2219 0
-2175 -2176 0
-2175 -2177 0
-2175 -2178 0
-2175 -2179 0
-2175 -2180 0
-2175 -2181 0
-2175 -2182 0
-2175 -2183 0
-2175 -2184 0
-2175 -2185 0
-2175 -2186 0
-2175 -2187 0
-2175 -2188 0
-2175 -2189 0
-2175 -2190 0
-2175 -2191 0
-2175 -2192 0
-2175 -2193 0
-2175 -2194 0
-2175 -2195 0
-2175 -2196 0
-2175 -2197 0
-2175 -2198 0
-2175 -2199 0
-2175 -2200 0
-2175 -2201 0
-2175 -2202 0
-2175 -2203 0
-2175 -2204 0
-2175 -2205 0
-2175 -2206 0
-2175 -2207 0
-2175 -2208 0
-2175 -2209 0
-2175 -2210 0
-2175 -2211 0
-2175 -2212 0
-2175 -2213 0
-2175 -2214 0
-2175 -2215 0
-2175 -2216 0
-2175 -2217 0
-2175 -2218 0
-2175 -2219 0
-2176 -2177 0
-2176 -2178 0
-2176 -2179 0
-2176 -2180 0
-2176 -2181 0
-2176 -2182 0
-2176 -2183 0
-2176 -2184 0
-2176 -2185 0
-2176 -2186 0
-2176 -2187 0
-2176 -2188 0
-2176 -2189 0
-2176 -2190 0
-2176 -2191 0
-2176 -2192 0
-2176 -2193 0
-2176 -2194 0
-2176 -2195 0
-2176 -2196 0
-2176 -2197 0
-2176 -2198 0
-2176 -2199 0
-2176 -2200 0
-2176 -2201 0
-2176 -2202 0
-2176 -2203 0
-2176 -2204 0
-2176 -2205 0
-2176 -2206 0
-2176 -2207 0
-2176 -2208 0
-2176 -2209 0
-2176 -2210 0
-2176 -2211 0
-2176 -2212 0
-2176 -2213 0
-2176 -2214 0
-2176 -2215 0
-2176 -2216 0
-2176 -2217 0
-2176 -2218 0
-2176 -2219 0
-2177 -2178 0
-2177 -2179 0
-2177 -2180 0
-2177 -2181 0
-2177 -2182 0
-2177 -2183 0
-2177 -2184 0
-2177 -2185 0
-2177 -2186 0
-2177 -2187 0
-2177 -2188 0
-2177 -2189 0
-2177 -2190 0
-2177 -2191 0
-2177 -2192 0
-2177 -2193 0
-2177 -2194 0
-2177 -2195 0
-2177 -2196 0
-2177 -2197 0
-2177 -2198 0
-2177 -2199 0
-2177 -2200 0
-2177 -2201 0
-2177 -2202 0
-2177 -2203 0
-2177 -2204 0
-2177 -2205 0
-2177 -2206 0
-2177 -2207 0
-2177 -2208 0
-2177 -2209 0
-2177 -2210 0
-2177 -2211 0
-2177 -2212 0
-2177 -2213 0
-2177 -2214 0
-2177 -2215 0
-2177 -2216 0
-2177 -2217 0
-2177 -2218 0
-2177 -2219 0
-2178 -2179 0
-2178 -2180 0
-2178 -2181 0
-2178 -2182 0
-2178 -2183 0
-2178 -2184 0
-2178 -2185 0
-2178 -2186 0
-2178 -2187 0
-2178 -2188 0
-2178 -2189 0
-2178 -2190 0
-2178 -2191 0
-2178 -2192 0
-2178 -2193 0
-2178 -2194 0
-2178 -2195 0
-2178 -2196 0
-2178 -2197 0
-2178 -2198 0
-2178 -2199 0
-2178 -2200 0
-2178 -2201 0
-2178 -2202 0
-2178 -2203 0
-2178 -2204 0
-2178 -2205 0
-2178 -2206 0
-2178 -2207 0
-2178 -2208 0
-2178 -2209 0
-2178 -2210 0
-2178 -2211 0
-2178 -2212 0
-2178 -2213 0
-2178 -2214 0
-2178 -2215 0
-2178 -2216 0
-2178 -2217 0
-2178 -2218 0
-2178 -2219 0
-2179 -2180 0
-2179 -2181 0
-2179 -2182 0
-2179 -2183 0
-2179 -2184 0
-2179 -2185 0
-2179 -2186 0
-2179 -2187 0
-2179 -2188 0
-2179 -2189 0
-2179 -2190 0
-2179 -2191 0
-2179 -2192 0
-2179 -2193 0
-2179 -2194 0
-2179 -2195 0
-2179 -2196 0
-2179 -2197 0
-2179 -2198 0
-2179 -2199 0
-2179 -2200 0
-2179 -2201 0
-2179 -2202 0
-2179 -2203 0
-2179 -2204 0
-2179 -2205 0
-2179 -2206 0
-2179 -2207 0
-2179 -2208 0
-2179 -2209 0
-2179 -2210 0
-2179 -2211 0
-2179 -2212 0
-2179 -2213 0
-2179 -2214 0
-2179 -2215 0
-2179 -2216 0
-2179 -2217 0
-2179 -2218 0
-2179 -2219 0
-2180 -2181 0
-2180 -2182 0
-2180 -2183 0
-2180 -2184 0
-2180 -2185 0
-2180 -2186 0
-2180 -2187 0
-2180 -2188 0
-2180 -2189 0
-2180 -2190 0
-2180 -2191 0
-2180 -2192 0
-2180 -2193 0
-2180 -2194 0
-2180 -2195 0
-2180 -2196 0
-2180 -2197 0
-2180 -2198 0
-2180 -2199 0
-2180 -2200 0
-2180 -2201 0
-2180 -2202 0
-2180 -2203 0
-2180 -2204 0
-2180 -2205 0
-2180 -2206 0
-2180 -2207 0
-2180 -2208 0
-2180 -2209 0
-2180 -2210 0
-2180 -2211 0
-2180 -2212 0
-2180 -2213 0
-2180 -2214 0
-2180 -2215 0
-2180 -2216 0
-2180 -2217 0
-2180 -2218 0
-2180 -2219 0
-2181 -2182 0
-2181 -2183 0
-2181 -2184 0
-2181 -2185 0
-2181 -2186 0
-2181 -2187 0
-2181 -2188 0
-2181 -2189 0
-2181 -2190 0
-2181 -2191 0
-2181 -2192 0
-2181 -2193 0
-2181 -2194 0
-2181 -2195 0
-2181 -2196 0
-2181 -2197 0
-2181 -2198 0
-2181 -2199 0
-2181 -2200 0
-2181 -2201 0
-2181 -2202 0
-2181 -2203 0
-2181 -2204 0
-2181 -2205 0
-2181 -2206 0
-2181 -2207 0
-2181 -2208 0
-2181 -2209 0
-2181 -2210 0
-2181 -2211 0
-2181 -2212 0
-2181 -2213 0
-2181 -2214 0
-2181 -2215 0
-2181 -2216 0
-2181 -2217 0
-2181 -2218 0
-2181 -2219 0
-2182 -2183 0
-2182 -2184 0
-2182 -2185 0
-2182 -2186 0
-2182 -2187 0
-2182 -2188 0
-2182 -2189 0
-2182 -2190 0
-2182 -2191 0
-2182 -2192 0
-2182 -2193 0
-2182 -2194 0
-2182 -2195 0
-2182 -2196 0
-2182 -2197 0
-2182 -2198 0
-2182 -2199 0
-2182 -2200 0
-2182 -2201 0
-2182 -2202 0
-2182 -2203 0
-2182 -2204 0
-2182 -2205 0
-2182 -2206 0
-2182 -2207 0
-2182 -2208 0
-2182 -2209 0
-2182 -2210 0
-2182 -2211 0
-2182 -2212 0
-2182 -2213 0
-2182 -2214 0
-2182 -2215 0
-2182 -2216 0
-2182 -2217 0
-2182 -2218 0
-2182 -2219 0
-2183 -2184 0
-2183 -2185 0
-2183 -2186 0
-2183 -2187 0
-2183 -2188 0
-2183 -2189 0
-2183 -2190 0
-2183 -2191 0
-2183 -2192 0
-2183 -2193 0
-2183 -2194 0
-2183 -2195 0
-2183 -2196 0
-2183 -2197 0
-2183 -2198 0
-2183 -2199 0
-2183 -2200 0
-2183 -2201 0
-2183 -2202 0
-2183 -2203 0
-2183 -2204 0
-2183 -2205 0
-2183 -2206 0
-2183 -2207 0
-2183 -2208 0
-2183 -2209 0
-2183 -2210 0
-2183 -2211 0
-2183 -2212 0
-2183 -2213 0
-2183 -2214 0
-2183 -2215 0
-2183 -2216 0
-2183 -2217 0
-2183 -2218 0
-2183 -2219 0
-2184 -2185 0
-2184 -2186 0
-2184 -2187 0
-2184 -2188 0
-2184 -2189 0
-2184 -2190 0
-2184 -2191 0
-2184 -2192 0
-2184 -2193 0
-2184 -2194 0
-2184 -2195 0
-2184 -2196 0
-2184 -2197 0
-2184 -2198 0
-2184 -2199 0
-2184 -2200 0
-2184 -2201 0
-2184 -2202 0
-2184 -2203 0
-2184 -2204 0
-2184 -2205 0
-2184 -2206 0
-2184 -2207 0
-2184 -2208 0
-2184 -2209 0
-2184 -2210 0
-2184 -2211 0
-2184 -2212 0
-2184 -2213 0
-2184 -2214 0
-2184 -2215 0
-2184 -2216 0
-2184 -2217 0
-2184 -2218 0
-2184 -2219 0
-2185 -2186 0
-2185 -2187 0
-2185 -2188 0
-2185 -2189 0
-2185 -2190 0
-2185 -2191 0
-2185 -2192 0
-2185 -2193 0
-2185 -2194 0
-2185 -2195 0
-2185 -2196 0
-2185 -2197 0
-2185 -2198 0
-2185 -2199 0
-2185 -2200 0
-2185 -2201 0
-2185 -2202 0
-2185 -2203 0
-2185 -2204 0
-2185 -2205 0
-2185 -2206 0
-2185 -2207 0
-2185 -2208 0
-2185 -2209 0
-2185 -2210 0
-2185 -2211 0
-2185 -2212 0
-2185 -2213 0
-2185 -2214 0
-2185 -2215 0
-2185 -2216 0
-2185 -2217 0
-2185 -2218 0
-2185 -2219 0
-2186 -2187 0
-2186 -2188 0
-2186 -2189 0
-2186 -2190 0
-2186 -2191 0
-2186 -2192 0
-2186 -2193 0
-2186 -2194 0
-2186 -2195 0
-2186 -2196 0
-2186 -2197 0
-2186 -2198 0
-2186 -2199 0
-2186 -2200 0
-2186 -2201 0
-2186 -2202 0
-2186 -2203 0
-2186 -2204 0
-2186 -2205 0
-2186 -2206 0
-2186 -2207 0
-2186 -2208 0
-2186 -2209 0
-2186 -2210 0
-2186 -2211 0
-2186 -2212 0
-2186 -2213 0
-2186 -2214 0
-2186 -2215 0
-2186 -2216 0
-2186 -2217 0
-2186 -2218 0
-2186 -2219 0
-2187 -2188 0
-2187 -2189 0
-2187 -2190 0
-2187 -2191 0
-2187 -2192 0
-2187 -2193 0
-2187 -2194 0
-2187 -2195 0
-2187 -2196 0
-2187 -2197 0
-2187 -2198 0
-2187 -2199 0
-2187 -2200 0
-2187 -2201 0
-2187 -2202 0
-2187 -2203 0
-2187 -2204 0
-2187 -2205 0
-2187 -2206 0
-2187 -2207 0
-2187 -2208 0
-2187 -2209 0
-2187 -2210 0
-2187 -2211 0
-2187 -2212 0
-2187 -2213 0
-2187 -2214 0
-2187 -2215 0
-2187 -2216 0
-2187 -2217 0
-2187 -2218 0
-2187 -2219 0
-2188 -2189 0
-2188 -2190 0
-2188 -2191 0
-2188 -2192 0
-2188 -2193 0
-2188 -2194 0
-2188 -2195 0
-2188 -2196 0
-2188 -2197 0
-2188 -2198 0
-2188 -2199 0
-2188 -2200 0
-2188 -2201 0
-2188 -2202 0
-2188 -2203 0
-2188 -2204 0
-2188 -2205 0
-2188 -2206 0
-2188 -2207 0
-2188 -2208 0
-2188 -2209 0
-2188 -2210 0
-2188 -2211 0
-2188 -2212 0
-2188 -2213 0
-2188 -2214 0
-2188 -2215 0
-2188 -2216 0
-2188 -2217 0
-2188 -2218 0
-2188 -2219 0
-2189 -2190 0
-2189 -2191 0
-2189 -2192 0
-2189 -2193 0
-2189 -2194 0
-2189 -2195 0
-2189 -2196 0
-2189 -2197 0
-2189 -2198 0
-2189 -2199 0
-2189 -2200 0
-2189 -2201 0
-2189 -2202 0
-2189 -2203 0
-2189 -2204 0
-2189 -2205 0
-2189 -2206 0
-2189 -2207 0
-2189 -2208 0
-2189 -2209 0
-2189 -2210 0
-2189 -2211 0
-2189 -2212 0
-2189 -2213 0
-2189 -2214 0
-2189 -2215 0
-2189 -2216 0
-2189 -2217 0
-2189 -2218 0
-2189 -2219 0
-2190 -2191 0
-2190 -2192 0
-2190 -2193 0
-2190 -2194 0
-2190 -2195 0
-2190 -2196 0
-2190 -2197 0
-2190 -2198 0
-2190 -2199 0
-2190 -2200 0
-2190 -2201 0
-2190 -2202 0
-2190 -2203 0
-2190 -2204 0
-2190 -2205 0
-2190 -2206 0
-2190 -2207 0
-2190 -2208 0
-2190 -2209 0
-2190 -2210 0
-2190 -2211 0
-2190 -2212 0
-2190 -2213 0
-2190 -2214 0
-2190 -2215 0
-2190 -2216 0
-2190 -2217 0
-2190 -2218 0
-2190 -2219 0
-2191 -2192 0
-2191 -2193 0
-2191 -2194 0
-2191 -2195 0
-2191 -2196 0
-2191 -2197 0
-2191 -2198 0
-2191 -2199 0
-2191 -2200 0
-2191 -2201 0
-2191 -2202 0
-2191 -2203 0
-2191 -2204 0
-2191 -2205 0
-2191 -2206 0
-2191 -2207 0
-2191 -2208 0
-2191 -2209 0
-2191 -2210 0
-2191 -2211 0
-2191 -2212 0
-2191 -2213 0
-2191 -2214 0
-2191 -2215 0
-2191 -2216 0
-2191 -2217 0
-2191 -2218 0
-2191 -2219 0
-2192 -2193 0
-2192 -2194 0
-2192 -2195 0
-2192 -2196 0
-2192 -2197 0
-2192 -2198 0
-2192 -2199 0
-2192 -2200 0
-2192 -2201 0
-2192 -2202 0
-2192 -2203 0
-2192 -2204 0
-2192 -2205 0
-2192 -2206 0
-2192 -2207 0
-2192 -2208 0
-2192 -2209 0
-2192 -2210 0
-2192 -2211 0
-2192 -2212 0
-2192 -2213 0
-2192 -2214 0
-2192 -2215 0
-2192 -2216 0
-2192 -2217 0
-2192 -2218 0
-2192 -2219 0
-2193 -2194 0
-2193 -2195 0
-2193 -2196 0
-2193 -2197 0
-2193 -2198 0
-2193 -2199 0
-2193 -2200 0
-2193 -2201 0
-2193 -2202 0
-2193 -2203 0
-2193 -2204 0
-2193 -2205 0
-2193 -2206 0
-2193 -2207 0
-2193 -2208 0
-2193 -2209 0
-2193 -2210 0
-2193 -2211 0
-2193 -2212 0
-2193 -2213 0
-2193 -2214 0
-2193 -2215 0
-2193 -2216 0
-2193 -2217 0
-2193 -2218 0
-2193 -2219 0
-2194 -2195 0
-2194 -2196 0
-2194 -2197 0
-2194 -2198 0
-2194 -2199 0
-2194 -2200 0
-2194 -2201 0
-2194 -2202 0
-2194 -2203 0
-2194 -2204 0
-2194 -2205 0
-2194 -2206 0
-2194 -2207 0
-2194 -2208 0
-2194 -2209 0
-2194 -2210 0
-2194 -2211 0
-2194 -2212 0
-2194 -2213 0
-2194 -2214 0
-2194 -2215 0
-2194 -2216 0
-2194 -2217 0
-2194 -2218 0
-2194 -2219 0
-2195 -2196 0
-2195 -2197 0
-2195 -2198 0
-2195 -2199 0
-2195 -2200 0
-2195 -2201 0
-2195 -2202 0
-2195 -2203 0
-2195 -2204 0
-2195 -2205 0
-2195 -2206 0
-2195 -2207 0
-2195 -2208 0
-2195 -2209 0
-2195 -2210 0
-2195 -2211 0
-2195 -2212 0
-2195 -2213 0
-2195 -2214 0
-2195 -2215 0
-2195 -2216 0
-2195 -2217 0
-2195 -2218 0
-2195 -2219 0
-2196 -2197 0
-2196 -2198 0
-2196 -2199 0
-2196 -2200 0
-2196 -2201 0
-2196 -2202 0
-2196 -2203 0
-2196 -2204 0
-2196 -2205 0
-2196 -2206 0
-2196 -2207 0
-2196 -2208 0
-2196 -2209 0
-2196 -2210 0
-2196 -2211 0
-2196 -2212 0
-2196 -2213 0
-2196 -2214 0
-2196 -2215 0
-2196 -2216 0
-2196 -2217 0
-2196 -2218 0
-2196 -2219 0
-2197 -2198 0
-2197 -2199 0
-2197 -2200 0
-2197 -2201 0
-2197 -2202 0
-2197 -2203 0
-2197 -2204 0
-2197 -2205 0
-2197 -2206 0
-2197 -2207 0
-2197 -2208 0
-2197 -2209 0
-2197 -2210 0
-2197 -2211 0
-2197 -2212 0
-2197 -2213 0
-2197 -2214 0
-2197 -2215 0
-2197 -2216 0
-2197 -2217 0
-2197 -2218 0
-2197 -2219 0
-2198 -2199 0
-2198 -2200 0
-2198 -2201 0
-2198 -2202 0
-2198 -2203 0
-2198 -2204 0
-2198 -2205 0
-2198 -2206 0
-2198 -2207 0
-2198 -2208 0
-2198 -2209 0
-2198 -2210 0
-2198 -2211 0
-2198 -2212 0
-2198 -2213 0
-2198 -2214 0
-2198 -2215 0
-2198 -2216 0
-2198 -2217 0
-2198 -2218 0
-2198 -2219 0
-2199 -2200 0
-2199 -2201 0
-2199 -2202 0
-2199 -2203 0
-2199 -2204 0
-2199 -2205 0
-2199 -2206 0
-2199 -2207 0
-2199 -2208 0
-2199 -2209 0
-2199 -2210 0
-2199 -2211 0
-2199 -2212 0
-2199 -2213 0
-2199 -2214 0
-2199 -2215 0
-2199 -2216 0
-2199 -2217 0
-2199 -2218 0
-2199 -2219 0
-2200 -2201 0
-2200 -2202 0
-2200 -2203 0
-2200 -2204 0
-2200 -2205 0
-2200 -2206 0
-2200 -2207 0
-2200 -2208 0
-2200 -2209 0
-2200 -2210 0
-2200 -2211 0
-2200 -2212 0
-2200 -2213 0
-2200 -2214 0
-2200 -2215 0
-2200 -2216 0
-2200 -2217 0
-2200 -2218 0
-2200 -2219 0
-2201 -2202 0
-2201 -2203 0
-2201 -2204 0
-2201 -2205 0
-2201 -2206 0
-2201 -2207 0
-2201 -2208 0
-2201 -2209 0
-2201 -2210 0
-2201 -2211 0
-2201 -2212 0
-2201 -2213 0
-2201 -2214 0
-2201 -2215 0
-2201 -2216 0
-2201 -2217 0
-2201 -2218 0
-2201 -2219 0
-2202 -2203 0
-2202 -2204 0
-2202 -2205 0
-2202 -2206 0
-2202 -2207 0
-2202 -2208 0
-2202 -2209 0
-2202 -2210 0
-2202 -2211 0
-2202 -2212 0
-2202 -2213 0
-2202 -2214 0
-2202 -2215 0
-2202 -2216 0
-2202 -2217 0
-2202 -2218 0
-2202 -2219 0
-2203 -2204 0
-2203 -2205 0
-2203 -2206 0
-2203 -2207 0
-2203 -2208 0
-2203 -2209 0
-2203 -2210 0
-2203 -2211 0
-2203 -2212 0
-2203 -2213 0
-2203 -2214 0
-2203 -2215 0
-2203 -2216 0
-2203 -2217 0
-2203 -2218 0
-2203 -2219 0
-2204 -2205 0
-2204 -2206 0
-2204 -2207 0
-2204 -2208 0
-2204 -2209 0
-2204 -2210 0
-2204 -2211 0
-2204 -2212 0
-2204 -2213 0
-2204 -2214 0
-2204 -2215 0
-2204 -2216 0
-2204 -2217 0
-2204 -2218 0
-2204 -2219 0
-2205 -2206 0
-2205 -2207 0
-2205 -2208 0
-2205 -2209 0
-2205 -2210 0
-2205 -2211 0
-2205 -2212 0
-2205 -2213 0
-2205 -2214 0
-2205 -2215 0
-2205 -2216 0
-2205 -2217 0
-2205 -2218 0
-2205 -2219 0
-2206 -2207 0
-2206 -2208 0
-2206 -2209 0
-2206 -2210 0
-2206 -2211 0
-2206 -2212 0
-2206 -2213 0
-2206 -2214 0
-2206 -2215 0
-2206 -2216 0
-2206 -2217 0
-2206 -2218 0
-2206 -2219 0
-2207 -2208 0
-2207 -2209 0
-2207 -2210 0
-2207 -2211 0
-2207 -2212 0
-2207 -2213 0
-2207 -2214 0
-2207 -2215 0
-2207 -2216 0
-2207 -2217 0
-2207 -2218 0
-2207 -2219 0
-2208 -2209 0
-2208 -2210 0
-2208 -2211 0
-2208 -2212 0
-2208 -2213 0
-2208 -2214 0
-2208 -2215 0
-2208 -2216 0
-2208 -2217 0
-2208 -2218 0
-2208 -2219 0
-2209 -2210 0
-2209 -2211 0
-2209 -2212 0
-2209 -2213 0
-2209 -2214 0
-2209 -2215 0
-2209 -2216 0
-2209 -2217 0
-2209 -2218 0
-2209 -2219 0
-2210 -2211 0
-2210 -2212 0
-2210 -2213 0
-2210 -2214 0
-2210 -2215 0
-2210 -2216 0
-2210 -2217 0
-2210 -2218 0
-2210 -2219 0
-2211 -2212 0
-2211 -2213 0
-2211 -2214 0
-2211 -2215 0
-2211 -2216 0
-2211 -2217 0
-2211 -2218 0
-2211 -2219 0
-2212 -2213 0
-2212 -2214 0
-2212 -2215 0
-2212 -2216 0
-2212 -2217 0
-2212 -2218 0
-2212 -2219 0
-2213 -2214 0
-2213 -2215 0
-2213 -2216 0
-2213 -2217 0
-2213 -2218 0
-2213 -2219 0
-2214 -2215 0
-2214 -2216 0
-2214 -2217 0
-2214 -2218 0
-2214 -2219 0
-2215 -2216 0
-2215 -2217 0
-2215 -2218 0
-2215 -2219 0
-2216 -2217 0
-2216 -2218 0
-2216 -2219 0
-2217 -2218 0
-2217 -2219 0
-2218 -2219 0
-2136 1039 0
-2136 1286 0
-2136 -1089 0
-2136 -1090 0
-2136 -1091 0
-2136 -1092 0
-2136 -1093 0
-2136 -1094 1293 0
-2136 -1094 -1029 -1036 0
-2136 -1094 -1101 0
-2136 -1094 -1159 0
-2136 -1094 -1216 0
-2136 -1095 1294 0
-2136 -1095 -1029 -1037 0
-2136 -1095 -1103 0
-2136 -1095 -1161 0
-2136 -1095 -1218 0
-2136 -1096 1295 0
-2136 -1096 -1029 -1038 0
-2136 -1096 -1105 0
-2136 -1096 -1163 0
-2136 -1096 -1220 0
-2136 -1097 0
-2137 1039 0
-2137 1287 0
-2137 -1088 0
-2137 -1090 0
-2137 -1091 0
-2137 -1092 0
-2137 -1093 0
-2137 -1094 1293 0
-2137 -1094 -1030 -1036 0
-2137 -1094 -1109 0
-2137 -1094 -1167 0
-2137 -1094 -1224 0
-2137 -1095 1294 0
-2137 -1095 -1030 -1037 0
-2137 -1095 -1111 0
-2137 -1095 -1169 0
-2137 -1095 -1226 0
-2137 -1096 1295 0
-2137 -1096 -1030 -1038 0
-2137 -1096 -1113 0
-2137 -1096 -1171 0
-2137 -1096 -1228 0
-2137 -1097 0
-2138 1039 0
-2138 1288 0
-2138 -1088 0
-2138 -1089 0
-2138 -1091 0
-2138 -1092 0
-2138 -1093 0
-2138 -1094 1293 0
-2138 -1094 -1031 -1036 0
-2138 -1094 -1117 0
-2138 -1094 -1175 0
-2138 -1094 -1232 0
-2138 -1095 1294 0
-2138 -1095 -1031 -1037 0
-2138 -1095 -1119 0
-2138 -1095 -1177 0
-2138 -1095 -1234 0
-2138 -1096 1295 0
-2138 -1096 -1031 -1038 0
-2138 -1096 -1121 0
-2138 -1096 -1179 0
-2138 -1096 -1236 0
-2138 -1097 0
-2139 1039 0
-2139 1289 0
-2139 -1088 0
-2139 -1089 0
-2139 -1090 0
-2139 -1092 0
-2139 -1093 0
-2139 -1094 1293 0
-2139 -1094 -1032 -1036 0
-2139 -1094 -1125 0
-2139 -1094 -1183 0
-2139 -1094 -1240 0
-2139 -1095 1294 0
-2139 -1095 -1032 -1037 0
-2139 -1095 -1127 0
-2139 -1095 -1185 0
-2139 -1095 -1242 0
-2139 -1096 1295 0
-2139 -1096 -1032 -1038 0
-2139 -1096 -1129 0
-2139 -1096 -1187 0
-2139 -1096 -1244 0
-2139 -1097 0
-2140 1039 0
-2140 1290 0
-2140 -1088 0
-2140 -1089 0
-2140 -1090 0
-2140 -1091 0
-2140 -1093 0
-2140 -1094 1293 0
-2140 -1094 -1033 -1036 0
-2140 -1094 -1133 0
-2140 -1094 -1191 0
-2140 -1094 -1248 0
-2140 -1095 1294 0
-2140 -1095 -1033 -1037 0
-2140 -1095 -1135 0
-2140 -1095 -1193 0
-2140 -1095 -1250 0
-2140 -1096 1295 0
-2140 -1096 -1033 -1038 0
-2140 -1096 -1137 0
-2140 -1096 -1195 0
-2140 -1096 -1252 0
-2140 -1097 0
-2141 1039 0
-2141 1291 0
-2141 -1088 0
-2141 -1089 0
-2141 -1090 0
-2141 -1091 0
-2141 -1092 0
-2141 -1094 1293 0
-2141 -1094 -1034 -1036 0
-2141 -1094 -1141 0
-2141 -1094 -1199 0
-2141 -1094 -1256 0
-2141 -1095 1294 0
-2141 -1095 -1034 -1037 0
-2141 -1095 -1143 0
-2141 -1095 -1201 0
-2141 -1095 -1258 0
-2141 -1096 1295 0
-2141 -1096 -1034 -1038 0
-2141 -1096 -1145 0
-2141 -1096 -1203 0
-2141 -1096 -1260 0
-2141 -1097 0
-2142 1039 0
-2142 1286 0
-2142 -1148 0
-2142 -1149 0
-2142 -1150 0
-2142 -1151 0
-2142 -1152 1293 0
-2142 -1152 -1029 -1036 0
-2142 -1152 -1101 0
-2142 -1152 -1159 0
-2142 -1152 -1216 0
-2142 -1153 1294 0
-2142 -1153 -1029 -1037 0
-2142 -1153 -1103 0
-2142 -1153 -1161 0
-2142 -1153 -1218 0
-2142 -1154 1295 0
-2142 -1154 -1029 -1038 0
-2142 -1154 -1105 0
-2142 -1154 -1163 0
-2142 -1154 -1220 0
-2142 -1155 0
-2143 1039 0
-2143 1287 0
-2143 -1149 0
-2143 -1150 0
-2143 -1151 0
-2143 -1152 1293 0
-2143 -1152 -1030 -1036 0
-2143 -1152 -1109 0
-2143 -1152 -1167 0
-2143 -1152 -1224 0
-2143 -1153 1294 0
-2143 -1153 -1030 -1037 0
-2143 -1153 -1111 0
-2143 -1153 -1169 0
-2143 -1153 -1226 0
-2143 -1154 1295 0
-2143 -1154 -1030 -1038 0
-2143 -1154 -1113 0
-2143 -1154 -1171 0
-2143 -1154 -1228 0
-2143 -1155 0
-2144 1039 0
-2144 1288 0
-2144 -1147 0
-2144 -1150 0
-2144 -1151 0
-2144 -1152 1293 0
-2144 -1152 -1031 -1036 0
-2144 -1152 -1117 0
-2144 -1152 -1175 0
-2144 -1152 -1232 0
-2144 -1153 1294 0
-2144 -1153 -1031 -1037 0
-2144 -1153 -1119 0
-2144 -1153 -1177 0
-2144 -1153 -1234 0
-2144 -1154 1295 0
-2144 -1154 -1031 -1038 0
-2144 -1154 -1121 0
-2144 -1154 -1179 0
-2144 -1154 -1236 0
-2144 -1155 0
-2145 1039 0
-2145 1289 0
-2145 -1147 0
-2145 -1148 0
-2145 -1151 0
-2145 -1152 1293 0
-2145 -1152 -1032 -1036 0
-2145 -1152 -1125 0
-2145 -1152 -1183 0
-2145 -1152 -1240 0
-2145 -1153 1294 0
-2145 -1153 -1032 -1037 0
-2145 -1153 -1127 0
-2145 -1153 -1185 0
-2145 -1153 -1242 0
-2145 -1154 1295 0
-2145 -1154 -1032 -1038 0
-2145 -1154 -1129 0
-2145 -1154 -1187 0
-2145 -1154 -1244 0
-2145 -1155 0
-2146 1039 0
-2146 1290 0
-2146 -1147 0
-2146 -1148 0
-2146 -1149 0
-2146 -1152 1293 0
-2146 -1152 -1033 -1036 0
-2146 -1152 -1133 0
-2146 -1152 -1191 0
-2146 -1152 -1248 0
-2146 -1153 1294 0
-2146 -1153 -1033 -1037 0
-2146 -1153 -1135 0
-2146 -1153 -1193 0
-2146 -1153 -1250 0
-2146 -1154 1295 0
-2146 -1154 -1033 -1038 0
-2146 -1154 -1137 0
-2146 -1154 -1195 0
-2146 -1154 -1252 0
-2146 -1155 0
-2147 1039 0
-2147 1291 0
-2147 -1147 0
-2147 -1148 0
-2147 -1149 0
-2147 -1150 0
-2147 -1152 1293 0
-2147 -1152 -1034 -1036 0
-2147 -1152 -1141 0
-2147 -1152 -1199 0
-2147 -1152 -1256 0
-2147 -1153 1294 0
-2147 -1153 -1034 -1037 0
-2147 -1153 -1143 0
-2147 -1153 -1201 0
-2147 -1153 -1258 0
-2147 -1154 1295 0
-2147 -1154 -1034 -1038 0
-2147 -1154 -1145 0
-2147 -1154 -1203 0
-2147 -1154 -1260 0
-2147 -1155 0
-2148 1039 0
-2148 1286 0
-2148 -1206 0
-2148 -1207 0
-2148 -1208 0
-2148 -1209 1293 0
-2148 -1209 -1029 -1036 0
-2148 -1209 -1101 0
-2148 -1209 -1159 0
-2148 -1209 -1216 0
-2148 -1210 1294 0
-2148 -1210 -1029 -1037 0
-2148 -1210 -1103 0
-2148 -1210 -1161 0
-2148 -1210 -1218 0
-2148 -1211 1295 0
-2148 -1211 -1029 -1038 0
-2148 -1211 -1105 0
-2148 -1211 -1163 0
-2148 -1211 -1220 0
-2148 -1212 0
-2149 1039 0
-2149 1287 0
-2149 -1207 0
-2149 -1208 0
-2149 -1209 1293 0
-2149 -1209 -1030 -1036 0
-2149 -1209 -1109 0
-2149 -1209 -1167 0
-2149 -1209 -1224 0
-2149 -1210 1294 0
-2149 -1210 -1030 -1037 0
-2149 -1210 -1111 0
-2149 -1210 -1169 0
-2149 -1210 -1226 0
-2149 -1211 1295 0
-2149 -1211 -1030 -1038 0
-2149 -1211 -1113 0
-2149 -1211 -1171 0
-2149 -1211 -1228 0
-2149 -1212 0
-2150 1039 0
-2150 1288 0
-2150 -1208 0
-2150 -1209 1293 0
-2150 -1209 -1031 -1036 0
-2150 -1209 -1117 0
-2150 -1209 -1175 0
-2150 -1209 -1232 0
-2150 -1210 1294 0
-2150 -1210 -1031 -1037 0
-2150 -1210 -1119 0
-2150 -1210 -1177 0
-2150 -1210 -1234 0
-2150 -1211 1295 0
-2150 -1211 -1031 -1038 0
-2150 -1211 -1121 0
-2150 -1211 -1179 0
-2150 -1211 -1236 0
-2150 -1212 0
-2151 1039 0
-2151 1289 0
-2151 -1205 0
-2151 -1209 1293 0
-2151 -1209 -1032 -1036 0
-2151 -1209 -1125 0
-2151 -1209 -1183 0
-2151 -1209 -1240 0
-2151 -1210 1294 0
-2151 -1210 -1032 -1037 0
-2151 -1210 -1127 0
-2151 -1210 -1185 0
-2151 -1210 -1242 0
-2151 -1211 1295 0
-2151 -1211 -1032 -1038 0
-2151 -1211 -1129 0
-2151 -1211 -1187 0
-2151 -1211 -1244 0
-2151 -1212 0
-2152 1039 0
-2152 1290 0
-2152 -1205 0
-2152 -1206 0
-2152 -1209 1293 0
-2152 -1209 -1033 -1036 0
-2152 -1209 -1133 0
-2152 -1209 -1191 0
-2152 -1209 -1248 0
-2152 -1210 1294 0
-2152 -1210 -1033 -1037 0
-2152 -1210 -1135 0
-2152 -1210 -1193 0
-2152 -1210 -1250 0
-2152 -1211 1295 0
-2152 -1211 -1033 -1038 0
-2152 -1211 -1137 0
-2152 -1211 -1195 0
-2152 -1211 -1252 0
-2152 -1212 0
-2153 1039 0
-2153 1291 0
-2153 -1205 0
-2153 -1206 0
-2153 -1207 0
-2153 -1209 1293 0
-2153 -1209 -1034 -1036 0
-2153 -1209 -1141 0
-2153 -1209 -1199 0
-2153 -1209 -1256 0
-2153 -1210 1294 0
-2153 -1210 -1034 -1037 0
-2153 -1210 -1143 0
-2153 -1210 -1201 0
-2153 -1210 -1258 0
-2153 -1211 1295 0
-2153 -1211 -1034 -1038 0
-2153 -1211 -1145 0
-2153 -1211 -1203 0
-2153 -1211 -1260 0
-2153 -1212 0
-2154 1039 0
-2154 1286 0
-2154 1292 0
-2154 -1029 -1035 0
-2154 -1099 0
-2154 -1157 0
-2154 -1214 0
-2155 1039 0
-2155 1287 0
-2155 1292 0
-2155 -1030 -1035 0
-2155 -1107 0
-2155 -1165 0
-2155 -1222 0
-2156 1039 0
-2156 1288 0
-2156 1292 0
-2156 -1031 -1035 0
-2156 -1115 0
-2156 -1173 0
-2156 -1230 0
-2157 1039 0
-2157 1289 0
-2157 1292 0
-2157 -1032 -1035 0
-2157 -1123 0
-2157 -1181 0
-2157 -1238 0
-2158 1039 0
-2158 1290 0
-2158 1292 0
-2158 -1033 -1035 0
-2158 -1131 0
-2158 -1189 0
-2158 -1246 0
-2159 1039 0
-2159 1291 0
-2159 1292 0
-2159 -1034 -1035 0
-2159 -1139 0
-2159 -1197 0
-2159 -1254 0
-2160 1098 0
-2160 1345 0
-2160 -1030 0
-2160 -1031 0
-2160 -1032 0
-2160 -1033 0
-2160 -1034 0
-2160 -1035 1352 0
-2160 -1035 -1088 -1095 0
-2160 -1035 -1042 0
-2160 -1035 -1159 0
-2160 -1035 -1216 0
-2160 -1036 1353 0
-2160 -1036 -1088 -1096 0
-2160 -1036 -1044 0
-2160 -1036 -1161 0
-2160 -1036 -1218 0
-2160 -1037 1354 0
-2160 -1037 -1088 -1097 0
-2160 -1037 -1046 0
-2160 -1037 -1163 0
-2160 -1037 -1220 0
-2160 -1038 0
-2161 1098 0
-2161 1346 0
-2161 -1029 0
-2161 -1031 0
-2161 -1032 0
-2161 -1033 0
-2161 -1034 0
-2161 -1035 1352 0
-2161 -1035 -1089 -1095 0
-2161 -1035 -1050 0
-2161 -1035 -1167 0
-2161 -1035 -1224 0
-2161 -1036 1353 0
-2161 -1036 -1089 -1096 0
-2161 -1036 -1052 0
-2161 -1036 -1169 0
-2161 -1036 -1226 0
-2161 -1037 1354 0
-2161 -1037 -1089 -1097 0
-2161 -1037 -1054 0
-2161 -1037 -1171 0
-2161 -1037 -1228 0
-2161 -1038 0
-2162 1098 0
-2162 1347 0
-2162 -1029 0
-2162 -1030 0
-2162 -1032 0
-2162 -1033 0
-2162 -1034 0
-2162 -1035 1352 0
-2162 -1035 -1090 -1095 0
-2162 -1035 -1058 0
-2162 -1035 -1175 0
-2162 -1035 -1232 0
-2162 -1036 1353 0
-2162 -1036 -1090 -1096 0
-2162 -1036 -1060 0
-2162 -1036 -1177 0
-2162 -1036 -1234 0
-2162 -1037 1354 0
-2162 -1037 -1090 -1097 0
-2162 -1037 -1062 0
-2162 -1037 -1179 0
-2162 -1037 -1236 0
-2162 -1038 0
-2163 1098 0
-2163 1348 0
-2163 -1029 0
-2163 -1030 0
-2163 -1031 0
-2163 -1033 0
-2163 -1034 0
-2163 -1035 1352 0
-2163 -1035 -1091 -1095 0
-2163 -1035 -1066 0
-2163 -1035 -1183 0
-2163 -1035 -1240 0
-2163 -1036 1353 0
-2163 -1036 -1091 -1096 0
-2163 -1036 -1068 0
-2163 -1036 -1185 0
-2163 -1036 -1242 0
-2163 -1037 1354 0
-2163 -1037 -1091 -1097 0
-2163 -1037 -1070 0
-2163 -1037 -1187 0
-2163 -1037 -1244 0
-2163 -1038 0
-2164 1098 0
-2164 1349 0
-2164 -1029 0
-2164 -1030 0
-2164 -1031 0
-2164 -1032 0
-2164 -1034 0
-2164 -1035 1352 0
-2164 -1035 -1092 -1095 0
-2164 -1035 -1074 0
-2164 -1035 -1191 0
-2164 -1035 -1248 0
-2164 -1036 1353 0
-2164 -1036 -1092 -1096 0
-2164 -1036 -1076 0
-2164 -1036 -1193 0
-2164 -1036 -1250 0
-2164 -1037 1354 0
-2164 -1037 -1092 -1097 0
-2164 -1037 -1078 0
-2164 -1037 -1195 0
-2164 -1037 -1252 0
-2164 -1038 0
-2165 1098 0
-2165 1350 0
-2165 -1029 0
-2165 -1030 0
-2165 -1031 0
-2165 -1032 0
-2165 -1033 0
-2165 -1035 1352 0
-2165 -1035 -1093 -1095 0
-2165 -1035 -1082 0
-2165 -1035 -1199 0
-2165 -1035 -1256 0
-2165 -1036 1353 0
-2165 -1036 -1093 -1096 0
-2165 -1036 -1084 0
-2165 -1036 -1201 0
-2165 -1036 -1258 0
-2165 -1037 1354 0
-2165 -1037 -1093 -1097 0
-2165 -1037 -1086 0
-2165 -1037 -1203 0
-2165 -1037 -1260 0
-2165 -1038 0
-2166 1098 0
-2166 1345 0
-2166 -1148 0
-2166 -1149 0
-2166 -1150 0
-2166 -1151 0
-2166 -1152 1352 0
-2166 -1152 -1088 -1095 0
-2166 -1152 -1042 0
-2166 -1152 -1159 0
-2166 -1152 -1216 0
-2166 -1153 1353 0
-2166 -1153 -1088 -1096 0
-2166 -1153 -1044 0
-2166 -1153 -1161 0
-2166 -1153 -1218 0
-2166 -1154 1354 0
-2166 -1154 -1088 -1097 0
-2166 -1154 -1046 0
-2166 -1154 -1163 0
-2166 -1154 -1220 0
-2166 -1155 0
-2167 1098 0
-2167 1346 0
-2167 -1149 0
-2167 -1150 0
-2167 -1151 0
-2167 -1152 1352 0
-2167 -1152 -1089 -1095 0
-2167 -1152 -1050 0
-2167 -1152 -1167 0
-2167 -1152 -1224 0
-2167 -1153 1353 0
-2167 -1153 -1089 -1096 0
-2167 -1153 -1052 0
-2167 -1153 -1169 0
-2167 -1153 -1226 0
-2167 -1154 1354 0
-2167 -1154 -1089 -1097 0
-2167 -1154 -1054 0
-2167 -1154 -1171 0
-2167 -1154 -1228 0
-2167 -1155 0
-2168 1098 0
-2168 1347 0
-2168 -1147 0
-2168 -1150 0
-2168 -1151 0
-2168 -1152 1352 0
-2168 -1152 -1090 -1095 0
-2168 -1152 -1058 0
-2168 -1152 -1175 0
-2168 -1152 -1232 0
-2168 -1153 1353 0
-2168 -1153 -1090 -1096 0
-2168 -1153 -1060 0
-2168 -1153 -1177 0
-2168 -1153 -1234 0
-2168 -1154 1354 0
-2168 -1154 -1090 -1097 0
-2168 -1154 -1062 0
-2168 -1154 -1179 0
-2168 -1154 -1236 0
-2168 -1155 0
-2169 1098 0
-2169 1348 0
-2169 -1147 0
-2169 -1148 0
-2169 -1151 0
-2169 -1152 1352 0
-2169 -1152 -1091 -1095 0
-2169 -1152 -1066 0
-2169 -1152 -1183 0
-2169 -1152 -1240 0
-2169 -1153 1353 0
-2169 -1153 -1091 -1096 0
-2169 -1153 -1068 0
-2169 -1153 -1185 0
-2169 -1153 -1242 0
-2169 -1154 1354 0
-2169 -1154 -1091 -1097 0
-2169 -1154 -1070 0
-2169 -1154 -1187 0
-2169 -1154 -1244 0
-2169 -1155 0
-2170 1098 0
-2170 1349 0
-2170 -1147 0
-2170 -1148 0
-2170 -1149 0
-2170 -1152 1352 0
-2170 -1152 -1092 -1095 0
-2170 -1152 -1074 0
-2170 -1152 -1191 0
-2170 -1152 -1248 0
-2170 -1153 1353 0
-2170 -1153 -1092 -1096 0
-2170 -1153 -1076 0
-2170 -1153 -1193 0
-2170 -1153 -1250 0
-2170 -1154 1354 0
-2170 -1154 -1092 -1097 0
-2170 -1154 -1078 0
-2170 -1154 -1195 0
-2170 -1154 -1252 0
-2170 -1155 0
-2171 1098 0
-2171 1350 0
-2171 -1147 0
-2171 -1148 0
-2171 -1149 0
-2171 -1150 0
-2171 -1152 1352 0
-2171 -1152 -1093 -1095 0
-2171 -1152 -1082 0
-2171 -1152 -1199 0
-2171 -1152 -1256 0
-2171 -1153 1353 0
-2171 -1153 -1093 -1096 0
-2171 -1153 -1084 0
-2171 -1153 -1201 0
-2171 -1153 -1258 0
-2171 -1154 1354 0
-2171 -1154 -1093 -1097 0
-2171 -1154 -1086 0
-2171 -1154 -1203 0
-2171 -1154 -1260 0
-2171 -1155 0
-2172 1098 0
-2172 1345 0
-2172 -1206 0
-2172 -1207 0
-2172 -1208 0
-2172 -1209 1352 0
-2172 -1209 -1088 -1095 0
-2172 -1209 -1042 0
-2172 -1209 -1159 0
-2172 -1209 -1216 0
-2172 -1210 1353 0
-2172 -1210 -1088 -1096 0
-2172 -1210 -1044 0
-2172 -1210 -1161 0
-2172 -1210 -1218 0
-2172 -1211 1354 0
-2172 -1211 -1088 -1097 0
-2172 -1211 -1046 0
-2172 -1211 -1163 0
-2172 -1211 -1220 0
-2172 -1212 0
-2173 1098 0
-2173 1346 0
-2173 -1207 0
-2173 -1208 0
-2173 -1209 1352 0
-2173 -1209 -1089 -1095 0
-2173 -1209 -1050 0
-2173 -1209 -1167 0
-2173 -1209 -1224 0
-2173 -1210 1353 0
-2173 -1210 -1089 -1096 0
-2173 -1210 -1052 0
-2173 -1210 -1169 0
-2173 -1210 -1226 0
-2173 -1211 1354 0
-2173 -1211 -1089 -1097 0
-2173 -1211 -1054 0
-2173 -1211 -1171 0
-2173 -1211 -1228 0
-2173 -1212 0
-2174 1098 0
-2174 1347 0
-2174 -1208 0
-2174 -1209 1352 0
-2174 -1209 -1090 -1095 0
-2174 -1209 -1058 0
-2174 -1209 -1175 0
-2174 -1209 -1232 0
-2174 -1210 1353 0
-2174 -1210 -1090 -1096 0
-2174 -1210 -1060 0
-2174 -1210 -1177 0
-2174 -1210 -1234 0
-2174 -1211 1354 0
-2174 -1211 -1090 -1097 0
-2174 -1211 -1062 0
-2174 -1211 -1179 0
-2174 -1211 -1236 0
-2174 -1212 0
-2175 1098 0
-2175 1348 0
-2175 -1205 0
-2175 -1209 1352 0
-2175 -1209 -1091 -1095 0
-2175 -1209 -1066 0
-2175 -1209 -1183 0
-2175 -1209 -1240 0
-2175 -1210 1353 0
-2175 -1210 -1091 -1096 0
-2175 -1210 -1068 0
-2175 -1210 -1185 0
-2175 -1210 -1242 0
-2175 -1211 1354 0
-2175 -1211 -1091 -1097 0
-2175 -1211 -1070 0
-2175 -1211 -1187 0
-2175 -1211 -1244 0
-2175 -1212 0
-2176 1098 0
-2176 1349 0
-2176 -1205 0
-2176 -1206 0
-2176 -1209 1352 0
-2176 -1209 -1092 -1095 0
-2176 -1209 -1074 0
-2176 -1209 -1191 0
-2176 -1209 -1248 0
-2176 -1210 1353 0
-2176 -1210 -1092 -1096 0
-2176 -1210 -1076 0
-2176 -1210 -1193 0
-2176 -1210 -1250 0
-2176 -1211 1354 0
-2176 -1211 -1092 -1097 0
-2176 -1211 -1078 0
-2176 -1211 -1195 0
-2176 -1211 -1252 0
-2176 -1212 0
-2177 1098 0
-2177 1350 0
-2177 -1205 0
-2177 -1206 0
-2177 -1207 0
-2177 -1209 1352 0
-2177 -1209 -1093 -1095 0
-2177 -1209 -1082 0
-2177 -1209 -1199 0
-2177 -1209 -1256 0
-2177 -1210 1353 0
-2177 -1210 -1093 -1096 0
-2177 -1210 -1084 0
-2177 -1210 -1201 0
-2177 -1210 -1258 0
-2177 -1211 1354 0
-2177 -1211 -1093 -1097 0
-2177 -1211 -1086 0
-2177 -1211 -1203 0
-2177 -1211 -1260 0
-2177 -1212 0
-2178 1098 0
-2178 1345 0
-2178 1351 0
-2178 -1088 -1094 0
-2178 -1040 0
-2178 -1157 0
-2178 -1214 0
-2179 1098 0
-2179 1346 0
-2179 1351 0
-2179 -1089 -1094 0
-2179 -1048 0
-2179 -1165 0
-2179 -1222 0
-2180 1098 0
-2180 1347 0
-2180 1351 0
-2180 -1090 -1094 0
-2180 -1056 0
-2180 -1173 0
-2180 -1230 0
-2181 1098 0
-2181 1348 0
-2181 1351 0
-2181 -1091 -1094 0
-2181 -1064 0
-2181 -1181 0
-2181 -1238 0
-2182 1098 0
-2182 1349 0
-2182 1351 0
-2182 -1092 -1094 0
-2182 -1072 0
-2182 -1189 0
-2182 -1246 0
-2183 1098 0
-2183 1350 0
-2183 1351 0
-2183 -1093 -1094 0
-2183 -1080 0
-2183 -1197 0
-2183 -1254 0
-2184 1156 0
-2184 1404 0
-2184 -1031 0
-2184 -1032 0
-2184 -1033 0
-2184 -1034 0
-2184 -1035 1410 0
-2184 -1035 -1147 -1153 0
-2184 -1035 -1042 0
-2184 -1035 -1050 0
-2184 -1035 -1101 0
-2184 -1035 -1109 0
-2184 -1035 -1216 0
-2184 -1035 -1224 0
-2184 -1036 1411 0
-2184 -1036 -1147 -1154 0
-2184 -1036 -1044 0
-2184 -1036 -1052 0
-2184 -1036 -1103 0
-2184 -1036 -1111 0
-2184 -1036 -1218 0
-2184 -1036 -1226 0
-2184 -1037 1412 0
-2184 -1037 -1147 -1155 0
-2184 -1037 -1046 0
-2184 -1037 -1054 0
-2184 -1037 -1105 0
-2184 -1037 -1113 0
-2184 -1037 -1220 0
-2184 -1037 -1228 0
-2184 -1038 0
-2185 1156 0
-2185 1405 0
-2185 -1029 0
-2185 -1032 0
-2185 -1033 0
-2185 -1034 0
-2185 -1035 1410 0
-2185 -1035 -1148 -1153 0
-2185 -1035 -1050 0
-2185 -1035 -1058 0
-2185 -1035 -1109 0
-2185 -1035 -1117 0
-2185 -1035 -1224 0
-2185 -1035 -1232 0
-2185 -1036 1411 0
-2185 -1036 -1148 -1154 0
-2185 -1036 -1052 0
-2185 -1036 -1060 0
-2185 -1036 -1111 0
-2185 -1036 -1119 0
-2185 -1036 -1226 0
-2185 -1036 -1234 0
-2185 -1037 1412 0
-2185 -1037 -1148 -1155 0
-2185 -1037 -1054 0
-2185 -1037 -1062 0
-2185 -1037 -1113 0
-2185 -1037 -1121 0
-2185 -1037 -1228 0
-2185 -1037 -1236 0
-2185 -1038 0
-2186 1156 0
-2186 1406 0
-2186 -1029 0
-2186 -1030 0
-2186 -1033 0
-2186 -1034 0
-2186 -1035 1410 0
-2186 -1035 -1149 -1153 0
-2186 -1035 -1058 0
-2186 -1035 -1066 0
-2186 -1035 -1117 0
-2186 -1035 -1125 0
-2186 -1035 -1232 0
-2186 -1035 -1240 0
-2186 -1036 1411 0
-2186 -1036 -1149 -1154 0
-2186 -1036 -1060 0
-2186 -1036 -1068 0
-2186 -1036 -1119 0
-2186 -1036 -1127 0
-2186 -1036 -1234 0
-2186 -1036 -1242 0
-2186 -1037 1412 0
-2186 -1037 -1149 -1155 0
-2186 -1037 -1062 0
-2186 -1037 -1070 0
-2186 -1037 -1121 0
-2186 -1037 -1129 0
-2186 -1037 -1236 0
-2186 -1037 -1244 0
-2186 -1038 0
-2187 1156 0
-2187 1407 0
-2187 -1029 0
-2187 -1030 0
-2187 -1031 0
-2187 -1034 0
-2187 -1035 1410 0
-2187 -1035 -1150 -1153 0
-2187 -1035 -1066 0
-2187 -1035 -1074 0
-2187 -1035 -1125 0
-2187 -1035 -1133 0
-2187 -1035 -1240 0
-2187 -1035 -1248 0
-2187 -1036 1411 0
-2187 -1036 -1150 -1154 0
-2187 -1036 -1068 0
-2187 -1036 -1076 0
-2187 -1036 -1127 0
-2187 -1036 -1135 0
-2187 -1036 -1242 0
-2187 -1036 -1250 0
-2187 -1037 1412 0
-2187 -1037 -1150 -1155 0
-2187 -1037 -1070 0
-2187 -1037 -1078 0
-2187 -1037 -1129 0
-2187 -1037 -1137 0
-2187 -1037 -1244 0
-2187 -1037 -1252 0
-2187 -1038 0
-2188 1156 0
-2188 1408 0
-2188 -1029 0
-2188 -1030 0
-2188 -1031 0
-2188 -1032 0
-2188 -1035 1410 0
-2188 -1035 -1151 -1153 0
-2188 -1035 -1074 0
-2188 -1035 -1082 0
-2188 -1035 -1133 0
-2188 -1035 -1141 0
-2188 -1035 -1248 0
-2188 -1035 -1256 0
-2188 -1036 1411 0
-2188 -1036 -1151 -1154 0
-2188 -1036 -1076 0
-2188 -1036 -1084 0
-2188 -1036 -1135 0
-2188 -1036 -1143 0
-2188 -1036 -1250 0
-2188 -1036 -1258 0
-2188 -1037 1412 0
-2188 -1037 -1151 -1155 0
-2188 -1037 -1078 0
-2188 -1037 -1086 0
-2188 -1037 -1137 0
-2188 -1037 -1145 0
-2188 -1037 -1252 0
-2188 -1037 -1260 0
-2188 -1038 0
-2189 1156 0
-2189 1404 0
-2189 -1090 0
-2189 -1091 0
-2189 -1092 0
-2189 -1093 0
-2189 -1094 1410 0
-2189 -1094 -1147 -1153 0
-2189 -1094 -1042 0
-2189 -1094 -1050 0
-2189 -1094 -1101 0
-2189 -1094 -1109 0
-2189 -1094 -1216 0
-2189 -1094 -1224 0
-2189 -1095 1411 0
-2189 -1095 -1147 -1154 0
-2189 -1095 -1044 0
-2189 -1095 -1052 0
-2189 -1095 -1103 0
-2189 -1095 -1111 0
-2189 -1095 -1218 0
-2189 -1095 -1226 0
-2189 -1096 1412 0
-2189 -1096 -1147 -1155 0
-2189 -1096 -1046 0
-2189 -1096 -1054 0
-2189 -1096 -1105 0
-2189 -1096 -1113 0
-2189 -1096 -1220 0
-2189 -1096 -1228 0
-2189 -1097 0
-2190 1156 0
-2190 1405 0
-2190 -1088 0
-2190 -1091 0
-2190 -1092 0
-2190 -1093 0
-2190 -1094 1410 0
-2190 -1094 -1148 -1153 0
-2190 -1094 -1050 0
-2190 -1094 -1058 0
-2190 -1094 -1109 0
-2190 -1094 -1117 0
-2190 -1094 -1224 0
-2190 -1094 -1232 0
-2190 -1095 1411 0
-2190 -1095 -1148 -1154 0
-2190 -1095 -1052 0
-2190 -1095 -1060 0
-2190 -1095 -1111 0
-2190 -1095 -1119 0
-2190 -1095 -1226 0
-2190 -1095 -1234 0
-2190 -1096 1412 0
-2190 -1096 -1148 -1155 0
-2190 -1096 -1054 0
-2190 -1096 -1062 0
-2190 -1096 -1113 0
-2190 -1096 -1121 0
-2190 -1096 -1228 0
-2190 -1096 -1236 0
-2190 -1097 0
-2191 1156 0
-2191 1406 0
-2191 -1088 0
-2191 -1089 0
-2191 -1092 0
-2191 -1093 0
-2191 -1094 1410 0
-2191 -1094 -1149 -1153 0
-2191 -1094 -1058 0
-2191 -1094 -1066 0
-2191 -1094 -1117 0
-2191 -1094 -1125 0
-2191 -1094 -1232 0
-2191 -1094 -1240 0
-2191 -1095 1411 0
-2191 -1095 -1149 -1154 0
-2191 -1095 -1060 0
-2191 -1095 -1068 0
-2191 -1095 -1119 0
-2191 -1095 -1127 0
-2191 -1095 -1234 0
-2191 -1095 -1242 0
-2191 -1096 1412 0
-2191 -1096 -1149 -1155 0
-2191 -1096 -1062 0
-2191 -1096 -1070 0
-2191 -1096 -1121 0
-2191 -1096 -1129 0
-2191 -1096 -1236 0
-2191 -1096 -1244 0
-2191 -1097 0
-2192 1156 0
-2192 1407 0
-2192 -1088 0
-2192 -1089 0
-2192 -1090 0
-2192 -1093 0
-2192 -1094 1410 0
-2192 -1094 -1150 -1153 0
-2192 -1094 -1066 0
-2192 -1094 -1074 0
-2192 -1094 -1125 0
-2192 -1094 -1133 0
-2192 -1094 -1240 0
-2192 -1094 -1248 0
-2192 -1095 1411 0
-2192 -1095 -1150 -1154 0
-2192 -1095 -1068 0
-2192 -1095 -1076 0
-2192 -1095 -1127 0
-2192 -1095 -1135 0
-2192 -1095 -1242 0
-2192 -1095 -1250 0
-2192 -1096 1412 0
-2192 -1096 -1150 -1155 0
-2192 -1096 -1070 0
-2192 -1096 -1078 0
-2192 -1096 -1129 0
-2192 -1096 -1137 0
-2192 -1096 -1244 0
-2192 -1096 -1252 0
-2192 -1097 0
-2193 1156 0
-2193 1408 0
-2193 -1088 0
-2193 -1089 0
-2193 -1090 0
-2193 -1091 0
-2193 -1094 1410 0
-2193 -1094 -1151 -1153 0
-2193 -1094 -1074 0
-2193 -1094 -1082 0
-2193 -1094 -1133 0
-2193 -1094 -1141 0
-2193 -1094 -1248 0
-2193 -1094 -1256 0
-2193 -1095 1411 0
-2193 -1095 -1151 -1154 0
-2193 -1095 -1076 0
-2193 -1095 -1084 0
-2193 -1095 -1135 0
-2193 -1095 -1143 0
-2193 -1095 -1250 0
-2193 -1095 -1258 0
-2193 -1096 1412 0
-2193 -1096 -1151 -1155 0
-2193 -1096 -1078 0
-2193 -1096 -1086 0
-2193 -1096 -1137 0
-2193 -1096 -1145 0
-2193 -1096 -1252 0
-2193 -1096 -1260 0
-2193 -1097 0
-2194 1156 0
-2194 1404 0
-2194 -1207 0
-2194 -1208 0
-2194 -1209 1410 0
-2194 -1209 -1147 -1153 0
-2194 -1209 -1042 0
-2194 -1209 -1050 0
-2194 -1209 -1101 0
-2194 -1209 -1109 0
-2194 -1209 -1216 0
-2194 -1209 -1224 0
-2194 -1210 1411 0
-2194 -1210 -1147 -1154 0
-2194 -1210 -1044 0
-2194 -1210 -1052 0
-2194 -1210 -1103 0
-2194 -1210 -1111 0
-2194 -1210 -1218 0
-2194 -1210 -1226 0
-2194 -1211 1412 0
-2194 -1211 -1147 -1155 0
-2194 -1211 -1046 0
-2194 -1211 -1054 0
-2194 -1211 -1105 0
-2194 -1211 -1113 0
-2194 -1211 -1220 0
-2194 -1211 -1228 0
-2194 -1212 0
-2195 1156 0
-2195 1405 0
-2195 -1208 0
-2195 -1209 1410 0
-2195 -1209 -1148 -1153 0
-2195 -1209 -1050 0
-2195 -1209 -1058 0
-2195 -1209 -1109 0
-2195 -1209 -1117 0
-2195 -1209 -1224 0
-2195 -1209 -1232 0
-2195 -1210 1411 0
-2195 -1210 -1148 -1154 0
-2195 -1210 -1052 0
-2195 -1210 -1060 0
-2195 -1210 -1111 0
-2195 -1210 -1119 0
-2195 -1210 -1226 0
-2195 -1210 -1234 0
-2195 -1211 1412 0
-2195 -1211 -1148 -1155 0
-2195 -1211 -1054 0
-2195 -1211 -1062 0
-2195 -1211 -1113 0
-2195 -1211 -1121 0
-2195 -1211 -1228 0
-2195 -1211 -1236 0
-2195 -1212 0
-2196 1156 0
-2196 1406 0
-2196 -1209 1410 0
-2196 -1209 -1149 -1153 0
-2196 -1209 -1058 0
-2196 -1209 -1066 0
-2196 -1209 -1117 0
-2196 -1209 -1125 0
-2196 -1209 -1232 0
-2196 -1209 -1240 0
-2196 -1210 1411 0
-2196 -1210 -1149 -1154 0
-2196 -1210 -1060 0
-2196 -1210 -1068 0
-2196 -1210 -1119 0
-2196 -1210 -1127 0
-2196 -1210 -1234 0
-2196 -1210 -1242 0
-2196 -1211 1412 0
-2196 -1211 -1149 -1155 0
-2196 -1211 -1062 0
-2196 -1211 -1070 0
-2196 -1211 -1121 0
-2196 -1211 -1129 0
-2196 -1211 -1236 0
-2196 -1211 -1244 0
-2196 -1212 0
-2197 1156 0
-2197 1407 0
-2197 -1205 0
-2197 -1209 1410 0
-2197 -1209 -1150 -1153 0
-2197 -1209 -1066 0
-2197 -1209 -1074 0
-2197 -1209 -1125 0
-2197 -1209 -1133 0
-2197 -1209 -1240 0
-2197 -1209 -1248 0
-2197 -1210 1411 0
-2197 -1210 -1150 -1154 0
-2197 -1210 -1068 0
-2197 -1210 -1076 0
-2197 -1210 -1127 0
-2197 -1210 -1135 0
-2197 -1210 -1242 0
-2197 -1210 -1250 0
-2197 -1211 1412 0
-2197 -1211 -1150 -1155 0
-2197 -1211 -1070 0
-2197 -1211 -1078 0
-2197 -1211 -1129 0
-2197 -1211 -1137 0
-2197 -1211 -1244 0
-2197 -1211 -1252 0
-2197 -1212 0
-2198 1156 0
-2198 1408 0
-2198 -1205 0
-2198 -1206 0
-2198 -1209 1410 0
-2198 -1209 -1151 -1153 0
-2198 -1209 -1074 0
-2198 -1209 -1082 0
-2198 -1209 -1133 0
-2198 -1209 -1141 0
-2198 -1209 -1248 0
-2198 -1209 -1256 0
-2198 -1210 1411 0
-2198 -1210 -1151 -1154 0
-2198 -1210 -1076 0
-2198 -1210 -1084 0
-2198 -1210 -1135 0
-2198 -1210 -1143 0
-2198 -1210 -1250 0
-2198 -1210 -1258 0
-2198 -1211 1412 0
-2198 -1211 -1151 -1155 0
-2198 -1211 -1078 0
-2198 -1211 -1086 0
-2198 -1211 -1137 0
-2198 -1211 -1145 0
-2198 -1211 -1252 0
-2198 -1211 -1260 0
-2198 -1212 0
-2199 1156 0
-2199 1404 0
-2199 1409 0
-2199 -1147 -1152 0
-2199 -1040 0
-2199 -1048 0
-2199 -1099 0
-2199 -1107 0
-2199 -1214 0
-2199 -1222 0
-2200 1156 0
-2200 1405 0
-2200 1409 0
-2200 -1148 -1152 0
-2200 -1048 0
-2200 -1056 0
-2200 -1107 0
-2200 -1115 0
-2200 -1222 0
-2200 -1230 0
-2201 1156 0
-2201 1406 0
-2201 1409 0
-2201 -1149 -1152 0
-2201 -1056 0
-2201 -1064 0
-2201 -1115 0
-2201 -1123 0
-2201 -1230 0
-2201 -1238 0
-2202 1156 0
-2202 1407 0
-2202 1409 0
-2202 -1150 -1152 0
-2202 -1064 0
-2202 -1072 0
-2202 -1123 0
-2202 -1131 0
-2202 -1238 0
-2202 -1246 0
-2203 1156 0
-2203 1408 0
-2203 1409 0
-2203 -1151 -1152 0
-2203 -1072 0
-2203 -1080 0
-2203 -1131 0
-2203 -1139 0
-2203 -1246 0
-2203 -1254 0
-2204 1213 0
-2204 1462 0
-2204 -1032 0
-2204 -1033 0
-2204 -1034 0
-2204 -1035 1467 0
-2204 -1035 -1205 -1210 0
-2204 -1035 -1042 0
-2204 -1035 -1050 0
-2204 -1035 -1058 0
-2204 -1035 -1101 0
-2204 -1035 -1109 0
-2204 -1035 -1117 0
-2204 -1035 -1159 0
-2204 -1035 -1167 0
-2204 -1035 -1175 0
-2204 -1036 1468 0
-2204 -1036 -1205 -1211 0
-2204 -1036 -1044 0
-2204 -1036 -1052 0
-2204 -1036 -1060 0
-2204 -1036 -1103 0
-2204 -1036 -1111 0
-2204 -1036 -1119 0
-2204 -1036 -1161 0
-2204 -1036 -1169 0
-2204 -1036 -1177 0
-2204 -1037 1469 0
-2204 -1037 -1205 -1212 0
-2204 -1037 -1046 0
-2204 -1037 -1054 0
-2204 -1037 -1062 0
-2204 -1037 -1105 0
-2204 -1037 -1113 0
-2204 -1037 -1121 0
-2204 -1037 -1163 0
-2204 -1037 -1171 0
-2204 -1037 -1179 0
-2204 -1038 0
-2205 1213 0
-2205 1463 0
-2205 -1029 0
-2205 -1033 0
-2205 -1034 0
-2205 -1035 1467 0
-2205 -1035 -1206 -1210 0
-2205 -1035 -1050 0
-2205 -1035 -1058 0
-2205 -1035 -1066 0
-2205 -1035 -1109 0
-2205 -1035 -1117 0
-2205 -1035 -1125 0
-2205 -1035 -1167 0
-2205 -1035 -1175 0
-2205 -1035 -1183 0
-2205 -1036 1468 0
-2205 -1036 -1206 -1211 0
-2205 -1036 -1052 0
-2205 -1036 -1060 0
-2205 -1036 -1068 0
-2205 -1036 -1111 0
-2205 -1036 -1119 0
-2205 -1036 -1127 0
-2205 -1036 -1169 0
-2205 -1036 -1177 0
-2205 -1036 -1185 0
-2205 -1037 1469 0
-2205 -1037 -1206 -1212 0
-2205 -1037 -1054 0
-2205 -1037 -1062 0
-2205 -1037 -1070 0
-2205 -1037 -1113 0
-2205 -1037 -1121 0
-2205 -1037 -1129 0
-2205 -1037 -1171 0
-2205 -1037 -1179 0
-2205 -1037 -1187 0
-2205 -1038 0
-2206 1213 0
-2206 1464 0
-2206 -1029 0
-2206 -1030 0
-2206 -1034 0
-2206 -1035 1467 0
-2206 -1035 -1207 -1210 0
-2206 -1035 -1058 0
-2206 -1035 -1066 0
-2206 -1035 -1074 0
-2206 -1035 -1117 0
-2206 -1035 -1125 0
-2206 -1035 -1133 0
-2206 -1035 -1175 0
-2206 -1035 -1183 0
-2206 -1035 -1191 0
-2206 -1036 1468 0
-2206 -1036 -1207 -1211 0
-2206 -1036 -1060 0
-2206 -1036 -1068 0
-2206 -1036 -1076 0
-2206 -1036 -1119 0
-2206 -1036 -1127 0
-2206 -1036 -1135 0
-2206 -1036 -1177 0
-2206 -1036 -1185 0
-2206 -1036 -1193 0
-2206 -1037 1469 0
-2206 -1037 -1207 -1212 0
-2206 -1037 -1062 0
-2206 -1037 -1070 0
-2206 -1037 -1078 0
-2206 -1037 -1121 0
-2206 -1037 -1129 0
-2206 -1037 -1137 0
-2206 -1037 -1179 0
-2206 -1037 -1187 0
-2206 -1037 -1195 0
-2206 -1038 0
-2207 1213 0
-2207 1465 0
-2207 -1029 0
-2207 -1030 0
-2207 -1031 0
-2207 -1035 1467 0
-2207 -1035 -1208 -1210 0
-2207 -1035 -1066 0
-2207 -1035 -1074 0
-2207 -1035 -1082 0
-2207 -1035 -1125 0
-2207 -1035 -1133 0
-2207 -1035 -1141 0
-2207 -1035 -1183 0
-2207 -1035 -1191 0
-2207 -1035 -1199 0
-2207 -1036 1468 0
-2207 -1036 -1208 -1211 0
-2207 -1036 -1068 0
-2207 -1036 -1076 0
-2207 -1036 -1084 0
-2207 -1036 -1127 0
-2207 -1036 -1135 0
-2207 -1036 -1143 0
-2207 -1036 -1185 0
-2207 -1036 -1193 0
-2207 -1036 -1201 0
-2207 -1037 1469 0
-2207 -1037 -1208 -1212 0
-2207 -1037 -1070 0
-2207 -1037 -1078 0
-2207 -1037 -1086 0
-2207 -1037 -1129 0
-2207 -1037 -1137 0
-2207 -1037 -1145 0
-2207 -1037 -1187 0
-2207 -1037 -1195 0
-2207 -1037 -1203 0
-2207 -1038 0
-2208 1213 0
-2208 1462 0
-2208 -1091 0
-2208 -1092 0
-2208 -1093 0
-2208 -1094 1467 0
-2208 -1094 -1205 -1210 0
-2208 -1094 -1042 0
-2208 -1094 -1050 0
-2208 -1094 -1058 0
-2208 -1094 -1101 0
-2208 -1094 -1109 0
-2208 -1094 -1117 0
-2208 -1094 -1159 0
-2208 -1094 -1167 0
-2208 -1094 -1175 0
-2208 -1095 1468 0
-2208 -1095 -1205 -1211 0
-2208 -1095 -1044 0
-2208 -1095 -1052 0
-2208 -1095 -1060 0
-2208 -1095 -1103 0
-2208 -1095 -1111 0
-2208 -1095 -1119 0
-2208 -1095 -1161 0
-2208 -1095 -1169 0
-2208 -1095 -1177 0
-2208 -1096 1469 0
-2208 -1096 -1205 -1212 0
-2208 -1096 -1046 0
-2208 -1096 -1054 0
-2208 -1096 -1062 0
-2208 -1096 -1105 0
-2208 -1096 -1113 0
-2208 -1096 -1121 0
-2208 -1096 -1163 0
-2208 -1096 -1171 0
-2208 -1096 -1179 0
-2208 -1097 0
-2209 1213 0
-2209 1463 0
-2209 -1088 0
-2209 -1092 0
-2209 -1093 0
-2209 -1094 1467 0
-2209 -1094 -1206 -1210 0
-2209 -1094 -1050 0
-2209 -1094 -1058 0
-2209 -1094 -1066 0
-2209 -1094 -1109 0
-2209 -1094 -1117 0
-2209 -1094 -1125 0
-2209 -1094 -1167 0
-2209 -1094 -1175 0
-2209 -1094 -1183 0
-2209 -1095 1468 0
-2209 -1095 -1206 -1211 0
-2209 -1095 -1052 0
-2209 -1095 -1060 0
-2209 -1095 -1068 0
-2209 -1095 -1111 0
-2209 -1095 -1119 0
-2209 -1095 -1127 0
-2209 -1095 -1169 0
-2209 -1095 -1177 0
-2209 -1095 -1185 0
-2209 -1096 1469 0
-2209 -1096 -1206 -1212 0
-2209 -1096 -1054 0
-2209 -1096 -1062 0
-2209 -1096 -1070 0
-2209 -1096 -1113 0
-2209 -1096 -1121 0
-2209 -1096 -1129 0
-2209 -1096 -1171 0
-2209 -1096 -1179 0
-2209 -1096 -1187 0
-2209 -1097 0
-2210 1213 0
-2210 1464 0
-2210 -1088 0
-2210 -1089 0
-2210 -1093 0
-2210 -1094 1467 0
-2210 -1094 -1207 -1210 0
-2210 -1094 -1058 0
-2210 -1094 -1066 0
-2210 -1094 -1074 0
-2210 -1094 -1117 0
-2210 -1094 -1125 0
-2210 -1094 -1133 0
-2210 -1094 -1175 0
-2210 -1094 -1183 0
-2210 -1094 -1191 0
-2210 -1095 1468 0
-2210 -1095 -1207 -1211 0
-2210 -1095 -1060 0
-2210 -1095 -1068 0
-2210 -1095 -1076 0
-2210 -1095 -1119 0
-2210 -1095 -1127 0
-2210 -1095 -1135 0
-2210 -1095 -1177 0
-2210 -1095 -1185 0
-2210 -1095 -1193 0
-2210 -1096 1469 0
-2210 -1096 -1207 -1212 0
-2210 -1096 -1062 0
-2210 -1096 -1070 0
-2210 -1096 -1078 0
-2210 -1096 -1121 0
-2210 -1096 -1129 0
-2210 -1096 -1137 0
-2210 -1096 -1179 0
-2210 -1096 -1187 0
-2210 -1096 -1195 0
-2210 -1097 0
-2211 1213 0
-2211 1465 0
-2211 -1088 0
-2211 -1089 0
-2211 -1090 0
-2211 -1094 1467 0
-2211 -1094 -1208 -1210 0
-2211 -1094 -1066 0
-2211 -1094 -1074 0
-2211 -1094 -1082 0
-2211 -1094 -1125 0
-2211 -1094 -1133 0
-2211 -1094 -1141 0
-2211 -1094 -1183 0
-2211 -1094 -1191 0
-2211 -1094 -1199 0
-2211 -1095 1468 0
-2211 -1095 -1208 -1211 0
-2211 -1095 -1068 0
-2211 -1095 -1076 0
-2211 -1095 -1084 0
-2211 -1095 -1127 0
-2211 -1095 -1135 0
-2211 -1095 -1143 0
-2211 -1095 -1185 0
-2211 -1095 -1193 0
-2211 -1095 -1201 0
-2211 -1096 1469 0
-2211 -1096 -1208 -1212 0
-2211 -1096 -1070 0
-2211 -1096 -1078 0
-2211 -1096 -1086 0
-2211 -1096 -1129 0
-2211 -1096 -1137 0
-2211 -1096 -1145 0
-2211 -1096 -1187 0
-2211 -1096 -1195 0
-2211 -1096 -1203 0
-2211 -1097 0
-2212 1213 0
-2212 1462 0
-2212 -1150 0
-2212 -1151 0
-2212 -1152 1467 0
-2212 -1152 -1205 -1210 0
-2212 -1152 -1042 0
-2212 -1152 -1050 0
-2212 -1152 -1058 0
-2212 -1152 -1101 0
-2212 -1152 -1109 0
-2212 -1152 -1117 0
-2212 -1152 -1159 0
-2212 -1152 -1167 0
-2212 -1152 -1175 0
-2212 -1153 1468 0
-2212 -1153 -1205 -1211 0
-2212 -1153 -1044 0
-2212 -1153 -1052 0
-2212 -1153 -1060 0
-2212 -1153 -1103 0
-2212 -1153 -1111 0
-2212 -1153 -1119 0
-2212 -1153 -1161 0
-2212 -1153 -1169 0
-2212 -1153 -1177 0
-2212 -1154 1469 0
-2212 -1154 -1205 -1212 0
-2212 -1154 -1046 0
-2212 -1154 -1054 0
-2212 -1154 -1062 0
-2212 -1154 -1105 0
-2212 -1154 -1113 0
-2212 -1154 -1121 0
-2212 -1154 -1163 0
-2212 -1154 -1171 0
-2212 -1154 -1179 0
-2212 -1155 0
-2213 1213 0
-2213 1463 0
-2213 -1151 0
-2213 -1152 1467 0
-2213 -1152 -1206 -1210 0
-2213 -1152 -1050 0
-2213 -1152 -1058 0
-2213 -1152 -1066 0
-2213 -1152 -1109 0
-2213 -1152 -1117 0
-2213 -1152 -1125 0
-2213 -1152 -1167 0
-2213 -1152 -1175 0
-2213 -1152 -1183 0
-2213 -1153 1468 0
-2213 -1153 -1206 -1211 0
-2213 -1153 -1052 0
-2213 -1153 -1060 0
-2213 -1153 -1068 0
-2213 -1153 -1111 0
-2213 -1153 -1119 0
-2213 -1153 -1127 0
-2213 -1153 -1169 0
-2213 -1153 -1177 0
-2213 -1153 -1185 0
-2213 -1154 1469 0
-2213 -1154 -1206 -1212 0
-2213 -1154 -1054 0
-2213 -1154 -1062 0
-2213 -1154 -1070 0
-2213 -1154 -1113 0
-2213 -1154 -1121 0
-2213 -1154 -1129 0
-2213 -1154 -1171 0
-2213 -1154 -1179 0
-2213 -1154 -1187 0
-2213 -1155 0
-2214 1213 0
-2214 1464 0
-2214 -1147 0
-2214 -1152 1467 0
-2214 -1152 -1207 -1210 0
-2214 -1152 -1058 0
-2214 -1152 -1066 0
-2214 -1152 -1074 0
-2214 -1152 -1117 0
-2214 -1152 -1125 0
-2214 -1152 -1133 0
-2214 -1152 -1175 0
-2214 -1152 -1183 0
-2214 -1152 -1191 0
-2214 -1153 1468 0
-2214 -1153 -1207 -1211 0
-2214 -1153 -1060 0
-2214 -1153 -1068 0
-2214 -1153 -1076 0
-2214 -1153 -1119 0
-2214 -1153 -1127 0
-2214 -1153 -1135 0
-2214 -1153 -1177 0
-2214 -1153 -1185 0
-2214 -1153 -1193 0
-2214 -1154 1469 0
-2214 -1154 -1207 -1212 0
-2214 -1154 -1062 0
-2214 -1154 -1070 0
-2214 -1154 -1078 0
-2214 -1154 -1121 0
-2214 -1154 -1129 0
-2214 -1154 -1137 0
-2214 -1154 -1179 0
-2214 -1154 -1187 0
-2214 -1154 -1195 0
-2214 -1155 0
-2215 1213 0
-2215 1465 0
-2215 -1147 0
-2215 -1148 0
-2215 -1152 1467 0
-2215 -1152 -1208 -1210 0
-2215 -1152 -1066 0
-2215 -1152 -1074 0
-2215 -1152 -1082 0
-2215 -1152 -1125 0
-2215 -1152 -1133 0
-2215 -1152 -1141 0
-2215 -1152 -1183 0
-2215 -1152 -1191 0
-2215 -1152 -1199 0
-2215 -1153 1468 0
-2215 -1153 -1208 -1211 0
-2215 -1153 -1068 0
-2215 -1153 -1076 0
-2215 -1153 -1084 0
-2215 -1153 -1127 0
-2215 -1153 -1135 0
-2215 -1153 -1143 0
-2215 -1153 -1185 0
-2215 -1153 -1193 0
-2215 -1153 -1201 0
-2215 -1154 1469 0
-2215 -1154 -1208 -1212 0
-2215 -1154 -1070 0
-2215 -1154 -1078 0
-2215 -1154 -1086 0
-2215 -1154 -1129 0
-2215 -1154 -1137 0
-2215 -1154 -1145 0
-2215 -1154 -1187 0
-2215 -1154 -1195 0
-2215 -1154 -1203 0
-2215 -1155 0
-2216 1213 0
-2216 1462 0
-2216 1466 0
-2216 -1205 -1209 0
-2216 -1040 0
-2216 -1048 0
-2216 -1056 0
-2216 -1099 0
-2216 -1107 0
-2216 -1115 0
-2216 -1157 0
-2216 -1165 0
-2216 -1173 0
-2217 1213 0
-2217 1463 0
-2217 1466 0
-2217 -1206 -1209 0
-2217 -1048 0
-2217 -1056 0
-2217 -1064 0
-2217 -1107 0
-2217 -1115 0
-2217 -1123 0
-2217 -1165 0
-2217 -1173 0
-2217 -1181 0
-2218 1213 0
-2218 1464 0
-2218 1466 0
-2218 -1207 -1209 0
-2218 -1056 0
-2218 -1064 0
-2218 -1072 0
-2218 -1115 0
-2218 -1123 0
-2218 -1131 0
-2218 -1173 0
-2218 -1181 0
-2218 -1189 0
-2219 1213 0
-2219 1465 0
-2219 1466 0
-2219 -1208 -1209 0
-2219 -1064 0
-2219 -1072 0
-2219 -1080 0
-2219 -1123 0
-2219 -1131 0
-2219 -1139 0
-2219 -1181 0
-2219 -1189 0
-2219 -1197 0
-1029 1286 2136 2137 2138 2139 2140 2141 2142 2143 2144 2145 2146 2147 2148 2149 2150 2151 2152 2153 2154 2155 2156 2157 2158 2159 0
-1030 1287 2136 2137 2138 2139 2140 2141 2142 2143 2144 2145 2146 2147 2148 2149 2150 2151 2152 2153 2154 2155 2156 2157 2158 2159 0
-1031 1288 2136 2137 2138 2139 2140 2141 2142 2143 2144 2145 2146 2147 2148 2149 2150 2151 2152 2153 2154 2155 2156 2157 2158 2159 0
-1032 1289 2136 2137 2138 2139 2140 2141 2142 2143 2144 2145 2146 2147 2148 2149 2150 2151 2152 2153 2154 2155 2156 2157 2158 2159 0
-1033 1290 2136 2137 2138 2139 2140 2141 2142 2143 2144 2145 2146 2147 2148 2149 2150 2151 2152 2153 2154 2155 2156 2157 2158 2159 0
-1034 1291 2136 2137 2138 2139 2140 2141 2142 2143 2144 2145 2146 2147 2148 2149 2150 2151 2152 2153 2154 2155 2156 2157 2158 2159 0
-1035 1292 2136 2137 2138 2139 2140 2141 2142 2143 2144 2145 2146 2147 2148 2149 2150 2151 2152 2153 2154 2155 2156 2157 2158 2159 0
-1036 1293 2136 2137 2138 2139 2140 2141 2142 2143 2144 2145 2146 2147 2148 2149 2150 2151 2152 2153 2154 2155 2156 2157 2158 2159 0
-1037 1294 2136 2137 2138 2139 2140 2141 2142 2143 2144 2145 2146 2147 2148 2149 2150 2151 2152 2153 2154 2155 2156 2157 2158 2159 0
-1038 1295 2136 2137 2138 2139 2140 2141 2142 2143 2144 2145 2146 2147 2148 2149 2150 2151 2152 2153 2154 2155 2156 2157 2158 2159 0
-1088 1345 2160 2161 2162 2163 2164 2165 2166 2167 2168 2169 2170 2171 2172 2173 2174 2175 2176 2177 2178 2179 2180 2181 2182 2183 0
-1089 1346 2160 2161 2162 2163 2164 2165 2166 2167 2168 2169 2170 2171 2172 2173 2174 2175 2176 2177 2178 2179 2180 2181 2182 2183 0
-1090 1347 2160 2161 2162 2163 2164 2165 2166 2167 2168 2169 2170 2171 2172 2173 2174 2175 2176 2177 2178 2179 2180 2181 2182 2183 0
-1091 1348 2160 2161 2162 2163 2164 2165 2166 2167 2168 2169 2170 2171 2172 2173 2174 2175 2176 2177 2178 2179 2180 2181 2182 2183 0
-1092 1349 2160 2161 2162 2163 2164 2165 2166 2167 2168 2169 2170 2171 2172 2173 2174 2175 2176 2177 2178 2179 2180 2181 2182 2183 0
-1093 1350 2160 2161 2162 2163 2164 2165 2166 2167 2168 2169 2170 2171 2172 2173 2174 2175 2176 2177 2178 2179 2180 2181 2182 2183 0
-1094 1351 2160 2161 2162 2163 2164 2165 2166 2167 2168 2169 2170 2171 2172 2173 2174 2175 2176 2177 2178 2179 2180 2181 2182 2183 0
-1095 1352 2160 2161 2162 2163 2164 2165 2166 2167 2168 2169 2170 2171 2172 2173 2174 2175 2176 2177 2178 2179 2180 2181 2182 2183 0
-1096 1353 2160 2161 2162 2163 2164 2165 2166 2167 2168 2169 2170 2171 2172 2173 2174 2175 2176 2177 2178 2179 2180 2181 2182 2183 0
-1097 1354 2160 2161 2162 2163 2164 2165 2166 2167 2168 2169 2170 2171 2172 2173 2174 2175 2176 2177 2178 2179 2180 2181 2182 2183 0
-1147 1404 2184 2185 2186 2187 2188 2189 2190 2191 2192 2193 2194 2195 2196 2197 2198 2199 2200 2201 2202 2203 0
-1148 1405 2184 2185 2186 2187 2188 2189 2190 2191 2192 2193 2194 2195 2196 2197 2198 2199 2200 2201 2202 2203 0
-1149 1406 2184 2185 2186 2187 2188 2189 2190 2191 2192 2193 2194 2195 2196 2197 2198 2199 2200 2201 2202 2203 0
-1150 1407 2184 2185 2186 2187 2188 2189 2190 2191 2192 2193 2194 2195 2196 2197 2198 2199 2200 2201 2202 2203 0
-1151 1408 2184 2185 2186 2187 2188 2189 2190 2191 2192 2193 2194 2195 2196 2197 2198 2199 2200 2201 2202 2203 0
-1152 1409 2184 2185 2186 2187 2188 2189 2190 2191 2192 2193 2194 2195 2196 2197 2198 2199 2200 2201 2202 2203 0
-1153 1410 2184 2185 2186 2187 2188 2189 2190 2191 2192 2193 2194 2195 2196 2197 2198 2199 2200 2201 2202 2203 0
-1154 1411 2184 2185 2186 2187 2188 2189 2190 2191 2192 2193 2194 2195 2196 2197 2198 2199 2200 2201 2202 2203 0
-1155 1412 2184 2185 2186 2187 2188 2189 2190 2191 2192 2193 2194 2195 2196 2197 2198 2199 2200 2201 2202 2203 0
-1205 1462 2204 2205 2206 2207 2208 2209 2210 2211 2212 2213 2214 2215 2216 2217 2218 2219 0
-1206 1463 2204 2205 2206 2207 2208 2209 2210 2211 2212 2213 2214 2215 2216 2217 2218 2219 0
-1207 1464 2204 2205 2206 2207 2208 2209 2210 2211 2212 2213 2214 2215 2216 2217 2218 2219 0
-1208 1465 2204 2205 2206 2207 2208 2209 2210 2211 2212 2213 2214 2215 2216 2217 2218 2219 0
-1209 1466 2204 2205 2206 2207 2208 2209 2210 2211 2212 2213 2214 2215 2216 2217 2218 2219 0
-1210 1467 2204 2205 2206 2207 2208 2209 2210 2211 2212 2213 2214 2215 2216 2217 2218 2219 0
-1211 1468 2204 2205 2206 2207 2208 2209 2210 2211 2212 2213 2214 2215 2216 2217 2218 2219 0
-1212 1469 2204 2205 2206 2207 2208 2209 2210 2211 2212 2213 2214 2215 2216 2217 2218 2219 0
-2220 -2221 0
-2220 -2222 0
-2220 -2223 0
-2220 -2224 0
-2220 -2225 0
-2220 -2226 0
-2220 -2227 0
-2220 -2228 0
-2220 -2229 0
-2220 -2230 0
-2220 -2231 0
-2220 -2232 0
-2220 -2233 0
-2220 -2234 0
-2220 -2235 0
-2220 -2236 0
-2220 -2237 0
-2220 -2238 0
-2220 -2239 0
-2220 -2240 0
-2220 -2241 0
-2220 -2242 0
-2220 -2243 0
-2220 -2244 0
-2220 -2245 0
-2220 -2246 0
-2220 -2247 0
-2220 -2248 0
-2220 -2249 0
-2220 -2250 0
-2220 -2251 0
-2220 -2252 0
-2220 -2253 0
-2220 -2254 0
-2220 -2255 0
-2220 -2256 0
-2220 -2257 0
-2220 -2258 0
-2220 -2259 0
-2220 -2260 0
-2220 -2261 0
-2220 -2262 0
-2220 -2263 0
-2220 -2264 0
-2220 -2265 0
-2220 -2266 0
-2220 -2267 0
-2220 -2268 0
-2220 -2269 0
-2220 -2270 0
-2220 -2271 0
-2220 -2272 0
-2220 -2273 0
-2220 -2274 0
-2220 -2275 0
-2220 -2276 0
-2220 -2277 0
-2220 -2278 0
-2220 -2279 0
-2220 -2280 0
-2220 -2281 0
-2220 -2282 0
-2220 -2283 0
-2220 -2284 0
-2220 -2285 0
-2220 -2286 0
-2220 -2287 0
-2220 -2288 0
-2220 -2289 0
-2220 -2290 0
-2220 -2291 0
-2220 -2292 0
-2220 -2293 0
-2220 -2294 0
-2220 -2295 0
-2220 -2296 0
-2220 -2297 0
-2220 -2298 0
-2220 -2299 0
-2220 -2300 0
-2220 -2301 0
-2220 -2302 0
-2220 -2303 0
-2221 -2222 0
-2221 -2223 0
-2221 -2224 0
-2221 -2225 0
-2221 -2226 0
-2221 -2227 0
-2221 -2228 0
-2221 -2229 0
-2221 -2230 0
-2221 -2231 0
-2221 -2232 0
-2221 -2233 0
-2221 -2234 0
-2221 -2235 0
-2221 -2236 0
-2221 -2237 0
-2221 -2238 0
-2221 -2239 0
-2221 -2240 0
-2221 -2241 0
-2221 -2242 0
-2221 -2243 0
-2221 -2244 0
-2221 -2245 0
-2221 -2246 0
-2221 -2247 0
-2221 -2248 0
-2221 -2249 0
-2221 -2250 0
-2221 -2251 0
-2221 -2252 0
-2221 -2253 0
-2221 -2254 0
-2221 -2255 0
-2221 -2256 0
-2221 -2257 0
-2221 -2258 0
-2221 -2259 0
-2221 -2260 0
-2221 -2261 0
-2221 -2262 0
-2221 -2263 0
-2221 -2264 0
-2221 -2265 0
-2221 -2266 0
-2221 -2267 0
-2221 -2268 0
-2221 -2269 0
-2221 -2270 0
-2221 -2271 0
-2221 -2272 0
-2221 -2273 0
-2221 -2274 0
-2221 -2275 0
-2221 -2276 0
-2221 -2277 0
-2221 -2278 0
-2221 -2279 0
-2221 -2280 0
-2221 -2281 0
-2221 -2282 0
-2221 -2283 0
-2221 -2284 0
-2221 -2285 0
-2221 -2286 0
-2221 -2287 0
-2221 -2288 0
-2221 -2289 0
-2221 -2290 0
-2221 -2291 0
-2221 -2292 0
-2221 -2293 0
-2221 -2294 0
-2221 -2295 0
-2221 -2296 0
-2221 -2297 0
-2221 -2298 0
-2221 -2299 0
-2221 -2300 0
-2221 -2301 0
-2221 -2302 0
-2221 -2303 0
-2222 -2223 0
-2222 -2224 0
-2222 -2225 0
-2222 -2226 0
-2222 -2227 0
-2222 -2228 0
-2222 -2229 0
-2222 -2230 0
-2222 -2231 0
-2222 -2232 0
-2222 -2233 0
-2222 -2234 0
-2222 -2235 0
-2222 -2236 0
-2222 -2237 0
-2222 -2238 0
-2222 -2239 0
-2222 -2240 0
-2222 -2241 0
-2222 -2242 0
-2222 -2243 0
-2222 -2244 0
-2222 -2245 0
-2222 -2246 0
-2222 -2247 0
-2222 -2248 0
-2222 -2249 0
-2222 -2250 0
-2222 -2251 0
-2222 -2252 0
-2222 -2253 0
-2222 -2254 0
-2222 -2255 0
-2222 -2256 0
-2222 -2257 0
-2222 -2258 0
-2222 -2259 0
-2222 -2260 0
-2222 -2261 0
-2222 -2262 0
-2222 -2263 0
-2222 -2264 0
-2222 -2265 0
-2222 -2266 0
-2222 -2267 0
-2222 -2268 0
-2222 -2269 0
-2222 -2270 0
-2222 -2271 0
-2222 -2272 0
-2222 -2273 0
-2222 -2274 0
-2222 -2275 0
-2222 -2276 0
-2222 -2277 0
-2222 -2278 0
-2222 -2279 0
-2222 -2280 0
-2222 -2281 0
-2222 -2282 0
-2222 -2283 0
-2222 -2284 0
-2222 -2285 0
-2222 -2286 0
-2222 -2287 0
-2222 -2288 0
-2222 -2289 0
-2222 -2290 0
-2222 -2291 0
-2222 -2292 0
-2222 -2293 0
-2222 -2294 0
-2222 -2295 0
-2222 -2296 0
-2222 -2297 0
-2222 -2298 0
-2222 -2299 0
-2222 -2300 0
-2222 -2301 0
-2222 -2302 0
-2222 -2303 0
-2223 -2224 0
-2223 -2225 0
-2223 -2226 0
-2223 -2227 0
-2223 -2228 0
-2223 -2229 0
-2223 -2230 0
-2223 -2231 0
-2223 -2232 0
-2223 -2233 0
-2223 -2234 0
-2223 -2235 0
-2223 -2236 0
-2223 -2237 0
-2223 -2238 0
-2223 -2239 0
-2223 -2240 0
-2223 -2241 0
-2223 -2242 0
-2223 -2243 0
-2223 -2244 0
-2223 -2245 0
-2223 -2246 0
-2223 -2247 0
-2223 -2248 0
-2223 -2249 0
-2223 -2250 0
-2223 -2251 0
-2223 -2252 0
-2223 -2253 0
-2223 -2254 0
-2223 -2255 0
-2223 -2256 0
-2223 -2257 0
-2223 -2258 0
-2223 -2259 0
-2223 -2260 0
-2223 -2261 0
-2223 -2262 0
-2223 -2263 0
-2223 -2264 0
-2223 -2265 0
-2223 -2266 0
-2223 -2267 0
-2223 -2268 0
-2223 -2269 0
-2223 -2270 0
-2223 -2271 0
-2223 -2272 0
-2223 -2273 0
-2223 -2274 0
-2223 -2275 0
-2223 -2276 0
-2223 -2277 0
-2223 -2278 0
-2223 -2279 0
-2223 -2280 0
-2223 -2281 0
-2223 -2282 0
-2223 -2283 0
-2223 -2284 0
-2223 -2285 0
-2223 -2286 0
-2223 -2287 0
-2223 -2288 0
-2223 -2289 0
-2223 -2290 0
-2223 -2291 0
-2223 -2292 0
-2223 -2293 0
-2223 -2294 0
-2223 -2295 0
-2223 -2296 0
-2223 -2297 0
-2223 -2298 0
-2223 -2299 0
-2223 -2300 0
-2223 -2301 0
-2223 -2302 0
-2223 -2303 0
-2224 -2225 0
-2224 -2226 0
-2224 -2227 0
-2224 -2228 0
-2224 -2229 0
-2224 -2230 0
-2224 -2231 0
-2224 -2232 0
-2224 -2233 0
-2224 -2234 0
-2224 -2235 0
-2224 -2236 0
-2224 -2237 0
-2224 -2238 0
-2224 -2239 0
-2224 -2240 0
-2224 -2241 0
-2224 -2242 0
-2224 -2243 0
-2224 -2244 0
-2224 -2245 0
-2224 -2246 0
-2224 -2247 0
-2224 -2248 0
-2224 -2249 0
-2224 -2250 0
-2224 -2251 0
-2224 -2252 0
-2224 -2253 0
-2224 -2254 0
-2224 -2255 0
-2224 -2256 0
-2224 -2257 0
-2224 -2258 0
-2224 -2259 0
-2224 -2260 0
-2224 -2261 0
-2224 -2262 0
-2224 -2263 0
-2224 -2264 0
-2224 -2265 0
-2224 -2266 0
-2224 -2267 0
-2224 -2268 0
-2224 -2269 0
-2224 -2270 0
-2224 -2271 0
-2224 -2272 0
-2224 -2273 0
-2224 -2274 0
-2224 -2275 0
-2224 -2276 0
-2224 -2277 0
-2224 -2278 0
-2224 -2279 0
-2224 -2280 0
-2224 -2281 0
-2224 -2282 0
-2224 -2283 0
-2224 -2284 0
-2224 -2285 0
-2224 -2286 0
-2224 -2287 0
-2224 -2288 0
-2224 -2289 0
-2224 -2290 0
-2224 -2291 0
-2224 -2292 0
-2224 -2293 0
-2224 -2294 0
-2224 -2295 0
-2224 -2296 0
-2224 -2297 0
-2224 -2298 0
-2224 -2299 0
-2224 -2300 0
-2224 -2301 0
-2224 -2302 0
-2224 -2303 0
-2225 -2226 0
-2225 -2227 0
-2225 -2228 0
-2225 -2229 0
-2225 -2230 0
-2225 -2231 0
-2225 -2232 0
-2225 -2233 0
-2225 -2234 0
-2225 -2235 0
-2225 -2236 0
-2225 -2237 0
-2225 -2238 0
-2225 -2239 0
-2225 -2240 0
-2225 -2241 0
-2225 -2242 0
-2225 -2243 0
-2225 -2244 0
-2225 -2245 0
-2225 -2246 0
-2225 -2247 0
-2225 -2248 0
-2225 -2249 0
-2225 -2250 0
-2225 -2251 0
-2225 -2252 0
-2225 -2253 0
-2225 -2254 0
-2225 -2255 0
-2225 -2256 0
-2225 -2257 0
-2225 -2258 0
-2225 -2259 0
-2225 -2260 0
-2225 -2261 0
-2225 -2262 0
-2225 -2263 0
-2225 -2264 0
-2225 -2265 0
-2225 -2266 0
-2225 -2267 0
-2225 -2268 0
-2225 -2269 0
-2225 -2270 0
-2225 -2271 0
-2225 -2272 0
-2225 -2273 0
-2225 -2274 0
-2225 -2275 0
-2225 -2276 0
-2225 -2277 0
-2225 -2278 0
-2225 -2279 0
-2225 -2280 0
-2225 -2281 0
-2225 -2282 0
-2225 -2283 0
-2225 -2284 0
-2225 -2285 0
-2225 -2286 0
-2225 -2287 0
-2225 -2288 0
-2225 -2289 0
-2225 -2290 0
-2225 -2291 0
-2225 -2292 0
-2225 -2293 0
-2225 -2294 0
-2225 -2295 0
-2225 -2296 0
-2225 -2297 0
-2225 -2298 0
-2225 -2299 0
-2225 -2300 0
-2225 -2301 0
-2225 -2302 0
-2225 -2303 0
-2226 -2227 0
-2226 -2228 0
-2226 -2229 0
-2226 -2230 0
-2226 -2231 0
-2226 -2232 0
-2226 -2233 0
-2226 -2234 0
-2226 -2235 0
-2226 -2236 0
-2226 -2237 0
-2226 -2238 0
-2226 -2239 0
-2226 -2240 0
-2226 -2241 0
-2226 -2242 0
-2226 -2243 0
-2226 -2244 0
-2226 -2245 0
-2226 -2246 0
-2226 -2247 0
-2226 -2248 0
-2226 -2249 0
-2226 -2250 0
-2226 -2251 0
-2226 -2252 0
-2226 -2253 0
-2226 -2254 0
-2226 -2255 0
-2226 -2256 0
-2226 -2257 0
-2226 -2258 0
-2226 -2259 0
-2226 -2260 0
-2226 -2261 0
-2226 -2262 0
-2226 -2263 0
-2226 -2264 0
-2226 -2265 0
-2226 -2266 0
-2226 -2267 0
-2226 -2268 0
-2226 -2269 0
-2226 -2270 0
-2226 -2271 0
-2226 -2272 0
-2226 -2273 0
-2226 -2274 0
-2226 -2275 0
-2226 -2276 0
-2226 -2277 0
-2226 -2278 0
-2226 -2279 0
-2226 -2280 0
-2226 -2281 0
-2226 -2282 0
-2226 -2283 0
-2226 -2284 0
-2226 -2285 0
-2226 -2286 0
-2226 -2287 0
-2226 -2288 0
-2226 -2289 0
-2226 -2290 0
-2226 -2291 0
-2226 -2292 0
-2226 -2293 0
-2226 -2294 0
-2226 -2295 0
-2226 -2296 0
-2226 -2297 0
-2226 -2298 0
-2226 -2299 0
-2226 -2300 0
-2226 -2301 0
-2226 -2302 0
-2226 -2303 0
-2227 -2228 0
-2227 -2229 0
-2227 -2230 0
-2227 -2231 0
-2227 -2232 0
-2227 -2233 0
-2227 -2234 0
-2227 -2235 0
-2227 -2236 0
-2227 -2237 0
-2227 -2238 0
-2227 -2239 0
-2227 -2240 0
-2227 -2241 0
-2227 -2242 0
-2227 -2243 0
-2227 -2244 0
-2227 -2245 0
-2227 -2246 0
-2227 -2247 0
-2227 -2248 0
-2227 -2249 0
-2227 -2250 0
-2227 -2251 0
-2227 -2252 0
-2227 -2253 0
-2227 -2254 0
-2227 -2255 0
-2227 -2256 0
-2227 -2257 0
-2227 -2258 0
-2227 -2259 0
-2227 -2260 0
-2227 -2261 0
-2227 -2262 0
-2227 -2263 0
-2227 -2264 0
-2227 -2265 0
-2227 -2266 0
-2227 -2267 0
-2227 -2268 0
-2227 -2269 0
-2227 -2270 0
-2227 -2271 0
-2227 -2272 0
-2227 -2273 0
-2227 -2274 0
-2227 -2275 0
-2227 -2276 0
-2227 -2277 0
-2227 -2278 0
-2227 -2279 0
-2227 -2280 0
-2227 -2281 0
-2227 -2282 0
-2227 -2283 0
-2227 -2284 0
-2227 -2285 0
-2227 -2286 0
-2227 -2287 0
-2227 -2288 0
-2227 -2289 0
-2227 -2290 0
-2227 -2291 0
-2227 -2292 0
-2227 -2293 0
-2227 -2294 0
-2227 -2295 0
-2227 -2296 0
-2227 -2297 0
-2227 -2298 0
-2227 -2299 0
-2227 -2300 0
-2227 -2301 0
-2227 -2302 0
-2227 -2303 0
-2228 -2229 0
-2228 -2230 0
-2228 -2231 0
-2228 -2232 0
-2228 -2233 0
-2228 -2234 0
-2228 -2235 0
-2228 -2236 0
-2228 -2237 0
-2228 -2238 0
-2228 -2239 0
-2228 -2240 0
-2228 -2241 0
-2228 -2242 0
-2228 -2243 0
-2228 -2244 0
-2228 -2245 0
-2228 -2246 0
-2228 -2247 0
-2228 -2248 0
-2228 -2249 0
-2228 -2250 0
-2228 -2251 0
-2228 -2252 0
-2228 -2253 0
-2228 -2254 0
-2228 -2255 0
-2228 -2256 0
-2228 -2257 0
-2228 -2258 0
-2228 -2259 0
-2228 -2260 0
-2228 -2261 0
-2228 -2262 0
-2228 -2263 0
-2228 -2264 0
-2228 -2265 0
-2228 -2266 0
-2228 -2267 0
-2228 -2268 0
-2228 -2269 0
-2228 -2270 0
-2228 -2271 0
-2228 -2272 0
-2228 -2273 0
-2228 -2274 0
-2228 -2275 0
-2228 -2276 0
-2228 -2277 0
-2228 -2278 0
-2228 -2279 0
-2228 -2280 0
-2228 -2281 0
-2228 -2282 0
-2228 -2283 0
-2228 -2284 0
-2228 -2285 0
-2228 -2286 0
-2228 -2287 0
-2228 -2288 0
-2228 -2289 0
-2228 -2290 0
-2228 -2291 0
-2228 -2292 0
-2228 -2293 0
-2228 -2294 0
-2228 -2295 0
-2228 -2296 0
-2228 -2297 0
-2228 -2298 0
-2228 -2299 0
-2228 -2300 0
-2228 -2301 0
-2228 -2302 0
-2228 -2303 0
-2229 -2230 0
-2229 -2231 0
-2229 -2232 0
-2229 -2233 0
-2229 -2234 0
-2229 -2235 0
-2229 -2236 0
-2229 -2237 0
-2229 -2238 0
-2229 -2239 0
-2229 -2240 0
-2229 -2241 0
-2229 -2242 0
-2229 -2243 0
-2229 -2244 0
-2229 -2245 0
-2229 -2246 0
-2229 -2247 0
-2229 -2248 0
-2229 -2249 0
-2229 -2250 0
-2229 -2251 0
-2229 -2252 0
-2229 -2253 0
-2229 -2254 0
-2229 -2255 0
-2229 -2256 0
-2229 -2257 0
-2229 -2258 0
-2229 -2259 0
-2229 -2260 0
-2229 -2261 0
-2229 -2262 0
-2229 -2263 0
-2229 -2264 0
-2229 -2265 0
-2229 -2266 0
-2229 -2267 0
-2229 -2268 0
-2229 -2269 0
-2229 -2270 0
-2229 -2271 0
-2229 -2272 0
-2229 -2273 0
-2229 -2274 0
-2229 -2275 0
-2229 -2276 0
-2229 -2277 0
-2229 -2278 0
-2229 -2279 0
-2229 -2280 0
-2229 -2281 0
-2229 -2282 0
-2229 -2283 0
-2229 -2284 0
-2229 -2285 0
-2229 -2286 0
-2229 -2287 0
-2229 -2288 0
-2229 -2289 0
-2229 -2290 0
-2229 -2291 0
-2229 -2292 0
-2229 -2293 0
-2229 -2294 0
-2229 -2295 0
-2229 -2296 0
-2229 -2297 0
-2229 -2298 0
-2229 -2299 0
-2229 -2300 0
-2229 -2301 0
-2229 -2302 0
-2229 -2303 0
-2230 -2231 0
-2230 -2232 0
-2230 -2233 0
-2230 -2234 0
-2230 -2235 0
-2230 -2236 0
-2230 -2237 0
-2230 -2238 0
-2230 -2239 0
-2230 -2240 0
-2230 -2241 0
-2230 -2242 0
-2230 -2243 0
-2230 -2244 0
-2230 -2245 0
-2230 -2246 0
-2230 -2247 0
-2230 -2248 0
-2230 -2249 0
-2230 -2250 0
-2230 -2251 0
-2230 -2252 0
-2230 -2253 0
-2230 -2254 0
-2230 -2255 0
-2230 -2256 0
-2230 -2257 0
-2230 -2258 0
-2230 -2259 0
-2230 -2260 0
-2230 -2261 0
-2230 -2262 0
-2230 -2263 0
-2230 -2264 0
-2230 -2265 0
-2230 -2266 0
-2230 -2267 0
-2230 -2268 0
-2230 -2269 0
-2230 -2270 0
-2230 -2271 0
-2230 -2272 0
-2230 -2273 0
-2230 -2274 0
-2230 -2275 0
-2230 -2276 0
-2230 -2277 0
-2230 -2278 0
-2230 -2279 0
-2230 -2280 0
-2230 -2281 0
-2230 -2282 0
-2230 -2283 0
-2230 -2284 0
-2230 -2285 0
-2230 -2286 0
-2230 -2287 0
-2230 -2288 0
-2230 -2289 0
-2230 -2290 0
-2230 -2291 0
-2230 -2292 0
-2230 -2293 0
-2230 -2294 0
-2230 -2295 0
-2230 -2296 0
-2230 -2297 0
-2230 -2298 0
-2230 -2299 0
-2230 -2300 0
-2230 -2301 0
-2230 -2302 0
-2230 -2303 0
-2231 -2232 0
-2231 -2233 0
-2231 -2234 0
-2231 -2235 0
-2231 -2236 0
-2231 -2237 0
-2231 -2238 0
-2231 -2239 0
-2231 -2240 0
-2231 -2241 0
-2231 -2242 0
-2231 -2243 0
-2231 -2244 0
-2231 -2245 0
-2231 -2246 0
-2231 -2247 0
-2231 -2248 0
-2231 -2249 0
-2231 -2250 0
-2231 -2251 0
-2231 -2252 0
-2231 -2253 0
-2231 -2254 0
-2231 -2255 0
-2231 -2256 0
-2231 -2257 0
-2231 -2258 0
-2231 -2259 0
-2231 -2260 0
-2231 -2261 0
-2231 -2262 0
-2231 -2263 0
-2231 -2264 0
-2231 -2265 0
-2231 -2266 0
-2231 -2267 0
-2231 -2268 0
-2231 -2269 0
-2231 -2270 0
-2231 -2271 0
-2231 -2272 0
-2231 -2273 0
-2231 -2274 0
-2231 -2275 0
-2231 -2276 0
-2231 -2277 0
-2231 -2278 0
-2231 -2279 0
-2231 -2280 0
-2231 -2281 0
-2231 -2282 0
-2231 -2283 0
-2231 -2284 0
-2231 -2285 0
-2231 -2286 0
-2231 -2287 0
-2231 -2288 0
-2231 -2289 0
-2231 -2290 0
-2231 -2291 0
-2231 -2292 0
-2231 -2293 0
-2231 -2294 0
-2231 -2295 0
-2231 -2296 0
-2231 -2297 0
-2231 -2298 0
-2231 -2299 0
-2231 -2300 0
-2231 -2301 0
-2231 -2302 0
-2231 -2303 0
-2232 -2233 0
-2232 -2234 0
-2232 -2235 0
-2232 -2236 0
-2232 -2237 0
-2232 -2238 0
-2232 -2239 0
-2232 -2240 0
-2232 -2241 0
-2232 -2242 0
-2232 -2243 0
-2232 -2244 0
-2232 -2245 0
-2232 -2246 0
-2232 -2247 0
-2232 -2248 0
-2232 -2249 0
-2232 -2250 0
-2232 -2251 0
-2232 -2252 0
-2232 -2253 0
-2232 -2254 0
-2232 -2255 0
-2232 -2256 0
-2232 -2257 0
-2232 -2258 0
-2232 -2259 0
-2232 -2260 0
-2232 -2261 0
-2232 -2262 0
-2232 -2263 0
-2232 -2264 0
-2232 -2265 0
-2232 -2266 0
-2232 -2267 0
-2232 -2268 0
-2232 -2269 0
-2232 -2270 0
-2232 -2271 0
-2232 -2272 0
-2232 -2273 0
-2232 -2274 0
-2232 -2275 0
-2232 -2276 0
-2232 -2277 0
-2232 -2278 0
-2232 -2279 0
-2232 -2280 0
-2232 -2281 0
-2232 -2282 0
-2232 -2283 0
-2232 -2284 0
-2232 -2285 0
-2232 -2286 0
-2232 -2287 0
-2232 -2288 0
-2232 -2289 0
-2232 -2290 0
-2232 -2291 0
-2232 -2292 0
-2232 -2293 0
-2232 -2294 0
-2232 -2295 0
-2232 -2296 0
-2232 -2297 0
-2232 -2298 0
-2232 -2299 0
-2232 -2300 0
-2232 -2301 0
-2232 -2302 0
-2232 -2303 0
-2233 -2234 0
-2233 -2235 0
-2233 -2236 0
-2233 -2237 0
-2233 -2238 0
-2233 -2239 0
-2233 -2240 0
-2233 -2241 0
-2233 -2242 0
-2233 -2243 0
-2233 -2244 0
-2233 -2245 0
-2233 -2246 0
-2233 -2247 0
-2233 -2248 0
-2233 -2249 0
-2233 -2250 0
-2233 -2251 0
-2233 -2252 0
-2233 -2253 0
-2233 -2254 0
-2233 -2255 0
-2233 -2256 0
-2233 -2257 0
-2233 -2258 0
-2233 -2259 0
-2233 -2260 0
-2233 -2261 0
-2233 -2262 0
-2233 -2263 0
-2233 -2264 0
-2233 -2265 0
-2233 -2266 0
-2233 -2267 0
-2233 -2268 0
-2233 -2269 0
-2233 -2270 0
-2233 -2271 0
-2233 -2272 0
-2233 -2273 0
-2233 -2274 0
-2233 -2275 0
-2233 -2276 0
-2233 -2277 0
-2233 -2278 0
-2233 -2279 0
-2233 -2280 0
-2233 -2281 0
-2233 -2282 0
-2233 -2283 0
-2233 -2284 0
-2233 -2285 0
-2233 -2286 0
-2233 -2287 0
-2233 -2288 0
-2233 -2289 0
-2233 -2290 0
-2233 -2291 0
-2233 -2292 0
-2233 -2293 0
-2233 -2294 0
-2233 -2295 0
-2233 -2296 0
-2233 -2297 0
-2233 -2298 0
-2233 -2299 0
-2233 -2300 0
-2233 -2301 0
-2233 -2302 0
-2233 -2303 0
-2234 -2235 0
-2234 -2236 0
-2234 -2237 0
-2234 -2238 0
-2234 -2239 0
-2234 -2240 0
-2234 -2241 0
-2234 -2242 0
-2234 -2243 0
-2234 -2244 0
-2234 -2245 0
-2234 -2246 0
-2234 -2247 0
-2234 -2248 0
-2234 -2249 0
-2234 -2250 0
-2234 -2251 0
-2234 -2252 0
-2234 -2253 0
-2234 -2254 0
-2234 -2255 0
-2234 -2256 0
-2234 -2257 0
-2234 -2258 0
-2234 -2259 0
-2234 -2260 0
-2234 -2261 0
-2234 -2262 0
-2234 -2263 0
-2234 -2264 0
-2234 -2265 0
-2234 -2266 0
-2234 -2267 0
-2234 -2268 0
-2234 -2269 0
-2234 -2270 0
-2234 -2271 0
-2234 -2272 0
-2234 -2273 0
-2234 -2274 0
-2234 -2275 0
-2234 -2276 0
-2234 -2277 0
-2234 -2278 0
-2234 -2279 0
-2234 -2280 0
-2234 -2281 0
-2234 -2282 0
-2234 -2283 0
-2234 -2284 0
-2234 -2285 0
-2234 -2286 0
-2234 -2287 0
-2234 -2288 0
-2234 -2289 0
-2234 -2290 0
-2234 -2291 0
-2234 -2292 0
-2234 -2293 0
-2234 -2294 0
-2234 -2295 0
-2234 -2296 0
-2234 -2297 0
-2234 -2298 0
-2234 -2299 0
-2234 -2300 0
-2234 -2301 0
-2234 -2302 0
-2234 -2303 0
-2235 -2236 0
-2235 -2237 0
-2235 -2238 0
-2235 -2239 0
-2235 -2240 0
-2235 -2241 0
-2235 -2242 0
-2235 -2243 0
-2235 -2244 0
-2235 -2245 0
-2235 -2246 0
-2235 -2247 0
-2235 -2248 0
-2235 -2249 0
-2235 -2250 0
-2235 -2251 0
-2235 -2252 0
-2235 -2253 0
-2235 -2254 0
-2235 -2255 0
-2235 -2256 0
-2235 -2257 0
-2235 -2258 0
-2235 -2259 0
-2235 -2260 0
-2235 -2261 0
-2235 -2262 0
-2235 -2263 0
-2235 -2264 0
-2235 -2265 0
-2235 -2266 0
-2235 -2267 0
-2235 -2268 0
-2235 -2269 0
-2235 -2270 0
-2235 -2271 0
-2235 -2272 0
-2235 -2273 0
-2235 -2274 0
-2235 -2275 0
-2235 -2276 0
-2235 -2277 0
-2235 -2278 0
-2235 -2279 0
-2235 -2280 0
-2235 -2281 0
-2235 -2282 0
-2235 -2283 0
-2235 -2284 0
-2235 -2285 0
-2235 -2286 0
-2235 -2287 0
-2235 -2288 0
-2235 -2289 0
-2235 -2290 0
-2235 -2291 0
-2235 -2292 0
-2235 -2293 0
-2235 -2294 0
-2235 -2295 0
-2235 -2296 0
-2235 -2297 0
-2235 -2298 0
-2235 -2299 0
-2235 -2300 0
-2235 -2301 0
-2235 -2302 0
-2235 -2303 0
-2236 -2237 0
-2236 -2238 0
-2236 -2239 0
-2236 -2240 0
-2236 -2241 0
-2236 -2242 0
-2236 -2243 0
-2236 -2244 0
-2236 -2245 0
-2236 -2246 0
-2236 -2247 0
-2236 -2248 0
-2236 -2249 0
-2236 -2250 0
-2236 -2251 0
-2236 -2252 0
-2236 -2253 0
-2236 -2254 0
-2236 -2255 0
-2236 -2256 0
-2236 -2257 0
-2236 -2258 0
-2236 -2259 0
-2236 -2260 0
-2236 -2261 0
-2236 -2262 0
-2236 -2263 0
-2236 -2264 0
-2236 -2265 0
-2236 -2266 0
-2236 -2267 0
-2236 -2268 0
-2236 -2269 0
-2236 -2270 0
-2236 -2271 0
-2236 -2272 0
-2236 -2273 0
-2236 -2274 0
-2236 -2275 0
-2236 -2276 0
-2236 -2277 0
-2236 -2278 0
-2236 -2279 0
-2236 -2280 0
-2236 -2281 0
-2236 -2282 0
-2236 -2283 0
-2236 -2284 0
-2236 -2285 0
-2236 -2286 0
-2236 -2287 0
-2236 -2288 0
-2236 -2289 0
-2236 -2290 0
-2236 -2291 0
-2236 -2292 0
-2236 -2293 0
-2236 -2294 0
-2236 -2295 0
-2236 -2296 0
-2236 -2297 0
-2236 -2298 0
-2236 -2299 0
-2236 -2300 0
-2236 -2301 0
-2236 -2302 0
-2236 -2303 0
-2237 -2238 0
-2237 -2239 0
-2237 -2240 0
-2237 -2241 0
-2237 -2242 0
-2237 -2243 0
-2237 -2244 0
-2237 -2245 0
-2237 -2246 0
-2237 -2247 0
-2237 -2248 0
-2237 -2249 0
-2237 -2250 0
-2237 -2251 0
-2237 -2252 0
-2237 -2253 0
-2237 -2254 0
-2237 -2255 0
-2237 -2256 0
-2237 -2257 0
-2237 -2258 0
-2237 -2259 0
-2237 -2260 0
-2237 -2261 0
-2237 -2262 0
-2237 -2263 0
-2237 -2264 0
-2237 -2265 0
-2237 -2266 0
-2237 -2267 0
-2237 -2268 0
-2237 -2269 0
-2237 -2270 0
-2237 -2271 0
-2237 -2272 0
-2237 -2273 0
-2237 -2274 0
-2237 -2275 0
-2237 -2276 0
-2237 -2277 0
-2237 -2278 0
-2237 -2279 0
-2237 -2280 0
-2237 -2281 0
-2237 -2282 0
-2237 -2283 0
-2237 -2284 0
-2237 -2285 0
-2237 -2286 0
-2237 -2287 0
-2237 -2288 0
-2237 -2289 0
-2237 -2290 0
-2237 -2291 0
-2237 -2292 0
-2237 -2293 0
-2237 -2294 0
-2237 -2295 0
-2237 -2296 0
-2237 -2297 0
-2237 -2298 0
-2237 -2299 0
-2237 -2300 0
-2237 -2301 0
-2237 -2302 0
-2237 -2303 0
-2238 -2239 0
-2238 -2240 0
-2238 -2241 0
-2238 -2242 0
-2238 -2243 0
-2238 -2244 0
-2238 -2245 0
-2238 -2246 0
-2238 -2247 0
-2238 -2248 0
-2238 -2249 0
-2238 -2250 0
-2238 -2251 0
-2238 -2252 0
-2238 -2253 0
-2238 -2254 0
-2238 -2255 0
-2238 -2256 0
-2238 -2257 0
-2238 -2258 0
-2238 -2259 0
-2238 -2260 0
-2238 -2261 0
-2238 -2262 0
-2238 -2263 0
-2238 -2264 0
-2238 -2265 0
-2238 -2266 0
-2238 -2267 0
-2238 -2268 0
-2238 -2269 0
-2238 -2270 0
-2238 -2271 0
-2238 -2272 0
-2238 -2273 0
-2238 -2274 0
-2238 -2275 0
-2238 -2276 0
-2238 -2277 0
-2238 -2278 0
-2238 -2279 0
-2238 -2280 0
-2238 -2281 0
-2238 -2282 0
-2238 -2283 0
-2238 -2284 0
-2238 -2285 0
-2238 -2286 0
-2238 -2287 0
-2238 -2288 0
-2238 -2289 0
-2238 -2290 0
-2238 -2291 0
-2238 -2292 0
-2238 -2293 0
-2238 -2294 0
-2238 -2295 0
-2238 -2296 0
-2238 -2297 0
-2238 -2298 0
-2238 -2299 0
-2238 -2300 0
-2238 -2301 0
-2238 -2302 0
-2238 -2303 0
-2239 -2240 0
-2239 -2241 0
-2239 -2242 0
-2239 -2243 0
-2239 -2244 0
-2239 -2245 0
-2239 -2246 0
-2239 -2247 0
-2239 -2248 0
-2239 -2249 0
-2239 -2250 0
-2239 -2251 0
-2239 -2252 0
-2239 -2253 0
-2239 -2254 0
-2239 -2255 0
-2239 -2256 0
-2239 -2257 0
-2239 -2258 0
-2239 -2259 0
-2239 -2260 0
-2239 -2261 0
-2239 -2262 0
-2239 -2263 0
-2239 -2264 0
-2239 -2265 0
-2239 -2266 0
-2239 -2267 0
-2239 -2268 0
-2239 -2269 0
-2239 -2270 0
-2239 -2271 0
-2239 -2272 0
-2239 -2273 0
-2239 -2274 0
-2239 -2275 0
-2239 -2276 0
-2239 -2277 0
-2239 -2278 0
-2239 -2279 0
-2239 -2280 0
-2239 -2281 0
-2239 -2282 0
-2239 -2283 0
-2239 -2284 0
-2239 -2285 0
-2239 -2286 0
-2239 -2287 0
-2239 -2288 0
-2239 -2289 0
-2239 -2290 0
-2239 -2291 0
-2239 -2292 0
-2239 -2293 0
-2239 -2294 0
-2239 -2295 0
-2239 -2296 0
-2239 -2297 0
-2239 -2298 0
-2239 -2299 0
-2239 -2300 0
-2239 -2301 0
-2239 -2302 0
-2239 -2303 0
-2240 -2241 0
-2240 -2242 0
-2240 -2243 0
-2240 -2244 0
-2240 -2245 0
-2240 -2246 0
-2240 -2247 0
-2240 -2248 0
-2240 -2249 0
-2240 -2250 0
-2240 -2251 0
-2240 -2252 0
-2240 -2253 0
-2240 -2254 0
-2240 -2255 0
-2240 -2256 0
-2240 -2257 0
-2240 -2258 0
-2240 -2259 0
-2240 -2260 0
-2240 -2261 0
-2240 -2262 0
-2240 -2263 0
-2240 -2264 0
-2240 -2265 0
-2240 -2266 0
-2240 -2267 0
-2240 -2268 0
-2240 -2269 0
-2240 -2270 0
-2240 -2271 0
-2240 -2272 0
-2240 -2273 0
-2240 -2274 0
-2240 -2275 0
-2240 -2276 0
-2240 -2277 0
-2240 -2278 0
-2240 -2279 0
-2240 -2280 0
-2240 -2281 0
-2240 -2282 0
-2240 -2283 0
-2240 -2284 0
-2240 -2285 0
-2240 -2286 0
-2240 -2287 0
-2240 -2288 0
-2240 -2289 0
-2240 -2290 0
-2240 -2291 0
-2240 -2292 0
-2240 -2293 0
-2240 -2294 0
-2240 -2295 0
-2240 -2296 0
-2240 -2297 0
-2240 -2298 0
-2240 -2299 0
-2240 -2300 0
-2240 -2301 0
-2240 -2302 0
-2240 -2303 0
-2241 -2242 0
-2241 -2243 0
-2241 -2244 0
-2241 -2245 0
-2241 -2246 0
-2241 -2247 0
-2241 -2248 0
-2241 -2249 0
-2241 -2250 0
-2241 -2251 0
-2241 -2252 0
-2241 -2253 0
-2241 -2254 0
-2241 -2255 0
-2241 -2256 0
-2241 -2257 0
-2241 -2258 0
-2241 -2259 0
-2241 -2260 0
-2241 -2261 0
-2241 -2262 0
-2241 -2263 0
-2241 -2264 0
-2241 -2265 0
-2241 -2266 0
-2241 -2267 0
-2241 -2268 0
-2241 -2269 0
-2241 -2270 0
-2241 -2271 0
-2241 -2272 0
-2241 -2273 0
-2241 -2274 0
-2241 -2275 0
-2241 -2276 0
-2241 -2277 0
-2241 -2278 0
-2241 -2279 0
-2241 -2280 0
-2241 -2281 0
-2241 -2282 0
-2241 -2283 0
-2241 -2284 0
-2241 -2285 0
-2241 -2286 0
-2241 -2287 0
-2241 -2288 0
-2241 -2289 0
-2241 -2290 0
-2241 -2291 0
-2241 -2292 0
-2241 -2293 0
-2241 -2294 0
-2241 -2295 0
-2241 -2296 0
-2241 -2297 0
-2241 -2298 0
-2241 -2299 0
-2241 -2300 0
-2241 -2301 0
-2241 -2302 0
-2241 -2303 0
-2242 -2243 0
-2242 -2244 0
-2242 -2245 0
-2242 -2246 0
-2242 -2247 0
-2242 -2248 0
-2242 -2249 0
-2242 -2250 0
-2242 -2251 0
-2242 -2252 0
-2242 -2253 0
-2242 -2254 0
-2242 -2255 0
-2242 -2256 0
-2242 -2257 0
-2242 -2258 0
-2242 -2259 0
-2242 -2260 0
-2242 -2261 0
-2242 -2262 0
-2242 -2263 0
-2242 -2264 0
-2242 -2265 0
-2242 -2266 0
-2242 -2267 0
-2242 -2268 0
-2242 -2269 0
-2242 -2270 0
-2242 -2271 0
-2242 -2272 0
-2242 -2273 0
-2242 -2274 0
-2242 -2275 0
-2242 -2276 0
-2242 -2277 0
-2242 -2278 0
-2242 -2279 0
-2242 -2280 0
-2242 -2281 0
-2242 -2282 0
-2242 -2283 0
-2242 -2284 0
-2242 -2285 0
-2242 -2286 0
-2242 -2287 0
-2242 -2288 0
-2242 -2289 0
-2242 -2290 0
-2242 -2291 0
-2242 -2292 0
-2242 -2293 0
-2242 -2294 0
-2242 -2295 0
-2242 -2296 0
-2242 -2297 0
-2242 -2298 0
-2242 -2299 0
-2242 -2300 0
-2242 -2301 0
-2242 -2302 0
-2242 -2303 0
-2243 -2244 0
-2243 -2245 0
-2243 -2246 0
-2243 -2247 0
-2243 -2248 0
-2243 -2249 0
-2243 -2250 0
-2243 -2251 0
-2243 -2252 0
-2243 -2253 0
-2243 -2254 0
-2243 -2255 0
-2243 -2256 0
-2243 -2257 0
-2243 -2258 0
-2243 -2259 0
-2243 -2260 0
-2243 -2261 0
-2243 -2262 0
-2243 -2263 0
-2243 -2264 0
-2243 -2265 0
-2243 -2266 0
-2243 -2267 0
-2243 -2268 0
-2243 -2269 0
-2243 -2270 0
-2243 -2271 0
-2243 -2272 0
-2243 -2273 0
-2243 -2274 0
-2243 -2275 0
-2243 -2276 0
-2243 -2277 0
-2243 -2278 0
-2243 -2279 0
-2243 -2280 0
-2243 -2281 0
-2243 -2282 0
-2243 -2283 0
-2243 -2284 0
-2243 -2285 0
-2243 -2286 0
-2243 -2287 0
-2243 -2288 0
-2243 -2289 0
-2243 -2290 0
-2243 -2291 0
-2243 -2292 0
-2243 -2293 0
-2243 -2294 0
-2243 -2295 0
-2243 -2296 0
-2243 -2297 0
-2243 -2298 0
-2243 -2299 0
-2243 -2300 0
-2243 -2301 0
-2243 -2302 0
-2243 -2303 0
-2244 -2245 0
-2244 -2246 0
-2244 -2247 0
-2244 -2248 0
-2244 -2249 0
-2244 -2250 0
-2244 -2251 0
-2244 -2252 0
-2244 -2253 0
-2244 -2254 0
-2244 -2255 0
-2244 -2256 0
-2244 -2257 0
-2244 -2258 0
-2244 -2259 0
-2244 -2260 0
-2244 -2261 0
-2244 -2262 0
-2244 -2263 0
-2244 -2264 0
-2244 -2265 0
-2244 -2266 0
-2244 -2267 0
-2244 -2268 0
-2244 -2269 0
-2244 -2270 0
-2244 -2271 0
-2244 -2272 0
-2244 -2273 0
-2244 -2274 0
-2244 -2275 0
-2244 -2276 0
-2244 -2277 0
-2244 -2278 0
-2244 -2279 0
-2244 -2280 0
-2244 -2281 0
-2244 -2282 0
-2244 -2283 0
-2244 -2284 0
-2244 -2285 0
-2244 -2286 0
-2244 -2287 0
-2244 -2288 0
-2244 -2289 0
-2244 -2290 0
-2244 -2291 0
-2244 -2292 0
-2244 -2293 0
-2244 -2294 0
-2244 -2295 0
-2244 -2296 0
-2244 -2297 0
-2244 -2298 0
-2244 -2299 0
-2244 -2300 0
-2244 -2301 0
-2244 -2302 0
-2244 -2303 0
-2245 -2246 0
-2245 -2247 0
-2245 -2248 0
-2245 -2249 0
-2245 -2250 0
-2245 -2251 0
-2245 -2252 0
-2245 -2253 0
-2245 -2254 0
-2245 -2255 0
-2245 -2256 0
-2245 -2257 0
-2245 -2258 0
-2245 -2259 0
-2245 -2260 0
-2245 -2261 0
-2245 -2262 0
-2245 -2263 0
-2245 -2264 0
-2245 -2265 0
-2245 -2266 0
-2245 -2267 0
-2245 -2268 0
-2245 -2269 0
-2245 -2270 0
-2245 -2271 0
-2245 -2272 0
-2245 -2273 0
-2245 -2274 0
-2245 -2275 0
-2245 -2276 0
-2245 -2277 0
-2245 -2278 0
-2245 -2279 0
-2245 -2280 0
-2245 -2281 0
-2245 -2282 0
-2245 -2283 0
-2245 -2284 0
-2245 -2285 0
-2245 -2286 0
-2245 -2287 0
-2245 -2288 0
-2245 -2289 0
-2245 -2290 0
-2245 -2291 0
-2245 -2292 0
-2245 -2293 0
-2245 -2294 0
-2245 -2295 0
-2245 -2296 0
-2245 -2297 0
-2245 -2298 0
-2245 -2299 0
-2245 -2300 0
-2245 -2301 0
-2245 -2302 0
-2245 -2303 0
-2246 -2247 0
-2246 -2248 0
-2246 -2249 0
-2246 -2250 0
-2246 -2251 0
-2246 -2252 0
-2246 -2253 0
-2246 -2254 0
-2246 -2255 0
-2246 -2256 0
-2246 -2257 0
-2246 -2258 0
-2246 -2259 0
-2246 -2260 0
-2246 -2261 0
-2246 -2262 0
-2246 -2263 0
-2246 -2264 0
-2246 -2265 0
-2246 -2266 0
-2246 -2267 0
-2246 -2268 0
-2246 -2269 0
-2246 -2270 0
-2246 -2271 0
-2246 -2272 0
-2246 -2273 0
-2246 -2274 0
-2246 -2275 0
-2246 -2276 0
-2246 -2277 0
-2246 -2278 0
-2246 -2279 0
-2246 -2280 0
-2246 -2281 0
-2246 -2282 0
-2246 -2283 0
-2246 -2284 0
-2246 -2285 0
-2246 -2286 0
-2246 -2287 0
-2246 -2288 0
-2246 -2289 0
-2246 -2290 0
-2246 -2291 0
-2246 -2292 0
-2246 -2293 0
-2246 -2294 0
-2246 -2295 0
-2246 -2296 0
-2246 -2297 0
-2246 -2298 0
-2246 -2299 0
-2246 -2300 0
-2246 -2301 0
-2246 -2302 0
-2246 -2303 0
-2247 -2248 0
-2247 -2249 0
-2247 -2250 0
-2247 -2251 0
-2247 -2252 0
-2247 -2253 0
-2247 -2254 0
-2247 -2255 0
-2247 -2256 0
-2247 -2257 0
-2247 -2258 0
-2247 -2259 0
-2247 -2260 0
-2247 -2261 0
-2247 -2262 0
-2247 -2263 0
-2247 -2264 0
-2247 -2265 0
-2247 -2266 0
-2247 -2267 0
-2247 -2268 0
-2247 -2269 0
-2247 -2270 0
-2247 -2271 0
-2247 -2272 0
-2247 -2273 0
-2247 -2274 0
-2247 -2275 0
-2247 -2276 0
-2247 -2277 0
-2247 -2278 0
-2247 -2279 0
-2247 -2280 0
-2247 -2281 0
-2247 -2282 0
-2247 -2283 0
-2247 -2284 0
-2247 -2285 0
-2247 -2286 0
-2247 -2287 0
-2247 -2288 0
-2247 -2289 0
-2247 -2290 0
-2247 -2291 0
-2247 -2292 0
-2247 -2293 0
-2247 -2294 0
-2247 -2295 0
-2247 -2296 0
-2247 -2297 0
-2247 -2298 0
-2247 -2299 0
-2247 -2300 0
-2247 -2301 0
-2247 -2302 0
-2247 -2303 0
-2248 -2249 0
-2248 -2250 0
-2248 -2251 0
-2248 -2252 0
-2248 -2253 0
-2248 -2254 0
-2248 -2255 0
-2248 -2256 0
-2248 -2257 0
-2248 -2258 0
-2248 -2259 0
-2248 -2260 0
-2248 -2261 0
-2248 -2262 0
-2248 -2263 0
-2248 -2264 0
-2248 -2265 0
-2248 -2266 0
-2248 -2267 0
-2248 -2268 0
-2248 -2269 0
-2248 -2270 0
-2248 -2271 0
-2248 -2272 0
-2248 -2273 0
-2248 -2274 0
-2248 -2275 0
-2248 -2276 0
-2248 -2277 0
-2248 -2278 0
-2248 -2279 0
-2248 -2280 0
-2248 -2281 0
-2248 -2282 0
-2248 -2283 0
-2248 -2284 0
-2248 -2285 0
-2248 -2286 0
-2248 -2287 0
-2248 -2288 0
-2248 -2289 0
-2248 -2290 0
-2248 -2291 0
-2248 -2292 0
-2248 -2293 0
-2248 -2294 0
-2248 -2295 0
-2248 -2296 0
-2248 -2297 0
-2248 -2298 0
-2248 -2299 0
-2248 -2300 0
-2248 -2301 0
-2248 -2302 0
-2248 -2303 0
-2249 -2250 0
-2249 -2251 0
-2249 -2252 0
-2249 -2253 0
-2249 -2254 0
-2249 -2255 0
-2249 -2256 0
-2249 -2257 0
-2249 -2258 0
-2249 -2259 0
-2249 -2260 0
-2249 -2261 0
-2249 -2262 0
-2249 -2263 0
-2249 -2264 0
-2249 -2265 0
-2249 -2266 0
-2249 -2267 0
-2249 -2268 0
-2249 -2269 0
-2249 -2270 0
-2249 -2271 0
-2249 -2272 0
-2249 -2273 0
-2249 -2274 0
-2249 -2275 0
-2249 -2276 0
-2249 -2277 0
-2249 -2278 0
-2249 -2279 0
-2249 -2280 0
-2249 -2281 0
-2249 -2282 0
-2249 -2283 0
-2249 -2284 0
-2249 -2285 0
-2249 -2286 0
-2249 -2287 0
-2249 -2288 0
-2249 -2289 0
-2249 -2290 0
-2249 -2291 0
-2249 -2292 0
-2249 -2293 0
-2249 -2294 0
-2249 -2295 0
-2249 -2296 0
-2249 -2297 0
-2249 -2298 0
-2249 -2299 0
-2249 -2300 0
-2249 -2301 0
-2249 -2302 0
-2249 -2303 0
-2250 -2251 0
-2250 -2252 0
-2250 -2253 0
-2250 -2254 0
-2250 -2255 0
-2250 -2256 0
-2250 -2257 0
-2250 -2258 0
-2250 -2259 0
-2250 -2260 0
-2250 -2261 0
-2250 -2262 0
-2250 -2263 0
-2250 -2264 0
-2250 -2265 0
-2250 -2266 0
-2250 -2267 0
-2250 -2268 0
-2250 -2269 0
-2250 -2270 0
-2250 -2271 0
-2250 -2272 0
-2250 -2273 0
-2250 -2274 0
-2250 -2275 0
-2250 -2276 0
-2250 -2277 0
-2250 -2278 0
-2250 -2279 0
-2250 -2280 0
-2250 -2281 0
-2250 -2282 0
-2250 -2283 0
-2250 -2284 0
-2250 -2285 0
-2250 -2286 0
-2250 -2287 0
-2250 -2288 0
-2250 -2289 0
-2250 -2290 0
-2250 -2291 0
-2250 -2292 0
-2250 -2293 0
-2250 -2294 0
-2250 -2295 0
-2250 -2296 0
-2250 -2297 0
-2250 -2298 0
-2250 -2299 0
-2250 -2300 0
-2250 -2301 0
-2250 -2302 0
-2250 -2303 0
-2251 -2252 0
-2251 -2253 0
-2251 -2254 0
-2251 -2255 0
-2251 -2256 0
-2251 -2257 0
-2251 -2258 0
-2251 -2259 0
-2251 -2260 0
-2251 -2261 0
-2251 -2262 0
-2251 -2263 0
-2251 -2264 0
-2251 -2265 0
-2251 -2266 0
-2251 -2267 0
-2251 -2268 0
-2251 -2269 0
-2251 -2270 0
-2251 -2271 0
-2251 -2272 0
-2251 -2273 0
-2251 -2274 0
-2251 -2275 0
-2251 -2276 0
-2251 -2277 0
-2251 -2278 0
-2251 -2279 0
-2251 -2280 0
-2251 -2281 0
-2251 -2282 0
-2251 -2283 0
-2251 -2284 0
-2251 -2285 0
-2251 -2286 0
-2251 -2287 0
-2251 -2288 0
-2251 -2289 0
-2251 -2290 0
-2251 -2291 0
-2251 -2292 0
-2251 -2293 0
-2251 -2294 0
-2251 -2295 0
-2251 -2296 0
-2251 -2297 0
-2251 -2298 0
-2251 -2299 0
-2251 -2300 0
-2251 -2301 0
-2251 -2302 0
-2251 -2303 0
-2252 -2253 0
-2252 -2254 0
-2252 -2255 0
-2252 -2256 0
-2252 -2257 0
-2252 -2258 0
-2252 -2259 0
-2252 -2260 0
-2252 -2261 0
-2252 -2262 0
-2252 -2263 0
-2252 -2264 0
-2252 -2265 0
-2252 -2266 0
-2252 -2267 0
-2252 -2268 0
-2252 -2269 0
-2252 -2270 0
-2252 -2271 0
-2252 -2272 0
-2252 -2273 0
-2252 -2274 0
-2252 -2275 0
-2252 -2276 0
-2252 -2277 0
-2252 -2278 0
-2252 -2279 0
-2252 -2280 0
-2252 -2281 0
-2252 -2282 0
-2252 -2283 0
-2252 -2284 0
-2252 -2285 0
-2252 -2286 0
-2252 -2287 0
-2252 -2288 0
-2252 -2289 0
-2252 -2290 0
-2252 -2291 0
-2252 -2292 0
-2252 -2293 0
-2252 -2294 0
-2252 -2295 0
-2252 -2296 0
-2252 -2297 0
-2252 -2298 0
-2252 -2299 0
-2252 -2300 0
-2252 -2301 0
-2252 -2302 0
-2252 -2303 0
-2253 -2254 0
-2253 -2255 0
-2253 -2256 0
-2253 -2257 0
-2253 -2258 0
-2253 -2259 0
-2253 -2260 0
-2253 -2261 0
-2253 -2262 0
-2253 -2263 0
-2253 -2264 0
-2253 -2265 0
-2253 -2266 0
-2253 -2267 0
-2253 -2268 0
-2253 -2269 0
-2253 -2270 0
-2253 -2271 0
-2253 -2272 0
-2253 -2273 0
-2253 -2274 0
-2253 -2275 0
-2253 -2276 0
-2253 -2277 0
-2253 -2278 0
-2253 -2279 0
-2253 -2280 0
-2253 -2281 0
-2253 -2282 0
-2253 -2283 0
-2253 -2284 0
-2253 -2285 0
-2253 -2286 0
-2253 -2287 0
-2253 -2288 0
-2253 -2289 0
-2253 -2290 0
-2253 -2291 0
-2253 -2292 0
-2253 -2293 0
-2253 -2294 0
-2253 -2295 0
-2253 -2296 0
-2253 -2297 0
-2253 -2298 0
-2253 -2299 0
-2253 -2300 0
-2253 -2301 0
-2253 -2302 0
-2253 -2303 0
-2254 -2255 0
-2254 -2256 0
-2254 -2257 0
-2254 -2258 0
-2254 -2259 0
-2254 -2260 0
-2254 -2261 0
-2254 -2262 0
-2254 -2263 0
-2254 -2264 0
-2254 -2265 0
-2254 -2266 0
-2254 -2267 0
-2254 -2268 0
-2254 -2269 0
-2254 -2270 0
-2254 -2271 0
-2254 -2272 0
-2254 -2273 0
-2254 -2274 0
-2254 -2275 0
-2254 -2276 0
-2254 -2277 0
-2254 -2278 0
-2254 -2279 0
-2254 -2280 0
-2254 -2281 0
-2254 -2282 0
-2254 -2283 0
-2254 -2284 0
-2254 -2285 0
-2254 -2286 0
-2254 -2287 0
-2254 -2288 0
-2254 -2289 0
-2254 -2290 0
-2254 -2291 0
-2254 -2292 0
-2254 -2293 0
-2254 -2294 0
-2254 -2295 0
-2254 -2296 0
-2254 -2297 0
-2254 -2298 0
-2254 -2299 0
-2254 -2300 0
-2254 -2301 0
-2254 -2302 0
-2254 -2303 0
-2255 -2256 0
-2255 -2257 0
-2255 -2258 0
-2255 -2259 0
-2255 -2260 0
-2255 -2261 0
-2255 -2262 0
-2255 -2263 0
-2255 -2264 0
-2255 -2265 0
-2255 -2266 0
-2255 -2267 0
-2255 -2268 0
-2255 -2269 0
-2255 -2270 0
-2255 -2271 0
-2255 -2272 0
-2255 -2273 0
-2255 -2274 0
-2255 -2275 0
-2255 -2276 0
-2255 -2277 0
-2255 -2278 0
-2255 -2279 0
-2255 -2280 0
-2255 -2281 0
-2255 -2282 0
-2255 -2283 0
-2255 -2284 0
-2255 -2285 0
-2255 -2286 0
-2255 -2287 0
-2255 -2288 0
-2255 -2289 0
-2255 -2290 0
-2255 -2291 0
-2255 -2292 0
-2255 -2293 0
-2255 -2294 0
-2255 -2295 0
-2255 -2296 0
-2255 -2297 0
-2255 -2298 0
-2255 -2299 0
-2255 -2300 0
-2255 -2301 0
-2255 -2302 0
-2255 -2303 0
-2256 -2257 0
-2256 -2258 0
-2256 -2259 0
-2256 -2260 0
-2256 -2261 0
-2256 -2262 0
-2256 -2263 0
-2256 -2264 0
-2256 -2265 0
-2256 -2266 0
-2256 -2267 0
-2256 -2268 0
-2256 -2269 0
-2256 -2270 0
-2256 -2271 0
-2256 -2272 0
-2256 -2273 0
-2256 -2274 0
-2256 -2275 0
-2256 -2276 0
-2256 -2277 0
-2256 -2278 0
-2256 -2279 0
-2256 -2280 0
-2256 -2281 0
-2256 -2282 0
-2256 -2283 0
-2256 -2284 0
-2256 -2285 0
-2256 -2286 0
-2256 -2287 0
-2256 -2288 0
-2256 -2289 0
-2256 -2290 0
-2256 -2291 0
-2256 -2292 0
-2256 -2293 0
-2256 -2294 0
-2256 -2295 0
-2256 -2296 0
-2256 -2297 0
-2256 -2298 0
-2256 -2299 0
-2256 -2300 0
-2256 -2301 0
-2256 -2302 0
-2256 -2303 0
-2257 -2258 0
-2257 -2259 0
-2257 -2260 0
-2257 -2261 0
-2257 -2262 0
-2257 -2263 0
-2257 -2264 0
-2257 -2265 0
-2257 -2266 0
-2257 -2267 0
-2257 -2268 0
-2257 -2269 0
-2257 -2270 0
-2257 -2271 0
-2257 -2272 0
-2257 -2273 0
-2257 -2274 0
-2257 -2275 0
-2257 -2276 0
-2257 -2277 0
-2257 -2278 0
-2257 -2279 0
-2257 -2280 0
-2257 -2281 0
-2257 -2282 0
-2257 -2283 0
-2257 -2284 0
-2257 -2285 0
-2257 -2286 0
-2257 -2287 0
-2257 -2288 0
-2257 -2289 0
-2257 -2290 0
-2257 -2291 0
-2257 -2292 0
-2257 -2293 0
-2257 -2294 0
-2257 -2295 0
-2257 -2296 0
-2257 -2297 0
-2257 -2298 0
-2257 -2299 0
-2257 -2300 0
-2257 -2301 0
-2257 -2302 0
-2257 -2303 0
-2258 -2259 0
-2258 -2260 0
-2258 -2261 0
-2258 -2262 0
-2258 -2263 0
-2258 -2264 0
-2258 -2265 0
-2258 -2266 0
-2258 -2267 0
-2258 -2268 0
-2258 -2269 0
-2258 -2270 0
-2258 -2271 0
-2258 -2272 0
-2258 -2273 0
-2258 -2274 0
-2258 -2275 0
-2258 -2276 0
-2258 -2277 0
-2258 -2278 0
-2258 -2279 0
-2258 -2280 0
-2258 -2281 0
-2258 -2282 0
-2258 -2283 0
-2258 -2284 0
-2258 -2285 0
-2258 -2286 0
-2258 -2287 0
-2258 -2288 0
-2258 -2289 0
-2258 -2290 0
-2258 -2291 0
-2258 -2292 0
-2258 -2293 0
-2258 -2294 0
-2258 -2295 0
-2258 -2296 0
-2258 -2297 0
-2258 -2298 0
-2258 -2299 0
-2258 -2300 0
-2258 -2301 0
-2258 -2302 0
-2258 -2303 0
-2259 -2260 0
-2259 -2261 0
-2259 -2262 0
-2259 -2263 0
-2259 -2264 0
-2259 -2265 0
-2259 -2266 0
-2259 -2267 0
-2259 -2268 0
-2259 -2269 0
-2259 -2270 0
-2259 -2271 0
-2259 -2272 0
-2259 -2273 0
-2259 -2274 0
-2259 -2275 0
-2259 -2276 0
-2259 -2277 0
-2259 -2278 0
-2259 -2279 0
-2259 -2280 0
-2259 -2281 0
-2259 -2282 0
-2259 -2283 0
-2259 -2284 0
-2259 -2285 0
-2259 -2286 0
-2259 -2287 0
-2259 -2288 0
-2259 -2289 0
-2259 -2290 0
-2259 -2291 0
-2259 -2292 0
-2259 -2293 0
-2259 -2294 0
-2259 -2295 0
-2259 -2296 0
-2259 -2297 0
-2259 -2298 0
-2259 -2299 0
-2259 -2300 0
-2259 -2301 0
-2259 -2302 0
-2259 -2303 0
-2260 -2261 0
-2260 -2262 0
-2260 -2263 0
-2260 -2264 0
-2260 -2265 0
-2260 -2266 0
-2260 -2267 0
-2260 -2268 0
-2260 -2269 0
-2260 -2270 0
-2260 -2271 0
-2260 -2272 0
-2260 -2273 0
-2260 -2274 0
-2260 -2275 0
-2260 -2276 0
-2260 -2277 0
-2260 -2278 0
-2260 -2279 0
-2260 -2280 0
-2260 -2281 0
-2260 -2282 0
-2260 -2283 0
-2260 -2284 0
-2260 -2285 0
-2260 -2286 0
-2260 -2287 0
-2260 -2288 0
-2260 -2289 0
-2260 -2290 0
-2260 -2291 0
-2260 -2292 0
-2260 -2293 0
-2260 -2294 0
-2260 -2295 0
-2260 -2296 0
-2260 -2297 0
-2260 -2298 0
-2260 -2299 0
-2260 -2300 0
-2260 -2301 0
-2260 -2302 0
-2260 -2303 0
-2261 -2262 0
-2261 -2263 0
-2261 -2264 0
-2261 -2265 0
-2261 -2266 0
-2261 -2267 0
-2261 -2268 0
-2261 -2269 0
-2261 -2270 0
-2261 -2271 0
-2261 -2272 0
-2261 -2273 0
-2261 -2274 0
-2261 -2275 0
-2261 -2276 0
-2261 -2277 0
-2261 -2278 0
-2261 -2279 0
-2261 -2280 0
-2261 -2281 0
-2261 -2282 0
-2261 -2283 0
-2261 -2284 0
-2261 -2285 0
-2261 -2286 0
-2261 -2287 0
-2261 -2288 0
-2261 -2289 0
-2261 -2290 0
-2261 -2291 0
-2261 -2292 0
-2261 -2293 0
-2261 -2294 0
-2261 -2295 0
-2261 -2296 0
-2261 -2297 0
-2261 -2298 0
-2261 -2299 0
-2261 -2300 0
-2261 -2301 0
-2261 -2302 0
-2261 -2303 0
-2262 -2263 0
-2262 -2264 0
-2262 -2265 0
-2262 -2266 0
-2262 -2267 0
-2262 -2268 0
-2262 -2269 0
-2262 -2270 0
-2262 -2271 0
-2262 -2272 0
-2262 -2273 0
-2262 -2274 0
-2262 -2275 0
-2262 -2276 0
-2262 -2277 0
-2262 -2278 0
-2262 -2279 0
-2262 -2280 0
-2262 -2281 0
-2262 -2282 0
-2262 -2283 0
-2262 -2284 0
-2262 -2285 0
-2262 -2286 0
-2262 -2287 0
-2262 -2288 0
-2262 -2289 0
-2262 -2290 0
-2262 -2291 0
-2262 -2292 0
-2262 -2293 0
-2262 -2294 0
-2262 -2295 0
-2262 -2296 0
-2262 -2297 0
-2262 -2298 0
-2262 -2299 0
-2262 -2300 0
-2262 -2301 0
-2262 -2302 0
-2262 -2303 0
-2263 -2264 0
-2263 -2265 0
-2263 -2266 0
-2263 -2267 0
-2263 -2268 0
-2263 -2269 0
-2263 -2270 0
-2263 -2271 0
-2263 -2272 0
-2263 -2273 0
-2263 -2274 0
-2263 -2275 0
-2263 -2276 0
-2263 -2277 0
-2263 -2278 0
-2263 -2279 0
-2263 -2280 0
-2263 -2281 0
-2263 -2282 0
-2263 -2283 0
-2263 -2284 0
-2263 -2285 0
-2263 -2286 0
-2263 -2287 0
-2263 -2288 0
-2263 -2289 0
-2263 -2290 0
-2263 -2291 0
-2263 -2292 0
-2263 -2293 0
-2263 -2294 0
-2263 -2295 0
-2263 -2296 0
-2263 -2297 0
-2263 -2298 0
-2263 -2299 0
-2263 -2300 0
-2263 -2301 0
-2263 -2302 0
-2263 -2303 0
-2264 -2265 0
-2264 -2266 0
-2264 -2267 0
-2264 -2268 0
-2264 -2269 0
-2264 -2270 0
-2264 -2271 0
-2264 -2272 0
-2264 -2273 0
-2264 -2274 0
-2264 -2275 0
-2264 -2276 0
-2264 -2277 0
-2264 -2278 0
-2264 -2279 0
-2264 -2280 0
-2264 -2281 0
-2264 -2282 0
-2264 -2283 0
-2264 -2284 0
-2264 -2285 0
-2264 -2286 0
-2264 -2287 0
-2264 -2288 0
-2264 -2289 0
-2264 -2290 0
-2264 -2291 0
-2264 -2292 0
-2264 -2293 0
-2264 -2294 0
-2264 -2295 0
-2264 -2296 0
-2264 -2297 0
-2264 -2298 0
-2264 -2299 0
-2264 -2300 0
-2264 -2301 0
-2264 -2302 0
-2264 -2303 0
-2265 -2266 0
-2265 -2267 0
-2265 -2268 0
-2265 -2269 0
-2265 -2270 0
-2265 -2271 0
-2265 -2272 0
-2265 -2273 0
-2265 -2274 0
-2265 -2275 0
-2265 -2276 0
-2265 -2277 0
-2265 -2278 0
-2265 -2279 0
-2265 -2280 0
-2265 -2281 0
-2265 -2282 0
-2265 -2283 0
-2265 -2284 0
-2265 -2285 0
-2265 -2286 0
-2265 -2287 0
-2265 -2288 0
-2265 -2289 0
-2265 -2290 0
-2265 -2291 0
-2265 -2292 0
-2265 -2293 0
-2265 -2294 0
-2265 -2295 0
-2265 -2296 0
-2265 -2297 0
-2265 -2298 0
-2265 -2299 0
-2265 -2300 0
-2265 -2301 0
-2265 -2302 0
-2265 -2303 0
-2266 -2267 0
-2266 -2268 0
-2266 -2269 0
-2266 -2270 0
-2266 -2271 0
-2266 -2272 0
-2266 -2273 0
-2266 -2274 0
-2266 -2275 0
-2266 -2276 0
-2266 -2277 0
-2266 -2278 0
-2266 -2279 0
-2266 -2280 0
-2266 -2281 0
-2266 -2282 0
-2266 -2283 0
-2266 -2284 0
-2266 -2285 0
-2266 -2286 0
-2266 -2287 0
-2266 -2288 0
-2266 -2289 0
-2266 -2290 0
-2266 -2291 0
-2266 -2292 0
-2266 -2293 0
-2266 -2294 0
-2266 -2295 0
-2266 -2296 0
-2266 -2297 0
-2266 -2298 0
-2266 -2299 0
-2266 -2300 0
-2266 -2301 0
-2266 -2302 0
-2266 -2303 0
-2267 -2268 0
-2267 -2269 0
-2267 -2270 0
-2267 -2271 0
-2267 -2272 0
-2267 -2273 0
-2267 -2274 0
-2267 -2275 0
-2267 -2276 0
-2267 -2277 0
-2267 -2278 0
-2267 -2279 0
-2267 -2280 0
-2267 -2281 0
-2267 -2282 0
-2267 -2283 0
-2267 -2284 0
-2267 -2285 0
-2267 -2286 0
-2267 -2287 0
-2267 -2288 0
-2267 -2289 0
-2267 -2290 0
-2267 -2291 0
-2267 -2292 0
-2267 -2293 0
-2267 -2294 0
-2267 -2295 0
-2267 -2296 0
-2267 -2297 0
-2267 -2298 0
-2267 -2299 0
-2267 -2300 0
-2267 -2301 0
-2267 -2302 0
-2267 -2303 0
-2268 -2269 0
-2268 -2270 0
-2268 -2271 0
-2268 -2272 0
-2268 -2273 0
-2268 -2274 0
-2268 -2275 0
-2268 -2276 0
-2268 -2277 0
-2268 -2278 0
-2268 -2279 0
-2268 -2280 0
-2268 -2281 0
-2268 -2282 0
-2268 -2283 0
-2268 -2284 0
-2268 -2285 0
-2268 -2286 0
-2268 -2287 0
-2268 -2288 0
-2268 -2289 0
-2268 -2290 0
-2268 -2291 0
-2268 -2292 0
-2268 -2293 0
-2268 -2294 0
-2268 -2295 0
-2268 -2296 0
-2268 -2297 0
-2268 -2298 0
-2268 -2299 0
-2268 -2300 0
-2268 -2301 0
-2268 -2302 0
-2268 -2303 0
-2269 -2270 0
-2269 -2271 0
-2269 -2272 0
-2269 -2273 0
-2269 -2274 0
-2269 -2275 0
-2269 -2276 0
-2269 -2277 0
-2269 -2278 0
-2269 -2279 0
-2269 -2280 0
-2269 -2281 0
-2269 -2282 0
-2269 -2283 0
-2269 -2284 0
-2269 -2285 0
-2269 -2286 0
-2269 -2287 0
-2269 -2288 0
-2269 -2289 0
-2269 -2290 0
-2269 -2291 0
-2269 -2292 0
-2269 -2293 0
-2269 -2294 0
-2269 -2295 0
-2269 -2296 0
-2269 -2297 0
-2269 -2298 0
-2269 -2299 0
-2269 -2300 0
-2269 -2301 0
-2269 -2302 0
-2269 -2303 0
-2270 -2271 0
-2270 -2272 0
-2270 -2273 0
-2270 -2274 0
-2270 -2275 0
-2270 -2276 0
-2270 -2277 0
-2270 -2278 0
-2270 -2279 0
-2270 -2280 0
-2270 -2281 0
-2270 -2282 0
-2270 -2283 0
-2270 -2284 0
-2270 -2285 0
-2270 -2286 0
-2270 -2287 0
-2270 -2288 0
-2270 -2289 0
-2270 -2290 0
-2270 -2291 0
-2270 -2292 0
-2270 -2293 0
-2270 -2294 0
-2270 -2295 0
-2270 -2296 0
-2270 -2297 0
-2270 -2298 0
-2270 -2299 0
-2270 -2300 0
-2270 -2301 0
-2270 -2302 0
-2270 -2303 0
-2271 -2272 0
-2271 -2273 0
-2271 -2274 0
-2271 -2275 0
-2271 -2276 0
-2271 -2277 0
-2271 -2278 0
-2271 -2279 0
-2271 -2280 0
-2271 -2281 0
-2271 -2282 0
-2271 -2283 0
-2271 -2284 0
-2271 -2285 0
-2271 -2286 0
-2271 -2287 0
-2271 -2288 0
-2271 -2289 0
-2271 -2290 0
-2271 -2291 0
-2271 -2292 0
-2271 -2293 0
-2271 -2294 0
-2271 -2295 0
-2271 -2296 0
-2271 -2297 0
-2271 -2298 0
-2271 -2299 0
-2271 -2300 0
-2271 -2301 0
-2271 -2302 0
-2271 -2303 0
-2272 -2273 0
-2272 -2274 0
-2272 -2275 0
-2272 -2276 0
-2272 -2277 0
-2272 -2278 0
-2272 -2279 0
-2272 -2280 0
-2272 -2281 0
-2272 -2282 0
-2272 -2283 0
-2272 -2284 0
-2272 -2285 0
-2272 -2286 0
-2272 -2287 0
-2272 -2288 0
-2272 -2289 0
-2272 -2290 0
-2272 -2291 0
-2272 -2292 0
-2272 -2293 0
-2272 -2294 0
-2272 -2295 0
-2272 -2296 0
-2272 -2297 0
-2272 -2298 0
-2272 -2299 0
-2272 -2300 0
-2272 -2301 0
-2272 -2302 0
-2272 -2303 0
-2273 -2274 0
-2273 -2275 0
-2273 -2276 0
-2273 -2277 0
-2273 -2278 0
-2273 -2279 0
-2273 -2280 0
-2273 -2281 0
-2273 -2282 0
-2273 -2283 0
-2273 -2284 0
-2273 -2285 0
-2273 -2286 0
-2273 -2287 0
-2273 -2288 0
-2273 -2289 0
-2273 -2290 0
-2273 -2291 0
-2273 -2292 0
-2273 -2293 0
-2273 -2294 0
-2273 -2295 0
-2273 -2296 0
-2273 -2297 0
-2273 -2298 0
-2273 -2299 0
-2273 -2300 0
-2273 -2301 0
-2273 -2302 0
-2273 -2303 0
-2274 -2275 0
-2274 -2276 0
-2274 -2277 0
-2274 -2278 0
-2274 -2279 0
-2274 -2280 0
-2274 -2281 0
-2274 -2282 0
-2274 -2283 0
-2274 -2284 0
-2274 -2285 0
-2274 -2286 0
-2274 -2287 0
-2274 -2288 0
-2274 -2289 0
-2274 -2290 0
-2274 -2291 0
-2274 -2292 0
-2274 -2293 0
-2274 -2294 0
-2274 -2295 0
-2274 -2296 0
-2274 -2297 0
-2274 -2298 0
-2274 -2299 0
-2274 -2300 0
-2274 -2301 0
-2274 -2302 0
-2274 -2303 0
-2275 -2276 0
-2275 -2277 0
-2275 -2278 0
-2275 -2279 0
-2275 -2280 0
-2275 -2281 0
-2275 -2282 0
-2275 -2283 0
-2275 -2284 0
-2275 -2285 0
-2275 -2286 0
-2275 -2287 0
-2275 -2288 0
-2275 -2289 0
-2275 -2290 0
-2275 -2291 0
-2275 -2292 0
-2275 -2293 0
-2275 -2294 0
-2275 -2295 0
-2275 -2296 0
-2275 -2297 0
-2275 -2298 0
-2275 -2299 0
-2275 -2300 0
-2275 -2301 0
-2275 -2302 0
-2275 -2303 0
-2276 -2277 0
-2276 -2278 0
-2276 -2279 0
-2276 -2280 0
-2276 -2281 0
-2276 -2282 0
-2276 -2283 0
-2276 -2284 0
-2276 -2285 0
-2276 -2286 0
-2276 -2287 0
-2276 -2288 0
-2276 -2289 0
-2276 -2290 0
-2276 -2291 0
-2276 -2292 0
-2276 -2293 0
-2276 -2294 0
-2276 -2295 0
-2276 -2296 0
-2276 -2297 0
-2276 -2298 0
-2276 -2299 0
-2276 -2300 0
-2276 -2301 0
-2276 -2302 0
-2276 -2303 0
-2277 -2278 0
-2277 -2279 0
-2277 -2280 0
-2277 -2281 0
-2277 -2282 0
-2277 -2283 0
-2277 -2284 0
-2277 -2285 0
-2277 -2286 0
-2277 -2287 0
-2277 -2288 0
-2277 -2289 0
-2277 -2290 0
-2277 -2291 0
-2277 -2292 0
-2277 -2293 0
-2277 -2294 0
-2277 -2295 0
-2277 -2296 0
-2277 -2297 0
-2277 -2298 0
-2277 -2299 0
-2277 -2300 0
-2277 -2301 0
-2277 -2302 0
-2277 -2303 0
-2278 -2279 0
-2278 -2280 0
-2278 -2281 0
-2278 -2282 0
-2278 -2283 0
-2278 -2284 0
-2278 -2285 0
-2278 -2286 0
-2278 -2287 0
-2278 -2288 0
-2278 -2289 0
-2278 -2290 0
-2278 -2291 0
-2278 -2292 0
-2278 -2293 0
-2278 -2294 0
-2278 -2295 0
-2278 -2296 0
-2278 -2297 0
-2278 -2298 0
-2278 -2299 0
-2278 -2300 0
-2278 -2301 0
-2278 -2302 0
-2278 -2303 0
-2279 -2280 0
-2279 -2281 0
-2279 -2282 0
-2279 -2283 0
-2279 -2284 0
-2279 -2285 0
-2279 -2286 0
-2279 -2287 0
-2279 -2288 0
-2279 -2289 0
-2279 -2290 0
-2279 -2291 0
-2279 -2292 0
-2279 -2293 0
-2279 -2294 0
-2279 -2295 0
-2279 -2296 0
-2279 -2297 0
-2279 -2298 0
-2279 -2299 0
-2279 -2300 0
-2279 -2301 0
-2279 -2302 0
-2279 -2303 0
-2280 -2281 0
-2280 -2282 0
-2280 -2283 0
-2280 -2284 0
-2280 -2285 0
-2280 -2286 0
-2280 -2287 0
-2280 -2288 0
-2280 -2289 0
-2280 -2290 0
-2280 -2291 0
-2280 -2292 0
-2280 -2293 0
-2280 -2294 0
-2280 -2295 0
-2280 -2296 0
-2280 -2297 0
-2280 -2298 0
-2280 -2299 0
-2280 -2300 0
-2280 -2301 0
-2280 -2302 0
-2280 -2303 0
-2281 -2282 0
-2281 -2283 0
-2281 -2284 0
-2281 -2285 0
-2281 -2286 0
-2281 -2287 0
-2281 -2288 0
-2281 -2289 0
-2281 -2290 0
-2281 -2291 0
-2281 -2292 0
-2281 -2293 0
-2281 -2294 0
-2281 -2295 0
-2281 -2296 0
-2281 -2297 0
-2281 -2298 0
-2281 -2299 0
-2281 -2300 0
-2281 -2301 0
-2281 -2302 0
-2281 -2303 0
-2282 -2283 0
-2282 -2284 0
-2282 -2285 0
-2282 -2286 0
-2282 -2287 0
-2282 -2288 0
-2282 -2289 0
-2282 -2290 0
-2282 -2291 0
-2282 -2292 0
-2282 -2293 0
-2282 -2294 0
-2282 -2295 0
-2282 -2296 0
-2282 -2297 0
-2282 -2298 0
-2282 -2299 0
-2282 -2300 0
-2282 -2301 0
-2282 -2302 0
-2282 -2303 0
-2283 -2284 0
-2283 -2285 0
-2283 -2286 0
-2283 -2287 0
-2283 -2288 0
-2283 -2289 0
-2283 -2290 0
-2283 -2291 0
-2283 -2292 0
-2283 -2293 0
-2283 -2294 0
-2283 -2295 0
-2283 -2296 0
-2283 -2297 0
-2283 -2298 0
-2283 -2299 0
-2283 -2300 0
-2283 -2301 0
-2283 -2302 0
-2283 -2303 0
-2284 -2285 0
-2284 -2286 0
-2284 -2287 0
-2284 -2288 0
-2284 -2289 0
-2284 -2290 0
-2284 -2291 0
-2284 -2292 0
-2284 -2293 0
-2284 -2294 0
-2284 -2295 0
-2284 -2296 0
-2284 -2297 0
-2284 -2298 0
-2284 -2299 0
-2284 -2300 0
-2284 -2301 0
-2284 -2302 0
-2284 -2303 0
-2285 -2286 0
-2285 -2287 0
-2285 -2288 0
-2285 -2289 0
-2285 -2290 0
-2285 -2291 0
-2285 -2292 0
-2285 -2293 0
-2285 -2294 0
-2285 -2295 0
-2285 -2296 0
-2285 -2297 0
-2285 -2298 0
-2285 -2299 0
-2285 -2300 0
-2285 -2301 0
-2285 -2302 0
-2285 -2303 0
-2286 -2287 0
-2286 -2288 0
-2286 -2289 0
-2286 -2290 0
-2286 -2291 0
-2286 -2292 0
-2286 -2293 0
-2286 -2294 0
-2286 -2295 0
-2286 -2296 0
-2286 -2297 0
-2286 -2298 0
-2286 -2299 0
-2286 -2300 0
-2286 -2301 0
-2286 -2302 0
-2286 -2303 0
-2287 -2288 0
-2287 -2289 0
-2287 -2290 0
-2287 -2291 0
-2287 -2292 0
-2287 -2293 0
-2287 -2294 0
-2287 -2295 0
-2287 -2296 0
-2287 -2297 0
-2287 -2298 0
-2287 -2299 0
-2287 -2300 0
-2287 -2301 0
-2287 -2302 0
-2287 -2303 0
-2288 -2289 0
-2288 -2290 0
-2288 -2291 0
-2288 -2292 0
-2288 -2293 0
-2288 -2294 0
-2288 -2295 0
-2288 -2296 0
-2288 -2297 0
-2288 -2298 0
-2288 -2299 0
-2288 -2300 0
-2288 -2301 0
-2288 -2302 0
-2288 -2303 0
-2289 -2290 0
-2289 -2291 0
-2289 -2292 0
-2289 -2293 0
-2289 -2294 0
-2289 -2295 0
-2289 -2296 0
-2289 -2297 0
-2289 -2298 0
-2289 -2299 0
-2289 -2300 0
-2289 -2301 0
-2289 -2302 0
-2289 -2303 0
-2290 -2291 0
-2290 -2292 0
-2290 -2293 0
-2290 -2294 0
-2290 -2295 0
-2290 -2296 0
-2290 -2297 0
-2290 -2298 0
-2290 -2299 0
-2290 -2300 0
-2290 -2301 0
-2290 -2302 0
-2290 -2303 0
-2291 -2292 0
-2291 -2293 0
-2291 -2294 0
-2291 -2295 0
-2291 -2296 0
-2291 -2297 0
-2291 -2298 0
-2291 -2299 0
-2291 -2300 0
-2291 -2301 0
-2291 -2302 0
-2291 -2303 0
-2292 -2293 0
-2292 -2294 0
-2292 -2295 0
-2292 -2296 0
-2292 -2297 0
-2292 -2298 0
-2292 -2299 0
-2292 -2300 0
-2292 -2301 0
-2292 -2302 0
-2292 -2303 0
-2293 -2294 0
-2293 -2295 0
-2293 -2296 0
-2293 -2297 0
-2293 -2298 0
-2293 -2299 0
-2293 -2300 0
-2293 -2301 0
-2293 -2302 0
-2293 -2303 0
-2294 -2295 0
-2294 -2296 0
-2294 -2297 0
-2294 -2298 0
-2294 -2299 0
-2294 -2300 0
-2294 -2301 0
-2294 -2302 0
-2294 -2303 0
-2295 -2296 0
-2295 -2297 0
-2295 -2298 0
-2295 -2299 0
-2295 -2300 0
-2295 -2301 0
-2295 -2302 0
-2295 -2303 0
-2296 -2297 0
-2296 -2298 0
-2296 -2299 0
-2296 -2300 0
-2296 -2301 0
-2296 -2302 0
-2296 -2303 0
-2297 -2298 0
-2297 -2299 0
-2297 -2300 0
-2297 -2301 0
-2297 -2302 0
-2297 -2303 0
-2298 -2299 0
-2298 -2300 0
-2298 -2301 0
-2298 -2302 0
-2298 -2303 0
-2299 -2300 0
-2299 -2301 0
-2299 -2302 0
-2299 -2303 0
-2300 -2301 0
-2300 -2302 0
-2300 -2303 0
-2301 -2302 0
-2301 -2303 0
-2302 -2303 0
-2220 1296 0
-2220 1543 0
-2220 -1346 0
-2220 -1347 0
-2220 -1348 0
-2220 -1349 0
-2220 -1350 0
-2220 -1351 1550 0
-2220 -1351 -1286 -1293 0
-2220 -1351 -1358 0
-2220 -1351 -1416 0
-2220 -1351 -1473 0
-2220 -1352 1551 0
-2220 -1352 -1286 -1294 0
-2220 -1352 -1360 0
-2220 -1352 -1418 0
-2220 -1352 -1475 0
-2220 -1353 1552 0
-2220 -1353 -1286 -1295 0
-2220 -1353 -1362 0
-2220 -1353 -1420 0
-2220 -1353 -1477 0
-2220 -1354 0
-2221 1296 0
-2221 1544 0
-2221 -1345 0
-2221 -1347 0
-2221 -1348 0
-2221 -1349 0
-2221 -1350 0
-2221 -1351 1550 0
-2221 -1351 -1287 -1293 0
-2221 -1351 -1366 0
-2221 -1351 -1424 0
-2221 -1351 -1481 0
-2221 -1352 1551 0
-2221 -1352 -1287 -1294 0
-2221 -1352 -1368 0
-2221 -1352 -1426 0
-2221 -1352 -1483 0
-2221 -1353 1552 0
-2221 -1353 -1287 -1295 0
-2221 -1353 -1370 0
-2221 -1353 -1428 0
-2221 -1353 -1485 0
-2221 -1354 0
-2222 1296 0
-2222 1545 0
-2222 -1345 0
-2222 -1346 0
-2222 -1348 0
-2222 -1349 0
-2222 -1350 0
-2222 -1351 1550 0
-2222 -1351 -1288 -1293 0
-2222 -1351 -1374 0
-2222 -1351 -1432 0
-2222 -1351 -1489 0
-2222 -1352 1551 0
-2222 -1352 -1288 -1294 0
-2222 -1352 -1376 0
-2222 -1352 -1434 0
-2222 -1352 -1491 0
-2222 -1353 1552 0
-2222 -1353 -1288 -1295 0
-2222 -1353 -1378 0
-2222 -1353 -1436 0
-2222 -1353 -1493 0
-2222 -1354 0
-2223 1296 0
-2223 1546 0
-2223 -1345 0
-2223 -1346 0
-2223 -1347 0
-2223 -1349 0
-2223 -1350 0
-2223 -1351 1550 0
-2223 -1351 -1289 -1293 0
-2223 -1351 -1382 0
-2223 -1351 -1440 0
-2223 -1351 -1497 0
-2223 -1352 1551 0
-2223 -1352 -1289 -1294 0
-2223 -1352 -1384 0
-2223 -1352 -1442 0
-2223 -1352 -1499 0
-2223 -1353 1552 0
-2223 -1353 -1289 -1295 0
-2223 -1353 -1386 0
-2223 -1353 -1444 0
-2223 -1353 -1501 0
-2223 -1354 0
-2224 1296 0
-2224 1547 0
-2224 -1345 0
-2224 -1346 0
-2224 -1347 0
-2224 -1348 0
-2224 -1350 0
-2224 -1351 1550 0
-2224 -1351 -1290 -1293 0
-2224 -1351 -1390 0
-2224 -1351 -1448 0
-2224 -1351 -1505 0
-2224 -1352 1551 0
-2224 -1352 -1290 -1294 0
-2224 -1352 -1392 0
-2224 -1352 -1450 0
-2224 -1352 -1507 0
-2224 -1353 1552 0
-2224 -1353 -1290 -1295 0
-2224 -1353 -1394 0
-2224 -1353 -1452 0
-2224 -1353 -1509 0
-2224 -1354 0
-2225 1296 0
-2225 1548 0
-2225 -1345 0
-2225 -1346 0
-2225 -1347 0
-2225 -1348 0
-2225 -1349 0
-2225 -1351 1550 0
-2225 -1351 -1291 -1293 0
-2225 -1351 -1398 0
-2225 -1351 -1456 0
-2225 -1351 -1513 0
-2225 -1352 1551 0
-2225 -1352 -1291 -1294 0
-2225 -1352 -1400 0
-2225 -1352 -1458 0
-2225 -1352 -1515 0
-2225 -1353 1552 0
-2225 -1353 -1291 -1295 0
-2225 -1353 -1402 0
-2225 -1353 -1460 0
-2225 -1353 -1517 0
-2225 -1354 0
-2226 1296 0
-2226 1543 0
-2226 -1405 0
-2226 -1406 0
-2226 -1407 0
-2226 -1408 0
-2226 -1409 1550 0
-2226 -1409 -1286 -1293 0
-2226 -1409 -1358 0
-2226 -1409 -1416 0
-2226 -1409 -1473 0
-2226 -1410 1551 0
-2226 -1410 -1286 -1294 0
-2226 -1410 -1360 0
-2226 -1410 -1418 0
-2226 -1410 -1475 0
-2226 -1411 1552 0
-2226 -1411 -1286 -1295 0
-2226 -1411 -1362 0
-2226 -1411 -1420 0
-2226 -1411 -1477 0
-2226 -1412 0
-2227 1296 0
-2227 1544 0
-2227 -1406 0
-2227 -1407 0
-2227 -1408 0
-2227 -1409 1550 0
-2227 -1409 -1287 -1293 0
-2227 -1409 -1366 0
-2227 -1409 -1424 0
-2227 -1409 -1481 0
-2227 -1410 1551 0
-2227 -1410 -1287 -1294 0
-2227 -1410 -1368 0
-2227 -1410 -1426 0
-2227 -1410 -1483 0
-2227 -1411 1552 0
-2227 -1411 -1287 -1295 0
-2227 -1411 -1370 0
-2227 -1411 -1428 0
-2227 -1411 -1485 0
-2227 -1412 0
-2228 1296 0
-2228 1545 0
-2228 -1404 0
-2228 -1407 0
-2228 -1408 0
-2228 -1409 1550 0
-2228 -1409 -1288 -1293 0
-2228 -1409 -1374 0
-2228 -1409 -1432 0
-2228 -1409 -1489 0
-2228 -1410 1551 0
-2228 -1410 -1288 -1294 0
-2228 -1410 -1376 0
-2228 -1410 -1434 0
-2228 -1410 -1491 0
-2228 -1411 1552 0
-2228 -1411 -1288 -1295 0
-2228 -1411 -1378 0
-2228 -1411 -1436 0
-2228 -1411 -1493 0
-2228 -1412 0
-2229 1296 0
-2229 1546 0
-2229 -1404 0
-2229 -1405 0
-2229 -1408 0
-2229 -1409 1550 0
-2229 -1409 -1289 -1293 0
-2229 -1409 -1382 0
-2229 -1409 -1440 0
-2229 -1409 -1497 0
-2229 -1410 1551 0
-2229 -1410 -1289 -1294 0
-2229 -1410 -1384 0
-2229 -1410 -1442 0
-2229 -1410 -1499 0
-2229 -1411 1552 0
-2229 -1411 -1289 -1295 0
-2229 -1411 -1386 0
-2229 -1411 -1444 0
-2229 -1411 -1501 0
-2229 -1412 0
-2230 1296 0
-2230 1547 0
-2230 -1404 0
-2230 -1405 0
-2230 -1406 0
-2230 -1409 1550 0
-2230 -1409 -1290 -1293 0
-2230 -1409 -1390 0
-2230 -1409 -1448 0
-2230 -1409 -1505 0
-2230 -1410 1551 0
-2230 -1410 -1290 -1294 0
-2230 -1410 -1392 0
-2230 -1410 -1450 0
-2230 -1410 -1507 0
-2230 -1411 1552 0
-2230 -1411 -1290 -1295 0
-2230 -1411 -1394 0
-2230 -1411 -1452 0
-2230 -1411 -1509 0
-2230 -1412 0
-2231 1296 0
-2231 1548 0
-2231 -1404 0
-2231 -1405 0
-2231 -1406 0
-2231 -1407 0
-2231 -1409 1550 0
-2231 -1409 -1291 -1293 0
-2231 -1409 -1398 0
-2231 -1409 -1456 0
-2231 -1409 -1513 0
-2231 -1410 1551 0
-2231 -1410 -1291 -1294 0
-2231 -1410 -1400 0
-2231 -1410 -1458 0
-2231 -1410 -1515 0
-2231 -1411 1552 0
-2231 -1411 -1291 -1295 0
-2231 -1411 -1402 0
-2231 -1411 -1460 0
-2231 -1411 -1517 0
-2231 -1412 0
-2232 1296 0
-2232 1543 0
-2232 -1463 0
-2232 -1464 0
-2232 -1465 0
-2232 -1466 1550 0
-2232 -1466 -1286 -1293 0
-2232 -1466 -1358 0
-2232 -1466 -1416 0
-2232 -1466 -1473 0
-2232 -1467 1551 0
-2232 -1467 -1286 -1294 0
-2232 -1467 -1360 0
-2232 -1467 -1418 0
-2232 -1467 -1475 0
-2232 -1468 1552 0
-2232 -1468 -1286 -1295 0
-2232 -1468 -1362 0
-2232 -1468 -1420 0
-2232 -1468 -1477 0
-2232 -1469 0
-2233 1296 0
-2233 1544 0
-2233 -1464 0
-2233 -1465 0
-2233 -1466 1550 0
-2233 -1466 -1287 -1293 0
-2233 -1466 -1366 0
-2233 -1466 -1424 0
-2233 -1466 -1481 0
-2233 -1467 1551 0
-2233 -1467 -1287 -1294 0
-2233 -1467 -1368 0
-2233 -1467 -1426 0
-2233 -1467 -1483 0
-2233 -1468 1552 0
-2233 -1468 -1287 -1295 0
-2233 -1468 -1370 0
-2233 -1468 -1428 0
-2233 -1468 -1485 0
-2233 -1469 0
-2234 1296 0
-2234 1545 0
-2234 -1465 0
-2234 -1466 1550 0
-2234 -1466 -1288 -1293 0
-2234 -1466 -1374 0
-2234 -1466 -1432 0
-2234 -1466 -1489 0
-2234 -1467 1551 0
-2234 -1467 -1288 -1294 0
-2234 -1467 -1376 0
-2234 -1467 -1434 0
-2234 -1467 -1491 0
-2234 -1468 1552 0
-2234 -1468 -1288 -1295 0
-2234 -1468 -1378 0
-2234 -1468 -1436 0
-2234 -1468 -1493 0
-2234 -1469 0
-2235 1296 0
-2235 1546 0
-2235 -1462 0
-2235 -1466 1550 0
-2235 -1466 -1289 -1293 0
-2235 -1466 -1382 0
-2235 -1466 -1440 0
-2235 -1466 -1497 0
-2235 -1467 1551 0
-2235 -1467 -1289 -1294 0
-2235 -1467 -1384 0
-2235 -1467 -1442 0
-2235 -1467 -1499 0
-2235 -1468 1552 0
-2235 -1468 -1289 -1295 0
-2235 -1468 -1386 0
-2235 -1468 -1444 0
-2235 -1468 -1501 0
-2235 -1469 0
-2236 1296 0
-2236 1547 0
-2236 -1462 0
-2236 -1463 0
-2236 -1466 1550 0
-2236 -1466 -1290 -1293 0
-2236 -1466 -1390 0
-2236 -1466 -1448 0
-2236 -1466 -1505 0
-2236 -1467 1551 0
-2236 -1467 -1290 -1294 0
-2236 -1467 -1392 0
-2236 -1467 -1450 0
-2236 -1467 -1507 0
-2236 -1468 1552 0
-2236 -1468 -1290 -1295 0
-2236 -1468 -1394 0
-2236 -1468 -1452 0
-2236 -1468 -1509 0
-2236 -1469 0
-2237 1296 0
-2237 1548 0
-2237 -1462 0
-2237 -1463 0
-2237 -1464 0
-2237 -1466 1550 0
-2237 -1466 -1291 -1293 0
-2237 -1466 -1398 0
-2237 -1466 -1456 0
-2237 -1466 -1513 0
-2237 -1467 1551 0
-2237 -1467 -1291 -1294 0
-2237 -1467 -1400 0
-2237 -1467 -1458 0
-2237 -1467 -1515 0
-2237 -1468 1552 0
-2237 -1468 -1291 -1295 0
-2237 -1468 -1402 0
-2237 -1468 -1460 0
-2237 -1468 -1517 0
-2237 -1469 0
-2238 1296 0
-2238 1543 0
-2238 1549 0
-2238 -1286 -1292 0
-2238 -1356 0
-2238 -1414 0
-2238 -1471 0
-2239 1296 0
-2239 1544 0
-2239 1549 0
-2239 -1287 -1292 0
-2239 -1364 0
-2239 -1422 0
-2239 -1479 0
-2240 1296 0
-2240 1545 0
-2240 1549 0
-2240 -1288 -1292 0
-2240 -1372 0
-2240 -1430 0
-2240 -1487 0
-2241 1296 0
-2241 1546 0
-2241 1549 0
-2241 -1289 -1292 0
-2241 -1380 0
-2241 -1438 0
-2241 -1495 0
-2242 1296 0
-2242 1547 0
-2242 1549 0
-2242 -1290 -1292 0
-2242 -1388 0
-2242 -1446 0
-2242 -1503 0
-2243 1296 0
-2243 1548 0
-2243 1549 0
-2243 -1291 -1292 0
-2243 -1396 0
-2243 -1454 0
-2243 -1511 0
-2244 1355 0
-2244 1602 0
-2244 -1287 0
-2244 -1288 0
-2244 -1289 0
-2244 -1290 0
-2244 -1291 0
-2244 -1292 1609 0
-2244 -1292 -1345 -1352 0
-2244 -1292 -1299 0
-2244 -1292 -1416 0
-2244 -1292 -1473 0
-2244 -1293 1610 0
-2244 -1293 -1345 -1353 0
-2244 -1293 -1301 0
-2244 -1293 -1418 0
-2244 -1293 -1475 0
-2244 -1294 1611 0
-2244 -1294 -1345 -1354 0
-2244 -1294 -1303 0
-2244 -1294 -1420 0
-2244 -1294 -1477 0
-2244 -1295 0
-2245 1355 0
-2245 1603 0
-2245 -1286 0
-2245 -1288 0
-2245 -1289 0
-2245 -1290 0
-2245 -1291 0
-2245 -1292 1609 0
-2245 -1292 -1346 -1352 0
-2245 -1292 -1307 0
-2245 -1292 -1424 0
-2245 -1292 -1481 0
-2245 -1293 1610 0
-2245 -1293 -1346 -1353 0
-2245 -1293 -1309 0
-2245 -1293 -1426 0
-2245 -1293 -1483 0
-2245 -1294 1611 0
-2245 -1294 -1346 -1354 0
-2245 -1294 -1311 0
-2245 -1294 -1428 0
-2245 -1294 -1485 0
-2245 -1295 0
-2246 1355 0
-2246 1604 0
-2246 -1286 0
-2246 -1287 0
-2246 -1289 0
-2246 -1290 0
-2246 -1291 0
-2246 -1292 1609 0
-2246 -1292 -1347 -1352 0
-2246 -1292 -1315 0
-2246 -1292 -1432 0
-2246 -1292 -1489 0
-2246 -1293 1610 0
-2246 -1293 -1347 -1353 0
-2246 -1293 -1317 0
-2246 -1293 -1434 0
-2246 -1293 -1491 0
-2246 -1294 1611 0
-2246 -1294 -1347 -1354 0
-2246 -1294 -1319 0
-2246 -1294 -1436 0
-2246 -1294 -1493 0
-2246 -1295 0
-2247 1355 0
-2247 1605 0
-2247 -1286 0
-2247 -1287 0
-2247 -1288 0
-2247 -1290 0
-2247 -1291 0
-2247 -1292 1609 0
-2247 -1292 -1348 -1352 0
-2247 -1292 -1323 0
-2247 -1292 -1440 0
-2247 -1292 -1497 0
-2247 -1293 1610 0
-2247 -1293 -1348 -1353 0
-2247 -1293 -1325 0
-2247 -1293 -1442 0
-2247 -1293 -1499 0
-2247 -1294 1611 0
-2247 -1294 -1348 -1354 0
-2247 -1294 -1327 0
-2247 -1294 -1444 0
-2247 -1294 -1501 0
-2247 -1295 0
-2248 1355 0
-2248 1606 0
-2248 -1286 0
-2248 -1287 0
-2248 -1288 0
-2248 -1289 0
-2248 -1291 0
-2248 -1292 1609 0
-2248 -1292 -1349 -1352 0
-2248 -1292 -1331 0
-2248 -1292 -1448 0
-2248 -1292 -1505 0
-2248 -1293 1610 0
-2248 -1293 -1349 -1353 0
-2248 -1293 -1333 0
-2248 -1293 -1450 0
-2248 -1293 -1507 0
-2248 -1294 1611 0
-2248 -1294 -1349 -1354 0
-2248 -1294 -1335 0
-2248 -1294 -1452 0
-2248 -1294 -1509 0
-2248 -1295 0
-2249 1355 0
-2249 1607 0
-2249 -1286 0
-2249 -1287 0
-2249 -1288 0
-2249 -1289 0
-2249 -1290 0
-2249 -1292 1609 0
-2249 -1292 -1350 -1352 0
-2249 -1292 -1339 0
-2249 -1292 -1456 0
-2249 -1292 -1513 0
-2249 -1293 1610 0
-2249 -1293 -1350 -1353 0
-2249 -1293 -1341 0
-2249 -1293 -1458 0
-2249 -1293 -1515 0
-2249 -1294 1611 0
-2249 -1294 -1350 -1354 0
-2249 -1294 -1343 0
-2249 -1294 -1460 0
-2249 -1294 -1517 0
-2249 -1295 0
-2250 1355 0
-2250 1602 0
-2250 -1405 0
-2250 -1406 0
-2250 -1407 0
-2250 -1408 0
-2250 -1409 1609 0
-2250 -1409 -1345 -1352 0
-2250 -1409 -1299 0
-2250 -1409 -1416 0
-2250 -1409 -1473 0
-2250 -1410 1610 0
-2250 -1410 -1345 -1353 0
-2250 -1410 -1301 0
-2250 -1410 -1418 0
-2250 -1410 -1475 0
-2250 -1411 1611 0
-2250 -1411 -1345 -1354 0
-2250 -1411 -1303 0
-2250 -1411 -1420 0
-2250 -1411 -1477 0
-2250 -1412 0
-2251 1355 0
-2251 1603 0
-2251 -1406 0
-2251 -1407 0
-2251 -1408 0
-2251 -1409 1609 0
-2251 -1409 -1346 -1352 0
-2251 -1409 -1307 0
-2251 -1409 -1424 0
-2251 -1409 -1481 0
-2251 -1410 1610 0
-2251 -1410 -1346 -1353 0
-2251 -1410 -1309 0
-2251 -1410 -1426 0
-2251 -1410 -1483 0
-2251 -1411 1611 0
-2251 -1411 -1346 -1354 0
-2251 -1411 -1311 0
-2251 -1411 -1428 0
-2251 -1411 -1485 0
-2251 -1412 0
-2252 1355 0
-2252 1604 0
-2252 -1404 0
-2252 -1407 0
-2252 -1408 0
-2252 -1409 1609 0
-2252 -1409 -1347 -1352 0
-2252 -1409 -1315 0
-2252 -1409 -1432 0
-2252 -1409 -1489 0
-2252 -1410 1610 0
-2252 -1410 -1347 -1353 0
-2252 -1410 -1317 0
-2252 -1410 -1434 0
-2252 -1410 -1491 0
-2252 -1411 1611 0
-2252 -1411 -1347 -1354 0
-2252 -1411 -1319 0
-2252 -1411 -1436 0
-2252 -1411 -1493 0
-2252 -1412 0
-2253 1355 0
-2253 1605 0
-2253 -1404 0
-2253 -1405 0
-2253 -1408 0
-2253 -1409 1609 0
-2253 -1409 -1348 -1352 0
-2253 -1409 -1323 0
-2253 -1409 -1440 0
-2253 -1409 -1497 0
-2253 -1410 1610 0
-2253 -1410 -1348 -1353 0
-2253 -1410 -1325 0
-2253 -1410 -1442 0
-2253 -1410 -1499 0
-2253 -1411 1611 0
-2253 -1411 -1348 -1354 0
-2253 -1411 -1327 0
-2253 -1411 -1444 0
-2253 -1411 -1501 0
-2253 -1412 0
-2254 1355 0
-2254 1606 0
-2254 -1404 0
-2254 -1405 0
-2254 -1406 0
-2254 -1409 1609 0
-2254 -1409 -1349 -1352 0
-2254 -1409 -1331 0
-2254 -1409 -1448 0
-2254 -1409 -1505 0
-2254 -1410 1610 0
-2254 -1410 -1349 -1353 0
-2254 -1410 -1333 0
-2254 -1410 -1450 0
-2254 -1410 -1507 0
-2254 -1411 1611 0
-2254 -1411 -1349 -1354 0
-2254 -1411 -1335 0
-2254 -1411 -1452 0
-2254 -1411 -1509 0
-2254 -1412 0
-2255 1355 0
-2255 1607 0
-2255 -1404 0
-2255 -1405 0
-2255 -1406 0
-2255 -1407 0
-2255 -1409 1609 0
-2255 -1409 -1350 -1352 0
-2255 -1409 -1339 0
-2255 -1409 -1456 0
-2255 -1409 -1513 0
-2255 -1410 1610 0
-2255 -1410 -1350 -1353 0
-2255 -1410 -1341 0
-2255 -1410 -1458 0
-2255 -1410 -1515 0
-2255 -1411 1611 0
-2255 -1411 -1350 -1354 0
-2255 -1411 -1343 0
-2255 -1411 -1460 0
-2255 -1411 -1517 0
-2255 -1412 0
-2256 1355 0
-2256 1602 0
-2256 -1463 0
-2256 -1464 0
-2256 -1465 0
-2256 -1466 1609 0
-2256 -1466 -1345 -1352 0
-2256 -1466 -1299 0
-2256 -1466 -1416 0
-2256 -1466 -1473 0
-2256 -1467 1610 0
-2256 -1467 -1345 -1353 0
-2256 -1467 -1301 0
-2256 -1467 -1418 0
-2256 -1467 -1475 0
-2256 -1468 1611 0
-2256 -1468 -1345 -1354 0
-2256 -1468 -1303 0
-2256 -1468 -1420 0
-2256 -1468 -1477 0
-2256 -1469 0
-2257 1355 0
-2257 1603 0
-2257 -1464 0
-2257 -1465 0
-2257 -1466 1609 0
-2257 -1466 -1346 -1352 0
-2257 -1466 -1307 0
-2257 -1466 -1424 0
-2257 -1466 -1481 0
-2257 -1467 1610 0
-2257 -1467 -1346 -1353 0
-2257 -1467 -1309 0
-2257 -1467 -1426 0
-2257 -1467 -1483 0
-2257 -1468 1611 0
-2257 -1468 -1346 -1354 0
-2257 -1468 -1311 0
-2257 -1468 -1428 0
-2257 -1468 -1485 0
-2257 -1469 0
-2258 1355 0
-2258 1604 0
-2258 -1465 0
-2258 -1466 1609 0
-2258 -1466 -1347 -1352 0
-2258 -1466 -1315 0
-2258 -1466 -1432 0
-2258 -1466 -1489 0
-2258 -1467 1610 0
-2258 -1467 -1347 -1353 0
-2258 -1467 -1317 0
-2258 -1467 -1434 0
-2258 -1467 -1491 0
-2258 -1468 1611 0
-2258 -1468 -1347 -1354 0
-2258 -1468 -1319 0
-2258 -1468 -1436 0
-2258 -1468 -1493 0
-2258 -1469 0
-2259 1355 0
-2259 1605 0
-2259 -1462 0
-2259 -1466 1609 0
-2259 -1466 -1348 -1352 0
-2259 -1466 -1323 0
-2259 -1466 -1440 0
-2259 -1466 -1497 0
-2259 -1467 1610 0
-2259 -1467 -1348 -1353 0
-2259 -1467 -1325 0
-2259 -1467 -1442 0
-2259 -1467 -1499 0
-2259 -1468 1611 0
-2259 -1468 -1348 -1354 0
-2259 -1468 -1327 0
-2259 -1468 -1444 0
-2259 -1468 -1501 0
-2259 -1469 0
-2260 1355 0
-2260 1606 0
-2260 -1462 0
-2260 -1463 0
-2260 -1466 1609 0
-2260 -1466 -1349 -1352 0
-2260 -1466 -1331 0
-2260 -1466 -1448 0
-2260 -1466 -1505 0
-2260 -1467 1610 0
-2260 -1467 -1349 -1353 0
-2260 -1467 -1333 0
-2260 -1467 -1450 0
-2260 -1467 -1507 0
-2260 -1468 1611 0
-2260 -1468 -1349 -1354 0
-2260 -1468 -1335 0
-2260 -1468 -1452 0
-2260 -1468 -1509 0
-2260 -1469 0
-2261 1355 0
-2261 1607 0
-2261 -1462 0
-2261 -1463 0
-2261 -1464 0
-2261 -1466 1609 0
-2261 -1466 -1350 -1352 0
-2261 -1466 -1339 0
-2261 -1466 -1456 0
-2261 -1466 -1513 0
-2261 -1467 1610 0
-2261 -1467 -1350 -1353 0
-2261 -1467 -1341 0
-2261 -1467 -1458 0
-2261 -1467 -1515 0
-2261 -1468 1611 0
-2261 -1468 -1350 -1354 0
-2261 -1468 -1343 0
-2261 -1468 -1460 0
-2261 -1468 -1517 0
-2261 -1469 0
-2262 1355 0
-2262 1602 0
-2262 1608 0
-2262 -1345 -1351 0
-2262 -1297 0
-2262 -1414 0
-2262 -1471 0
-2263 1355 0
-2263 1603 0
-2263 1608 0
-2263 -1346 -1351 0
-2263 -1305 0
-2263 -1422 0
-2263 -1479 0
-2264 1355 0
-2264 1604 0
-2264 1608 0
-2264 -1347 -1351 0
-2264 -1313 0
-2264 -1430 0
-2264 -1487 0
-2265 1355 0
-2265 1605 0
-2265 1608 0
-2265 -1348 -1351 0
-2265 -1321 0
-2265 -1438 0
-2265 -1495 0
-2266 1355 0
-2266 1606 0
-2266 1608 0
-2266 -1349 -1351 0
-2266 -1329 0
-2266 -1446 0
-2266 -1503 0
-2267 1355 0
-2267 1607 0
-2267 1608 0
-2267 -1350 -1351 0
-2267 -1337 0
-2267 -1454 0
-2267 -1511 0
-2268 1413 0
-2268 1661 0
-2268 -1288 0
-2268 -1289 0
-2268 -1290 0
-2268 -1291 0
-2268 -1292 1667 0
-2268 -1292 -1404 -1410 0
-2268 -1292 -1299 0
-2268 -1292 -1307 0
-2268 -1292 -1358 0
-2268 -1292 -1366 0
-2268 -1292 -1473 0
-2268 -1292 -1481 0
-2268 -1293 1668 0
-2268 -1293 -1404 -1411 0
-2268 -1293 -1301 0
-2268 -1293 -1309 0
-2268 -1293 -1360 0
-2268 -1293 -1368 0
-2268 -1293 -1475 0
-2268 -1293 -1483 0
-2268 -1294 1669 0
-2268 -1294 -1404 -1412 0
-2268 -1294 -1303 0
-2268 -1294 -1311 0
-2268 -1294 -1362 0
-2268 -1294 -1370 0
-2268 -1294 -1477 0
-2268 -1294 -1485 0
-2268 -1295 0
-2269 1413 0
-2269 1662 0
-2269 -1286 0
-2269 -1289 0
-2269 -1290 0
-2269 -1291 0
-2269 -1292 1667 0
-2269 -1292 -1405 -1410 0
-2269 -1292 -1307 0
-2269 -1292 -1315 0
-2269 -1292 -1366 0
-2269 -1292 -1374 0
-2269 -1292 -1481 0
-2269 -1292 -1489 0
-2269 -1293 1668 0
-2269 -1293 -1405 -1411 0
-2269 -1293 -1309 0
-2269 -1293 -1317 0
-2269 -1293 -1368 0
-2269 -1293 -1376 0
-2269 -1293 -1483 0
-2269 -1293 -1491 0
-2269 -1294 1669 0
-2269 -1294 -1405 -1412 0
-2269 -1294 -1311 0
-2269 -1294 -1319 0
-2269 -1294 -1370 0
-2269 -1294 -1378 0
-2269 -1294 -1485 0
-2269 -1294 -1493 0
-2269 -1295 0
-2270 1413 0
-2270 1663 0
-2270 -1286 0
-2270 -1287 0
-2270 -1290 0
-2270 -1291 0
-2270 -1292 1667 0
-2270 -1292 -1406 -1410 0
-2270 -1292 -1315 0
-2270 -1292 -1323 0
-2270 -1292 -1374 0
-2270 -1292 -1382 0
-2270 -1292 -1489 0
-2270 -1292 -1497 0
-2270 -1293 1668 0
-2270 -1293 -1406 -1411 0
-2270 -1293 -1317 0
-2270 -1293 -1325 0
-2270 -1293 -1376 0
-2270 -1293 -1384 0
-2270 -1293 -1491 0
-2270 -1293 -1499 0
-2270 -1294 1669 0
-2270 -1294 -1406 -1412 0
-2270 -1294 -1319 0
-2270 -1294 -1327 0
-2270 -1294 -1378 0
-2270 -1294 -1386 0
-2270 -1294 -1493 0
-2270 -1294 -1501 0
-2270 -1295 0
-2271 1413 0
-2271 1664 0
-2271 -1286 0
-2271 -1287 0
-2271 -1288 0
-2271 -1291 0
-2271 -1292 1667 0
-2271 -1292 -1407 -1410 0
-2271 -1292 -1323 0
-2271 -1292 -1331 0
-2271 -1292 -1382 0
-2271 -1292 -1390 0
-2271 -1292 -1497 0
-2271 -1292 -1505 0
-2271 -1293 1668 0
-2271 -1293 -1407 -1411 0
-2271 -1293 -1325 0
-2271 -1293 -1333 0
-2271 -1293 -1384 0
-2271 -1293 -1392 0
-2271 -1293 -1499 0
-2271 -1293 -1507 0
-2271 -1294 1669 0
-2271 -1294 -1407 -1412 0
-2271 -1294 -1327 0
-2271 -1294 -1335 0
-2271 -1294 -1386 0
-2271 -1294 -1394 0
-2271 -1294 -1501 0
-2271 -1294 -1509 0
-2271 -1295 0
-2272 1413 0
-2272 1665 0
-2272 -1286 0
-2272 -1287 0
-2272 -1288 0
-2272 -1289 0
-2272 -1292 1667 0
-2272 -1292 -1408 -1410 0
-2272 -1292 -1331 0
-2272 -1292 -1339 0
-2272 -1292 -1390 0
-2272 -1292 -1398 0
-2272 -1292 -1505 0
-2272 -1292 -1513 0
-2272 -1293 1668 0
-2272 -1293 -1408 -1411 0
-2272 -1293 -1333 0
-2272 -1293 -1341 0
-2272 -1293 -1392 0
-2272 -1293 -1400 0
-2272 -1293 -1507 0
-2272 -1293 -1515 0
-2272 -1294 1669 0
-2272 -1294 -1408 -1412 0
-2272 -1294 -1335 0
-2272 -1294 -1343 0
-2272 -1294 -1394 0
-2272 -1294 -1402 0
-2272 -1294 -1509 0
-2272 -1294 -1517 0
-2272 -1295 0
-2273 1413 0
-2273 1661 0
-2273 -1347 0
-2273 -1348 0
-2273 -1349 0
-2273 -1350 0
-2273 -1351 1667 0
-2273 -1351 -1404 -1410 0
-2273 -1351 -1299 0
-2273 -1351 -1307 0
-2273 -1351 -1358 0
-2273 -1351 -1366 0
-2273 -1351 -1473 0
-2273 -1351 -1481 0
-2273 -1352 1668 0
-2273 -1352 -1404 -1411 0
-2273 -1352 -1301 0
-2273 -1352 -1309 0
-2273 -1352 -1360 0
-2273 -1352 -1368 0
-2273 -1352 -1475 0
-2273 -1352 -1483 0
-2273 -1353 1669 0
-2273 -1353 -1404 -1412 0
-2273 -1353 -1303 0
-2273 -1353 -1311 0
-2273 -1353 -1362 0
-2273 -1353 -1370 0
-2273 -1353 -1477 0
-2273 -1353 -1485 0
-2273 -1354 0
-2274 1413 0
-2274 1662 0
-2274 -1345 0
-2274 -1348 0
-2274 -1349 0
-2274 -1350 0
-2274 -1351 1667 0
-2274 -1351 -1405 -1410 0
-2274 -1351 -1307 0
-2274 -1351 -1315 0
-2274 -1351 -1366 0
-2274 -1351 -1374 0
-2274 -1351 -1481 0
-2274 -1351 -1489 0
-2274 -1352 1668 0
-2274 -1352 -1405 -1411 0
-2274 -1352 -1309 0
-2274 -1352 -1317 0
-2274 -1352 -1368 0
-2274 -1352 -1376 0
-2274 -1352 -1483 0
-2274 -1352 -1491 0
-2274 -1353 1669 0
-2274 -1353 -1405 -1412 0
-2274 -1353 -1311 0
-2274 -1353 -1319 0
-2274 -1353 -1370 0
-2274 -1353 -1378 0
-2274 -1353 -1485 0
-2274 -1353 -1493 0
-2274 -1354 0
-2275 1413 0
-2275 1663 0
-2275 -1345 0
-2275 -1346 0
-2275 -1349 0
-2275 -1350 0
-2275 -1351 1667 0
-2275 -1351 -1406 -1410 0
-2275 -1351 -1315 0
-2275 -1351 -1323 0
-2275 -1351 -1374 0
-2275 -1351 -1382 0
-2275 -1351 -1489 0
-2275 -1351 -1497 0
-2275 -1352 1668 0
-2275 -1352 -1406 -1411 0
-2275 -1352 -1317 0
-2275 -1352 -1325 0
-2275 -1352 -1376 0
-2275 -1352 -1384 0
-2275 -1352 -1491 0
-2275 -1352 -1499 0
-2275 -1353 1669 0
-2275 -1353 -1406 -1412 0
-2275 -1353 -1319 0
-2275 -1353 -1327 0
-2275 -1353 -1378 0
-2275 -1353 -1386 0
-2275 -1353 -1493 0
-2275 -1353 -1501 0
-2275 -1354 0
-2276 1413 0
-2276 1664 0
-2276 -1345 0
-2276 -1346 0
-2276 -1347 0
-2276 -1350 0
-2276 -1351 1667 0
-2276 -1351 -1407 -1410 0
-2276 -1351 -1323 0
-2276 -1351 -1331 0
-2276 -1351 -1382 0
-2276 -1351 -1390 0
-2276 -1351 -1497 0
-2276 -1351 -1505 0
-2276 -1352 1668 0
-2276 -1352 -1407 -1411 0
-2276 -1352 -1325 0
-2276 -1352 -1333 0
-2276 -1352 -1384 0
-2276 -1352 -1392 0
-2276 -1352 -1499 0
-2276 -1352 -1507 0
-2276 -1353 1669 0
-2276 -1353 -1407 -1412 0
-2276 -1353 -1327 0
-2276 -1353 -1335 0
-2276 -1353 -1386 0
-2276 -1353 -1394 0
-2276 -1353 -1501 0
-2276 -1353 -1509 0
-2276 -1354 0
-2277 1413 0
-2277 1665 0
-2277 -1345 0
-2277 -1346 0
-2277 -1347 0
-2277 -1348 0
-2277 -1351 1667 0
-2277 -1351 -1408 -1410 0
-2277 -1351 -1331 0
-2277 -1351 -1339 0
-2277 -1351 -1390 0
-2277 -1351 -1398 0
-2277 -1351 -1505 0
-2277 -1351 -1513 0
-2277 -1352 1668 0
-2277 -1352 -1408 -1411 0
-2277 -1352 -1333 0
-2277 -1352 -1341 0
-2277 -1352 -1392 0
-2277 -1352 -1400 0
-2277 -1352 -1507 0
-2277 -1352 -1515 0
-2277 -1353 1669 0
-2277 -1353 -1408 -1412 0
-2277 -1353 -1335 0
-2277 -1353 -1343 0
-2277 -1353 -1394 0
-2277 -1353 -1402 0
-2277 -1353 -1509 0
-2277 -1353 -1517 0
-2277 -1354 0
-2278 1413 0
-2278 1661 0
-2278 -1464 0
-2278 -1465 0
-2278 -1466 1667 0
-2278 -1466 -1404 -1410 0
-2278 -1466 -1299 0
-2278 -1466 -1307 0
-2278 -1466 -1358 0
-2278 -1466 -1366 0
-2278 -1466 -1473 0
-2278 -1466 -1481 0
-2278 -1467 1668 0
-2278 -1467 -1404 -1411 0
-2278 -1467 -1301 0
-2278 -1467 -1309 0
-2278 -1467 -1360 0
-2278 -1467 -1368 0
-2278 -1467 -1475 0
-2278 -1467 -1483 0
-2278 -1468 1669 0
-2278 -1468 -1404 -1412 0
-2278 -1468 -1303 0
-2278 -1468 -1311 0
-2278 -1468 -1362 0
-2278 -1468 -1370 0
-2278 -1468 -1477 0
-2278 -1468 -1485 0
-2278 -1469 0
-2279 1413 0
-2279 1662 0
-2279 -1465 0
-2279 -1466 1667 0
-2279 -1466 -1405 -1410 0
-2279 -1466 -1307 0
-2279 -1466 -1315 0
-2279 -1466 -1366 0
-2279 -1466 -1374 0
-2279 -1466 -1481 0
-2279 -1466 -1489 0
-2279 -1467 1668 0
-2279 -1467 -1405 -1411 0
-2279 -1467 -1309 0
-2279 -1467 -1317 0
-2279 -1467 -1368 0
-2279 -1467 -1376 0
-2279 -1467 -1483 0
-2279 -1467 -1491 0
-2279 -1468 1669 0
-2279 -1468 -1405 -1412 0
-2279 -1468 -1311 0
-2279 -1468 -1319 0
-2279 -1468 -1370 0
-2279 -1468 -1378 0
-2279 -1468 -1485 0
-2279 -1468 -1493 0
-2279 -1469 0
-2280 1413 0
-2280 1663 0
-2280 -1466 1667 0
-2280 -1466 -1406 -1410 0
-2280 -1466 -1315 0
-2280 -1466 -1323 0
-2280 -1466 -1374 0
-2280 -1466 -1382 0
-2280 -1466 -1489 0
-2280 -1466 -1497 0
-2280 -1467 1668 0
-2280 -1467 -1406 -1411 0
-2280 -1467 -1317 0
-2280 -1467 -1325 0
-2280 -1467 -1376 0
-2280 -1467 -1384 0
-2280 -1467 -1491 0
-2280 -1467 -1499 0
-2280 -1468 1669 0
-2280 -1468 -1406 -1412 0
-2280 -1468 -1319 0
-2280 -1468 -1327 0
-2280 -1468 -1378 0
-2280 -1468 -1386 0
-2280 -1468 -1493 0
-2280 -1468 -1501 0
-2280 -1469 0
-2281 1413 0
-2281 1664 0
-2281 -1462 0
-2281 -1466 1667 0
-2281 -1466 -1407 -1410 0
-2281 -1466 -1323 0
-2281 -1466 -1331 0
-2281 -1466 -1382 0
-2281 -1466 -1390 0
-2281 -1466 -1497 0
-2281 -1466 -1505 0
-2281 -1467 1668 0
-2281 -1467 -1407 -1411 0
-2281 -1467 -1325 0
-2281 -1467 -1333 0
-2281 -1467 -1384 0
-2281 -1467 -1392 0
-2281 -1467 -1499 0
-2281 -1467 -1507 0
-2281 -1468 1669 0
-2281 -1468 -1407 -1412 0
-2281 -1468 -1327 0
-2281 -1468 -1335 0
-2281 -1468 -1386 0
-2281 -1468 -1394 0
-2281 -1468 -1501 0
-2281 -1468 -1509 0
-2281 -1469 0
-2282 1413 0
-2282 1665 0
-2282 -1462 0
-2282 -1463 0
-2282 -1466 1667 0
-2282 -1466 -1408 -1410 0
-2282 -1466 -1331 0
-2282 -1466 -1339 0
-2282 -1466 -1390 0
-2282 -1466 -1398 0
-2282 -1466 -1505 0
-2282 -1466 -1513 0
-2282 -1467 1668 0
-2282 -1467 -1408 -1411 0
-2282 -1467 -1333 0
-2282 -1467 -1341 0
-2282 -1467 -1392 0
-2282 -1467 -1400 0
-2282 -1467 -1507 0
-2282 -1467 -1515 0
-2282 -1468 1669 0
-2282 -1468 -1408 -1412 0
-2282 -1468 -1335 0
-2282 -1468 -1343 0
-2282 -1468 -1394 0
-2282 -1468 -1402 0
-2282 -1468 -1509 0
-2282 -1468 -1517 0
-2282 -1469 0
-2283 1413 0
-2283 1661 0
-2283 1666 0
-2283 -1404 -1409 0
-2283 -1297 0
-2283 -1305 0
-2283 -1356 0
-2283 -1364 0
-2283 -1471 0
-2283 -1479 0
-2284 1413 0
-2284 1662 0
-2284 1666 0
-2284 -1405 -1409 0
-2284 -1305 0
-2284 -1313 0
-2284 -1364 0
-2284 -1372 0
-2284 -1479 0
-2284 -1487 0
-2285 1413 0
-2285 1663 0
-2285 1666 0
-2285 -1406 -1409 0
-2285 -1313 0
-2285 -1321 0
-2285 -1372 0
-2285 -1380 0
-2285 -1487 0
-2285 -1495 0
-2286 1413 0
-2286 1664 0
-2286 1666 0
-2286 -1407 -1409 0
-2286 -1321 0
-2286 -1329 0
-2286 -1380 0
-2286 -1388 0
-2286 -1495 0
-2286 -1503 0
-2287 1413 0
-2287 1665 0
-2287 1666 0
-2287 -1408 -1409 0
-2287 -1329 0
-2287 -1337 0
-2287 -1388 0
-2287 -1396 0
-2287 -1503 0
-2287 -1511 0
-2288 1470 0
-2288 1719 0
-2288 -1289 0
-2288 -1290 0
-2288 -1291 0
-2288 -1292 1724 0
-2288 -1292 -1462 -1467 0
-2288 -1292 -1299 0
-2288 -1292 -1307 0
-2288 -1292 -1315 0
-2288 -1292 -1358 0
-2288 -1292 -1366 0
-2288 -1292 -1374 0
-2288 -1292 -1416 0
-2288 -1292 -1424 0
-2288 -1292 -1432 0
-2288 -1293 1725 0
-2288 -1293 -1462 -1468 0
-2288 -1293 -1301 0
-2288 -1293 -1309 0
-2288 -1293 -1317 0
-2288 -1293 -1360 0
-2288 -1293 -1368 0
-2288 -1293 -1376 0
-2288 -1293 -1418 0
-2288 -1293 -1426 0
-2288 -1293 -1434 0
-2288 -1294 1726 0
-2288 -1294 -1462 -1469 0
-2288 -1294 -1303 0
-2288 -1294 -1311 0
-2288 -1294 -1319 0
-2288 -1294 -1362 0
-2288 -1294 -1370 0
-2288 -1294 -1378 0
-2288 -1294 -1420 0
-2288 -1294 -1428 0
-2288 -1294 -1436 0
-2288 -1295 0
-2289 1470 0
-2289 1720 0
-2289 -1286 0
-2289 -1290 0
-2289 -1291 0
-2289 -1292 1724 0
-2289 -1292 -1463 -1467 0
-2289 -1292 -1307 0
-2289 -1292 -1315 0
-2289 -1292 -1323 0
-2289 -1292 -1366 0
-2289 -1292 -1374 0
-2289 -1292 -1382 0
-2289 -1292 -1424 0
-2289 -1292 -1432 0
-2289 -1292 -1440 0
-2289 -1293 1725 0
-2289 -1293 -1463 -1468 0
-2289 -1293 -1309 0
-2289 -1293 -1317 0
-2289 -1293 -1325 0
-2289 -1293 -1368 0
-2289 -1293 -1376 0
-2289 -1293 -1384 0
-2289 -1293 -1426 0
-2289 -1293 -1434 0
-2289 -1293 -1442 0
-2289 -1294 1726 0
-2289 -1294 -1463 -1469 0
-2289 -1294 -1311 0
-2289 -1294 -1319 0
-2289 -1294 -1327 0
-2289 -1294 -1370 0
-2289 -1294 -1378 0
-2289 -1294 -1386 0
-2289 -1294 -1428 0
-2289 -1294 -1436 0
-2289 -1294 -1444 0
-2289 -1295 0
-2290 1470 0
-2290 1721 0
-2290 -1286 0
-2290 -1287 0
-2290 -1291 0
-2290 -1292 1724 0
-2290 -1292 -1464 -1467 0
-2290 -1292 -1315 0
-2290 -1292 -1323 0
-2290 -1292 -1331 0
-2290 -1292 -1374 0
-2290 -1292 -1382 0
-2290 -1292 -1390 0
-2290 -1292 -1432 0
-2290 -1292 -1440 0
-2290 -1292 -1448 0
-2290 -1293 1725 0
-2290 -1293 -1464 -1468 0
-2290 -1293 -1317 0
-2290 -1293 -1325 0
-2290 -1293 -1333 0
-2290 -1293 -1376 0
-2290 -1293 -1384 0
-2290 -1293 -1392 0
-2290 -1293 -1434 0
-2290 -1293 -1442 0
-2290 -1293 -1450 0
-2290 -1294 1726 0
-2290 -1294 -1464 -1469 0
-2290 -1294 -1319 0
-2290 -1294 -1327 0
-2290 -1294 -1335 0
-2290 -1294 -1378 0
-2290 -1294 -1386 0
-2290 -1294 -1394 0
-2290 -1294 -1436 0
-2290 -1294 -1444 0
-2290 -1294 -1452 0
-2290 -1295 0
-2291 1470 0
-2291 1722 0
-2291 -1286 0
-2291 -1287 0
-2291 -1288 0
-2291 -1292 1724 0
-2291 -1292 -1465 -1467 0
-2291 -1292 -1323 0
-2291 -1292 -1331 0
-2291 -1292 -1339 0
-2291 -1292 -1382 0
-2291 -1292 -1390 0
-2291 -1292 -1398 0
-2291 -1292 -1440 0
-2291 -1292 -1448 0
-2291 -1292 -1456 0
-2291 -1293 1725 0
-2291 -1293 -1465 -1468 0
-2291 -1293 -1325 0
-2291 -1293 -1333 0
-2291 -1293 -1341 0
-2291 -1293 -1384 0
-2291 -1293 -1392 0
-2291 -1293 -1400 0
-2291 -1293 -1442 0
-2291 -1293 -1450 0
-2291 -1293 -1458 0
-2291 -1294 1726 0
-2291 -1294 -1465 -1469 0
-2291 -1294 -1327 0
-2291 -1294 -1335 0
-2291 -1294 -1343 0
-2291 -1294 -1386 0
-2291 -1294 -1394 0
-2291 -1294 -1402 0
-2291 -1294 -1444 0
-2291 -1294 -1452 0
-2291 -1294 -1460 0
-2291 -1295 0
-2292 1470 0
-2292 1719 0
-2292 -1348 0
-2292 -1349 0
-2292 -1350 0
-2292 -1351 1724 0
-2292 -1351 -1462 -1467 0
-2292 -1351 -1299 0
-2292 -1351 -1307 0
-2292 -1351 -1315 0
-2292 -1351 -1358 0
-2292 -1351 -1366 0
-2292 -1351 -1374 0
-2292 -1351 -1416 0
-2292 -1351 -1424 0
-2292 -1351 -1432 0
-2292 -1352 1725 0
-2292 -1352 -1462 -1468 0
-2292 -1352 -1301 0
-2292 -1352 -1309 0
-2292 -1352 -1317 0
-2292 -1352 -1360 0
-2292 -1352 -1368 0
-2292 -1352 -1376 0
-2292 -1352 -1418 0
-2292 -1352 -1426 0
-2292 -1352 -1434 0
-2292 -1353 1726 0
-2292 -1353 -1462 -1469 0
-2292 -1353 -1303 0
-2292 -1353 -1311 0
-2292 -1353 -1319 0
-2292 -1353 -1362 0
-2292 -1353 -1370 0
-2292 -1353 -1378 0
-2292 -1353 -1420 0
-2292 -1353 -1428 0
-2292 -1353 -1436 0
-2292 -1354 0
-2293 1470 0
-2293 1720 0
-2293 -1345 0
-2293 -1349 0
-2293 -1350 0
-2293 -1351 1724 0
-2293 -1351 -1463 -1467 0
-2293 -1351 -1307 0
-2293 -1351 -1315 0
-2293 -1351 -1323 0
-2293 -1351 -1366 0
-2293 -1351 -1374 0
-2293 -1351 -1382 0
-2293 -1351 -1424 0
-2293 -1351 -1432 0
-2293 -1351 -1440 0
-2293 -1352 1725 0
-2293 -1352 -1463 -1468 0
-2293 -1352 -1309 0
-2293 -1352 -1317 0
-2293 -1352 -1325 0
-2293 -1352 -1368 0
-2293 -1352 -1376 0
-2293 -1352 -1384 0
-2293 -1352 -1426 0
-2293 -1352 -1434 0
-2293 -1352 -1442 0
-2293 -1353 1726 0
-2293 -1353 -1463 -1469 0
-2293 -1353 -1311 0
-2293 -1353 -1319 0
-2293 -1353 -1327 0
-2293 -1353 -1370 0
-2293 -1353 -1378 0
-2293 -1353 -1386 0
-2293 -1353 -1428 0
-2293 -1353 -1436 0
-2293 -1353 -1444 0
-2293 -1354 0
-2294 1470 0
-2294 1721 0
-2294 -1345 0
-2294 -1346 0
-2294 -1350 0
-2294 -1351 1724 0
-2294 -1351 -1464 -1467 0
-2294 -1351 -1315 0
-2294 -1351 -1323 0
-2294 -1351 -1331 0
-2294 -1351 -1374 0
-2294 -1351 -1382 0
-2294 -1351 -1390 0
-2294 -1351 -1432 0
-2294 -1351 -1440 0
-2294 -1351 -1448 0
-2294 -1352 1725 0
-2294 -1352 -1464 -1468 0
-2294 -1352 -1317 0
-2294 -1352 -1325 0
-2294 -1352 -1333 0
-2294 -1352 -1376 0
-2294 -1352 -1384 0
-2294 -1352 -1392 0
-2294 -1352 -1434 0
-2294 -1352 -1442 0
-2294 -1352 -1450 0
-2294 -1353 1726 0
-2294 -1353 -1464 -1469 0
-2294 -1353 -1319 0
-2294 -1353 -1327 0
-2294 -1353 -1335 0
-2294 -1353 -1378 0
-2294 -1353 -1386 0
-2294 -1353 -1394 0
-2294 -1353 -1436 0
-2294 -1353 -1444 0
-2294 -1353 -1452 0
-2294 -1354 0
-2295 1470 0
-2295 1722 0
-2295 -1345 0
-2295 -1346 0
-2295 -1347 0
-2295 -1351 1724 0
-2295 -1351 -1465 -1467 0
-2295 -1351 -1323 0
-2295 -1351 -1331 0
-2295 -1351 -1339 0
-2295 -1351 -1382 0
-2295 -1351 -1390 0
-2295 -1351 -1398 0
-2295 -1351 -1440 0
-2295 -1351 -1448 0
-2295 -1351 -1456 0
-2295 -1352 1725 0
-2295 -1352 -1465 -1468 0
-2295 -1352 -1325 0
-2295 -1352 -1333 0
-2295 -1352 -1341 0
-2295 -1352 -1384 0
-2295 -1352 -1392 0
-2295 -1352 -1400 0
-2295 -1352 -1442 0
-2295 -1352 -1450 0
-2295 -1352 -1458 0
-2295 -1353 1726 0
-2295 -1353 -1465 -1469 0
-2295 -1353 -1327 0
-2295 -1353 -1335 0
-2295 -1353 -1343 0
-2295 -1353 -1386 0
-2295 -1353 -1394 0
-2295 -1353 -1402 0
-2295 -1353 -1444 0
-2295 -1353 -1452 0
-2295 -1353 -1460 0
-2295 -1354 0
-2296 1470 0
-2296 1719 0
-2296 -1407 0
-2296 -1408 0
-2296 -1409 1724 0
-2296 -1409 -1462 -1467 0
-2296 -1409 -1299 0
-2296 -1409 -1307 0
-2296 -1409 -1315 0
-2296 -1409 -1358 0
-2296 -1409 -1366 0
-2296 -1409 -1374 0
-2296 -1409 -1416 0
-2296 -1409 -1424 0
-2296 -1409 -1432 0
-2296 -1410 1725 0
-2296 -1410 -1462 -1468 0
-2296 -1410 -1301 0
-2296 -1410 -1309 0
-2296 -1410 -1317 0
-2296 -1410 -1360 0
-2296 -1410 -1368 0
-2296 -1410 -1376 0
-2296 -1410 -1418 0
-2296 -1410 -1426 0
-2296 -1410 -1434 0
-2296 -1411 1726 0
-2296 -1411 -1462 -1469 0
-2296 -1411 -1303 0
-2296 -1411 -1311 0
-2296 -1411 -1319 0
-2296 -1411 -1362 0
-2296 -1411 -1370 0
-2296 -1411 -1378 0
-2296 -1411 -1420 0
-2296 -1411 -1428 0
-2296 -1411 -1436 0
-2296 -1412 0
-2297 1470 0
-2297 1720 0
-2297 -1408 0
-2297 -1409 1724 0
-2297 -1409 -1463 -1467 0
-2297 -1409 -1307 0
-2297 -1409 -1315 0
-2297 -1409 -1323 0
-2297 -1409 -1366 0
-2297 -1409 -1374 0
-2297 -1409 -1382 0
-2297 -1409 -1424 0
-2297 -1409 -1432 0
-2297 -1409 -1440 0
-2297 -1410 1725 0
-2297 -1410 -1463 -1468 0
-2297 -1410 -1309 0
-2297 -1410 -1317 0
-2297 -1410 -1325 0
-2297 -1410 -1368 0
-2297 -1410 -1376 0
-2297 -1410 -1384 0
-2297 -1410 -1426 0
-2297 -1410 -1434 0
-2297 -1410 -1442 0
-2297 -1411 1726 0
-2297 -1411 -1463 -1469 0
-2297 -1411 -1311 0
-2297 -1411 -1319 0
-2297 -1411 -1327 0
-2297 -1411 -1370 0
-2297 -1411 -1378 0
-2297 -1411 -1386 0
-2297 -1411 -1428 0
-2297 -1411 -1436 0
-2297 -1411 -1444 0
-2297 -1412 0
-2298 1470 0
-2298 1721 0
-2298 -1404 0
-2298 -1409 1724 0
-2298 -1409 -1464 -1467 0
-2298 -1409 -1315 0
-2298 -1409 -1323 0
-2298 -1409 -1331 0
-2298 -1409 -1374 0
-2298 -1409 -1382 0
-2298 -1409 -1390 0
-2298 -1409 -1432 0
-2298 -1409 -1440 0
-2298 -1409 -1448 0
-2298 -1410 1725 0
-2298 -1410 -1464 -1468 0
-2298 -1410 -1317 0
-2298 -1410 -1325 0
-2298 -1410 -1333 0
-2298 -1410 -1376 0
-2298 -1410 -1384 0
-2298 -1410 -1392 0
-2298 -1410 -1434 0
-2298 -1410 -1442 0
-2298 -1410 -1450 0
-2298 -1411 1726 0
-2298 -1411 -1464 -1469 0
-2298 -1411 -1319 0
-2298 -1411 -1327 0
-2298 -1411 -1335 0
-2298 -1411 -1378 0
-2298 -1411 -1386 0
-2298 -1411 -1394 0
-2298 -1411 -1436 0
-2298 -1411 -1444 0
-2298 -1411 -1452 0
-2298 -1412 0
-2299 1470 0
-2299 1722 0
-2299 -1404 0
-2299 -1405 0
-2299 -1409 1724 0
-2299 -1409 -1465 -1467 0
-2299 -1409 -1323 0
-2299 -1409 -1331 0
-2299 -1409 -1339 0
-2299 -1409 -1382 0
-2299 -1409 -1390 0
-2299 -1409 -1398 0
-2299 -1409 -1440 0
-2299 -1409 -1448 0
-2299 -1409 -1456 0
-2299 -1410 1725 0
-2299 -1410 -1465 -1468 0
-2299 -1410 -1325 0
-2299 -1410 -1333 0
-2299 -1410 -1341 0
-2299 -1410 -1384 0
-2299 -1410 -1392 0
-2299 -1410 -1400 0
-2299 -1410 -1442 0
-2299 -1410 -1450 0
-2299 -1410 -1458 0
-2299 -1411 1726 0
-2299 -1411 -1465 -1469 0
-2299 -1411 -1327 0
-2299 -1411 -1335 0
-2299 -1411 -1343 0
-2299 -1411 -1386 0
-2299 -1411 -1394 0
-2299 -1411 -1402 0
-2299 -1411 -1444 0
-2299 -1411 -1452 0
-2299 -1411 -1460 0
-2299 -1412 0
-2300 1470 0
-2300 1719 0
-2300 1723 0
-2300 -1462 -1466 0
-2300 -1297 0
-2300 -1305 0
-2300 -1313 0
-2300 -1356 0
-2300 -1364 0
-2300 -1372 0
-2300 -1414 0
-2300 -1422 0
-2300 -1430 0
-2301 1470 0
-2301 1720 0
-2301 1723 0
-2301 -1463 -1466 0
-2301 -1305 0
-2301 -1313 0
-2301 -1321 0
-2301 -1364 0
-2301 -1372 0
-2301 -1380 0
-2301 -1422 0
-2301 -1430 0
-2301 -1438 0
-2302 1470 0
-2302 1721 0
-2302 1723 0
-2302 -1464 -1466 0
-2302 -1313 0
-2302 -1321 0
-2302 -1329 0
-2302 -1372 0
-2302 -1380 0
-2302 -1388 0
-2302 -1430 0
-2302 -1438 0
-2302 -1446 0
-2303 1470 0
-2303 1722 0
-2303 1723 0
-2303 -1465 -1466 0
-2303 -1321 0
-2303 -1329 0
-2303 -1337 0
-2303 -1380 0
-2303 -1388 0
-2303 -1396 0
-2303 -1438 0
-2303 -1446 0
-2303 -1454 0
-1286 1543 2220 2221 2222 2223 2224 2225 2226 2227 2228 2229 2230 2231 2232 2233 2234 2235 2236 2237 2238 2239 2240 2241 2242 2243 0
-1287 1544 2220 2221 2222 2223 2224 2225 2226 2227 2228 2229 2230 2231 2232 2233 2234 2235 2236 2237 2238 2239 2240 2241 2242 2243 0
-1288 1545 2220 2221 2222 2223 2224 2225 2226 2227 2228 2229 2230 2231 2232 2233 2234 2235 2236 2237 2238 2239 2240 2241 2242 2243 0
-1289 1546 2220 2221 2222 2223 2224 2225 2226 2227 2228 2229 2230 2231 2232 2233 2234 2235 2236 2237 2238 2239 2240 2241 2242 2243 0
-1290 1547 2220 2221 2222 2223 2224 2225 2226 2227 2228 2229 2230 2231 2232 2233 2234 2235 2236 2237 2238 2239 2240 2241 2242 2243 0
-1291 1548 2220 2221 2222 2223 2224 2225 2226 2227 2228 2229 2230 2231 2232 2233 2234 2235 2236 2237 2238 2239 2240 2241 2242 2243 0
-1292 1549 2220 2221 2222 2223 2224 2225 2226 2227 2228 2229 2230 2231 2232 2233 2234 2235 2236 2237 2238 2239 2240 2241 2242 2243 0
-1293 1550 2220 2221 2222 2223 2224 2225 2226 2227 2228 2229 2230 2231 2232 2233 2234 2235 2236 2237 2238 2239 2240 2241 2242 2243 0
-1294 1551 2220 2221 2222 2223 2224 2225 2226 2227 2228 2229 2230 2231 2232 2233 2234 2235 2236 2237 2238 2239 2240 2241 2242 2243 0
-1295 1552 2220 2221 2222 2223 2224 2225 2226 2227 2228 2229 2230 2231 2232 2233 2234 2235 2236 2237 2238 2239 2240 2241 2242 2243 0
-1345 1602 2244 2245 2246 2247 2248 2249 2250 2251 2252 2253 2254 2255 2256 2257 2258 2259 2260 2261 2262 2263 2264 2265 2266 2267 0
-1346 1603 2244 2245 2246 2247 2248 2249 2250 2251 2252 2253 2254 2255 2256 2257 2258 2259 2260 2261 2262 2263 2264 2265 2266 2267 0
-1347 1604 2244 2245 2246 2247 2248 2249 2250 2251 2252 2253 2254 2255 2256 2257 2258 2259 2260 2261 2262 2263 2264 2265 2266 2267 0
-1348 1605 2244 2245 2246 2247 2248 2249 2250 2251 2252 2253 2254 2255 2256 2257 2258 2259 2260 2261 2262 2263 2264 2265 2266 2267 0
-1349 1606 2244 2245 2246 2247 2248 2249 2250 2251 2252 2253 2254 2255 2256 2257 2258 2259 2260 2261 2262 2263 2264 2265 2266 2267 0
-1350 1607 2244 2245 2246 2247 2248 2249 2250 2251 2252 2253 2254 2255 2256 2257 2258 2259 2260 2261 2262 2263 2264 2265 2266 2267 0
-1351 1608 2244 2245 2246 2247 2248 2249 2250 2251 2252 2253 2254 2255 2256 2257 2258 2259 2260 2261 2262 2263 2264 2265 2266 2267 0
-1352 1609 2244 2245 2246 2247 2248 2249 2250 2251 2252 2253 2254 2255 2256 2257 2258 2259 2260 2261 2262 2263 2264 2265 2266 2267 0
-1353 1610 2244 2245 2246 2247 2248 2249 2250 2251 2252 2253 2254 2255 2256 2257 2258 2259 2260 2261 2262 2263 2264 2265 2266 2267 0
-1354 1611 2244 2245 2246 2247 2248 2249 2250 2251 2252 2253 2254 2255 2256 2257 2258 2259 2260 2261 2262 2263 2264 2265 2266 2267 0
-1404 1661 2268 2269 2270 2271 2272 2273 2274 2275 2276 2277 2278 2279 2280 2281 2282 2283 2284 2285 2286 2287 0
-1405 1662 2268 2269 2270 2271 2272 2273 2274 2275 2276 2277 2278 2279 2280 2281 2282 2283 2284 2285 2286 2287 0
-1406 1663 2268 2269 2270 2271 2272 2273 2274 2275 2276 2277 2278 2279 2280 2281 2282 2283 2284 2285 2286 2287 0
-1407 1664 2268 2269 2270 2271 2272 2273 2274 2275 2276 2277 2278 2279 2280 2281 2282 2283 2284 2285 2286 2287 0
-1408 1665 2268 2269 2270 2271 2272 2273 2274 2275 2276 2277 2278 2279 2280 2281 2282 2283 2284 2285 2286 2287 0
-1409 1666 2268 2269 2270 2271 2272 2273 2274 2275 2276 2277 2278 2279 2280 2281 2282 2283 2284 2285 2286 2287 0
-1410 1667 2268 2269 2270 2271 2272 2273 2274 2275 2276 2277 2278 2279 2280 2281 2282 2283 2284 2285 2286 2287 0
-1411 1668 2268 2269 2270 2271 2272 2273 2274 2275 2276 2277 2278 2279 2280 2281 2282 2283 2284 2285 2286 2287 0
-1412 1669 2268 2269 2270 2271 2272 2273 2274 2275 2276 2277 2278 2279 2280 2281 2282 2283 2284 2285 2286 2287 0
-1462 1719 2288 2289 2290 2291 2292 2293 2294 2295 2296 2297 2298 2299 2300 2301 2302 2303 0
-1463 1720 2288 2289 2290 2291 2292 2293 2294 2295 2296 2297 2298 2299 2300 2301 2302 2303 0
-1464 1721 2288 2289 2290 2291 2292 2293 2294 2295 2296 2297 2298 2299 2300 2301 2302 2303 0
-1465 1722 2288 2289 2290 2291 2292 2293 2294 2295 2296 2297 2298 2299 2300 2301 2302 2303 0
-1466 1723 2288 2289 2290 2291 2292 2293 2294 2295 2296 2297 2298 2299 2300 2301 2302 2303 0
-1467 1724 2288 2289 2290 2291 2292 2293 2294 2295 2296 2297 2298 2299 2300 2301 2302 2303 0
-1468 1725 2288 2289 2290 2291 2292 2293 2294 2295 2296 2297 2298 2299 2300 2301 2302 2303 0
-1469 1726 2288 2289 2290 2291 2292 2293 2294 2295 2296 2297 2298 2299 2300 2301 2302 2303 0
