p cnf 1621 27077
119 0
124 0
4 0
7 0
65 0
66 0
180 0
182 0
1147 0
1152 0
1029 0
1036 0
1207 0
1209 0
1093 0
1094 0
1 2 3 4 5 6 0
-1 -2 0
-1 -3 0
-1 -4 0
-1 -5 0
-1 -6 0
-2 -3 0
-2 -4 0
-2 -5 0
-2 -6 0
-3 -4 0
-3 -5 0
-3 -6 0
-4 -5 0
-4 -6 0
-5 -6 0
7 8 9 10 0
-7 -8 0
-7 -9 0
-7 -10 0
-8 -9 0
-8 -10 0
-9 -10 0
60 61 62 63 64 65 0
-60 -61 0
-60 -62 0
-60 -63 0
-60 -64 0
-60 -65 0
-61 -62 0
-61 -63 0
-61 -64 0
-61 -65 0
-62 -63 0
-62 -64 0
-62 -65 0
-63 -64 0
-63 -65 0
-64 -65 0
66 67 68 69 0
-66 -67 0
-66 -68 0
-66 -69 0
-67 -68 0
-67 -69 0
-68 -69 0
119 120 121 122 123 0
-119 -120 0
-119 -121 0
-119 -122 0
-119 -123 0
-120 -121 0
-120 -122 0
-120 -123 0
-121 -122 0
-121 -123 0
-122 -123 0
124 125 126 127 0
-124 -125 0
-124 -126 0
-124 -127 0
-125 -126 0
-125 -127 0
-126 -127 0
177 178 179 180 0
-177 -178 0
-177 -179 0
-177 -180 0
-178 -179 0
-178 -180 0
-179 -180 0
181 182 183 184 0
-181 -182 0
-181 -183 0
-181 -184 0
-182 -183 0
-182 -184 0
-183 -184 0
-1 -7 12 0
-12 7 0
-12 1 0
-1 -8 14 0
-14 8 0
-14 1 0
-1 -9 16 0
-16 9 0
-16 1 0
-1 -10 18 0
-18 10 0
-18 1 0
-2 -7 20 0
-20 7 0
-20 2 0
-2 -8 22 0
-22 8 0
-22 2 0
-2 -9 24 0
-24 9 0
-24 2 0
-2 -10 26 0
-26 10 0
-26 2 0
-3 -7 28 0
-28 7 0
-28 3 0
-3 -8 30 0
-30 8 0
-30 3 0
-3 -9 32 0
-32 9 0
-32 3 0
-3 -10 34 0
-34 10 0
-34 3 0
-4 -7 36 0
-36 7 0
-36 4 0
-4 -8 38 0
-38 8 0
-38 4 0
-4 -9 40 0
-40 9 0
-40 4 0
-4 -10 42 0
-42 10 0
-42 4 0
-5 -7 44 0
-44 7 0
-44 5 0
-5 -8 46 0
-46 8 0
-46 5 0
-5 -9 48 0
-48 9 0
-48 5 0
-5 -10 50 0
-50 10 0
-50 5 0
-6 -7 52 0
-52 7 0
-52 6 0
-6 -8 54 0
-54 8 0
-54 6 0
-6 -9 56 0
-56 9 0
-56 6 0
-6 -10 58 0
-58 10 0
-58 6 0
-60 -66 71 0
-71 66 0
-71 60 0
-60 -67 73 0
-73 67 0
-73 60 0
-60 -68 75 0
-75 68 0
-75 60 0
-60 -69 77 0
-77 69 0
-77 60 0
-61 -66 79 0
-79 66 0
-79 61 0
-61 -67 81 0
-81 67 0
-81 61 0
-61 -68 83 0
-83 68 0
-83 61 0
-61 -69 85 0
-85 69 0
-85 61 0
-62 -66 87 0
-87 66 0
-87 62 0
-62 -67 89 0
-89 67 0
-89 62 0
-62 -68 91 0
-91 68 0
-91 62 0
-62 -69 93 0
-93 69 0
-93 62 0
-63 -66 95 0
-95 66 0
-95 63 0
-63 -67 97 0
-97 67 0
-97 63 0
-63 -68 99 0
-99 68 0
-99 63 0
-63 -69 101 0
-101 69 0
-101 63 0
-64 -66 103 0
-103 66 0
-103 64 0
-64 -67 105 0
-105 67 0
-105 64 0
-64 -68 107 0
-107 68 0
-107 64 0
-64 -69 109 0
-109 69 0
-109 64 0
-65 -66 111 0
-111 66 0
-111 65 0
-65 -67 113 0
-113 67 0
-113 65 0
-65 -68 115 0
-115 68 0
-115 65 0
-65 -69 117 0
-117 69 0
-117 65 0
-119 -124 129 0
-129 124 0
-129 119 0
-119 -125 131 0
-131 125 0
-131 119 0
-119 -126 133 0
-133 126 0
-133 119 0
-119 -127 135 0
-135 127 0
-135 119 0
-119 -124 137 0
-120 -124 137 0
-137 124 0
-137 119 120 0
-119 -125 139 0
-120 -125 139 0
-139 125 0
-139 119 120 0
-119 -126 141 0
-120 -126 141 0
-141 126 0
-141 119 120 0
-119 -127 143 0
-120 -127 143 0
-143 127 0
-143 119 120 0
-120 -124 145 0
-121 -124 145 0
-145 124 0
-145 120 121 0
-120 -125 147 0
-121 -125 147 0
-147 125 0
-147 120 121 0
-120 -126 149 0
-121 -126 149 0
-149 126 0
-149 120 121 0
-120 -127 151 0
-121 -127 151 0
-151 127 0
-151 120 121 0
-121 -124 153 0
-122 -124 153 0
-153 124 0
-153 121 122 0
-121 -125 155 0
-122 -125 155 0
-155 125 0
-155 121 122 0
-121 -126 157 0
-122 -126 157 0
-157 126 0
-157 121 122 0
-121 -127 159 0
-122 -127 159 0
-159 127 0
-159 121 122 0
-122 -124 161 0
-123 -124 161 0
-161 124 0
-161 122 123 0
-122 -125 163 0
-123 -125 163 0
-163 125 0
-163 122 123 0
-122 -126 165 0
-123 -126 165 0
-165 126 0
-165 122 123 0
-122 -127 167 0
-123 -127 167 0
-167 127 0
-167 122 123 0
-123 -124 169 0
-169 124 0
-169 123 0
-123 -125 171 0
-171 125 0
-171 123 0
-123 -126 173 0
-173 126 0
-173 123 0
-123 -127 175 0
-175 127 0
-175 123 0
-177 -181 186 0
-186 181 0
-186 177 0
-177 -182 188 0
-188 182 0
-188 177 0
-177 -183 190 0
-190 183 0
-190 177 0
-177 -184 192 0
-192 184 0
-192 177 0
-177 -181 194 0
-178 -181 194 0
-194 181 0
-194 177 178 0
-177 -182 196 0
-178 -182 196 0
-196 182 0
-196 177 178 0
-177 -183 198 0
-178 -183 198 0
-198 183 0
-198 177 178 0
-177 -184 200 0
-178 -184 200 0
-200 184 0
-200 177 178 0
-177 -181 202 0
-178 -181 202 0
-179 -181 202 0
-202 181 0
-202 177 178 179 0
-177 -182 204 0
-178 -182 204 0
-179 -182 204 0
-204 182 0
-204 177 178 179 0
-177 -183 206 0
-178 -183 206 0
-179 -183 206 0
-206 183 0
-206 177 178 179 0
-177 -184 208 0
-178 -184 208 0
-179 -184 208 0
-208 184 0
-208 177 178 179 0
-178 -181 210 0
-179 -181 210 0
-180 -181 210 0
-210 181 0
-210 178 179 180 0
-178 -182 212 0
-179 -182 212 0
-180 -182 212 0
-212 182 0
-212 178 179 180 0
-178 -183 214 0
-179 -183 214 0
-180 -183 214 0
-214 183 0
-214 178 179 180 0
-178 -184 216 0
-179 -184 216 0
-180 -184 216 0
-216 184 0
-216 178 179 180 0
-179 -181 218 0
-180 -181 218 0
-218 181 0
-218 179 180 0
-179 -182 220 0
-180 -182 220 0
-220 182 0
-220 179 180 0
-179 -183 222 0
-180 -183 222 0
-222 183 0
-222 179 180 0
-179 -184 224 0
-180 -184 224 0
-224 184 0
-224 179 180 0
-180 -181 226 0
-226 181 0
-226 180 0
-180 -182 228 0
-228 182 0
-228 180 0
-180 -183 230 0
-230 183 0
-230 180 0
-180 -184 232 0
-232 184 0
-232 180 0
-12 234 0
-71 234 0
-129 234 0
-186 234 0
-234 12 71 129 186 0
-14 235 0
-73 235 0
-131 235 0
-188 235 0
-235 14 73 131 188 0
-16 236 0
-75 236 0
-133 236 0
-190 236 0
-236 16 75 133 190 0
-18 237 0
-77 237 0
-135 237 0
-192 237 0
-237 18 77 135 192 0
-20 238 0
-79 238 0
-137 238 0
-194 238 0
-238 20 79 137 194 0
-22 239 0
-81 239 0
-139 239 0
-196 239 0
-239 22 81 139 196 0
-24 240 0
-83 240 0
-141 240 0
-198 240 0
-240 24 83 141 198 0
-26 241 0
-85 241 0
-143 241 0
-200 241 0
-241 26 85 143 200 0
-28 242 0
-87 242 0
-145 242 0
-202 242 0
-242 28 87 145 202 0
-30 243 0
-89 243 0
-147 243 0
-204 243 0
-243 30 89 147 204 0
-32 244 0
-91 244 0
-149 244 0
-206 244 0
-244 32 91 149 206 0
-34 245 0
-93 245 0
-151 245 0
-208 245 0
-245 34 93 151 208 0
-36 246 0
-95 246 0
-153 246 0
-210 246 0
-246 36 95 153 210 0
-38 247 0
-97 247 0
-155 247 0
-212 247 0
-247 38 97 155 212 0
-40 248 0
-99 248 0
-157 248 0
-214 248 0
-248 40 99 157 214 0
-42 249 0
-101 249 0
-159 249 0
-216 249 0
-249 42 101 159 216 0
-44 250 0
-103 250 0
-161 250 0
-218 250 0
-250 44 103 161 218 0
-46 251 0
-105 251 0
-163 251 0
-220 251 0
-251 46 105 163 220 0
-48 252 0
-107 252 0
-165 252 0
-222 252 0
-252 48 107 165 222 0
-50 253 0
-109 253 0
-167 253 0
-224 253 0
-253 50 109 167 224 0
-52 254 0
-111 254 0
-169 254 0
-226 254 0
-254 52 111 169 226 0
-54 255 0
-113 255 0
-171 255 0
-228 255 0
-255 54 113 171 228 0
-56 256 0
-115 256 0
-173 256 0
-230 256 0
-256 56 115 173 230 0
-58 257 0
-117 257 0
-175 257 0
-232 257 0
-257 58 117 175 232 0
-12 -71 0
-14 -73 0
-16 -75 0
-18 -77 0
-20 -79 0
-22 -81 0
-24 -83 0
-26 -85 0
-28 -87 0
-30 -89 0
-32 -91 0
-34 -93 0
-36 -95 0
-38 -97 0
-40 -99 0
-42 -101 0
-44 -103 0
-46 -105 0
-48 -107 0
-50 -109 0
-52 -111 0
-54 -113 0
-56 -115 0
-58 -117 0
-12 -129 0
-14 -131 0
-16 -133 0
-18 -135 0
-20 -137 0
-22 -139 0
-24 -141 0
-26 -143 0
-28 -145 0
-30 -147 0
-32 -149 0
-34 -151 0
-36 -153 0
-38 -155 0
-40 -157 0
-42 -159 0
-44 -161 0
-46 -163 0
-48 -165 0
-50 -167 0
-52 -169 0
-54 -171 0
-56 -173 0
-58 -175 0
-12 -186 0
-14 -188 0
-16 -190 0
-18 -192 0
-20 -194 0
-22 -196 0
-24 -198 0
-26 -200 0
-28 -202 0
-30 -204 0
-32 -206 0
-34 -208 0
-36 -210 0
-38 -212 0
-40 -214 0
-42 -216 0
-44 -218 0
-46 -220 0
-48 -222 0
-50 -224 0
-52 -226 0
-54 -228 0
-56 -230 0
-58 -232 0
-71 -129 0
-73 -131 0
-75 -133 0
-77 -135 0
-79 -137 0
-81 -139 0
-83 -141 0
-85 -143 0
-87 -145 0
-89 -147 0
-91 -149 0
-93 -151 0
-95 -153 0
-97 -155 0
-99 -157 0
-101 -159 0
-103 -161 0
-105 -163 0
-107 -165 0
-109 -167 0
-111 -169 0
-113 -171 0
-115 -173 0
-117 -175 0
-71 -186 0
-73 -188 0
-75 -190 0
-77 -192 0
-79 -194 0
-81 -196 0
-83 -198 0
-85 -200 0
-87 -202 0
-89 -204 0
-91 -206 0
-93 -208 0
-95 -210 0
-97 -212 0
-99 -214 0
-101 -216 0
-103 -218 0
-105 -220 0
-107 -222 0
-109 -224 0
-111 -226 0
-113 -228 0
-115 -230 0
-117 -232 0
-129 -186 0
-131 -188 0
-133 -190 0
-135 -192 0
-137 -194 0
-139 -196 0
-141 -198 0
-143 -200 0
-145 -202 0
-147 -204 0
-149 -206 0
-151 -208 0
-153 -210 0
-155 -212 0
-157 -214 0
-159 -216 0
-161 -218 0
-163 -220 0
-165 -222 0
-167 -224 0
-169 -226 0
-171 -228 0
-173 -230 0
-175 -232 0
-1 -8 234 0
-1 -9 235 0
-1 -10 236 0
-2 -8 238 0
-2 -9 239 0
-2 -10 240 0
-3 -8 242 0
-3 -9 243 0
-3 -10 244 0
-4 -8 246 0
-4 -9 247 0
-4 -10 248 0
-5 -8 250 0
-5 -9 251 0
-5 -10 252 0
-6 -8 254 0
-6 -9 255 0
-6 -10 256 0
-60 -67 234 0
-60 -68 235 0
-60 -69 236 0
-61 -67 238 0
-61 -68 239 0
-61 -69 240 0
-62 -67 242 0
-62 -68 243 0
-62 -69 244 0
-63 -67 246 0
-63 -68 247 0
-63 -69 248 0
-64 -67 250 0
-64 -68 251 0
-64 -69 252 0
-65 -67 254 0
-65 -68 255 0
-65 -69 256 0
-119 -125 234 238 0
-119 -126 235 239 0
-119 -127 236 240 0
-120 -125 238 242 0
-120 -126 239 243 0
-120 -127 240 244 0
-121 -125 242 246 0
-121 -126 243 247 0
-121 -127 244 248 0
-122 -125 246 250 0
-122 -126 247 251 0
-122 -127 248 252 0
-123 -125 250 254 0
-123 -126 251 255 0
-123 -127 252 256 0
-177 -182 234 238 0
-177 -182 234 242 0
-177 -182 238 242 0
-177 -183 235 239 0
-177 -183 235 243 0
-177 -183 239 243 0
-177 -184 236 240 0
-177 -184 236 244 0
-177 -184 240 244 0
-178 -182 238 242 0
-178 -182 238 246 0
-178 -182 242 246 0
-178 -183 239 243 0
-178 -183 239 247 0
-178 -183 243 247 0
-178 -184 240 244 0
-178 -184 240 248 0
-178 -184 244 248 0
-179 -182 242 246 0
-179 -182 242 250 0
-179 -182 246 250 0
-179 -183 243 247 0
-179 -183 243 251 0
-179 -183 247 251 0
-179 -184 244 248 0
-179 -184 244 252 0
-179 -184 248 252 0
-180 -182 246 250 0
-180 -182 246 254 0
-180 -182 250 254 0
-180 -183 247 251 0
-180 -183 247 255 0
-180 -183 251 255 0
-180 -184 248 252 0
-180 -184 248 256 0
-180 -184 252 256 0
-12 -235 13 0
-13 12 0
-13 235 0
-14 -236 15 0
-15 14 0
-15 236 0
-16 -237 17 0
-17 16 0
-17 237 0
-19 0
-20 -239 21 0
-21 20 0
-21 239 0
-22 -240 23 0
-23 22 0
-23 240 0
-24 -241 25 0
-25 24 0
-25 241 0
-27 0
-28 -243 29 0
-29 28 0
-29 243 0
-30 -244 31 0
-31 30 0
-31 244 0
-32 -245 33 0
-33 32 0
-33 245 0
-35 0
-36 -247 37 0
-37 36 0
-37 247 0
-38 -248 39 0
-39 38 0
-39 248 0
-40 -249 41 0
-41 40 0
-41 249 0
-43 0
-44 -251 45 0
-45 44 0
-45 251 0
-46 -252 47 0
-47 46 0
-47 252 0
-48 -253 49 0
-49 48 0
-49 253 0
-51 0
-52 -255 53 0
-53 52 0
-53 255 0
-54 -256 55 0
-55 54 0
-55 256 0
-56 -257 57 0
-57 56 0
-57 257 0
-59 0
-11 -13 0
-11 -15 0
-11 -17 0
-11 -19 0
-11 -21 0
-11 -23 0
-11 -25 0
-11 -27 0
-11 -29 0
-11 -31 0
-11 -33 0
-11 -35 0
-11 -37 0
-11 -39 0
-11 -41 0
-11 -43 0
-11 -45 0
-11 -47 0
-11 -49 0
-11 -51 0
-11 -53 0
-11 -55 0
-11 -57 0
-11 -59 0
11 13 15 17 19 21 23 25 27 29 31 33 35 37 39 41 43 45 47 49 51 53 55 57 59 0
-71 -235 72 0
-72 71 0
-72 235 0
-73 -236 74 0
-74 73 0
-74 236 0
-75 -237 76 0
-76 75 0
-76 237 0
-78 0
-79 -239 80 0
-80 79 0
-80 239 0
-81 -240 82 0
-82 81 0
-82 240 0
-83 -241 84 0
-84 83 0
-84 241 0
-86 0
-87 -243 88 0
-88 87 0
-88 243 0
-89 -244 90 0
-90 89 0
-90 244 0
-91 -245 92 0
-92 91 0
-92 245 0
-94 0
-95 -247 96 0
-96 95 0
-96 247 0
-97 -248 98 0
-98 97 0
-98 248 0
-99 -249 100 0
-100 99 0
-100 249 0
-102 0
-103 -251 104 0
-104 103 0
-104 251 0
-105 -252 106 0
-106 105 0
-106 252 0
-107 -253 108 0
-108 107 0
-108 253 0
-110 0
-111 -255 112 0
-112 111 0
-112 255 0
-113 -256 114 0
-114 113 0
-114 256 0
-115 -257 116 0
-116 115 0
-116 257 0
-118 0
-70 -72 0
-70 -74 0
-70 -76 0
-70 -78 0
-70 -80 0
-70 -82 0
-70 -84 0
-70 -86 0
-70 -88 0
-70 -90 0
-70 -92 0
-70 -94 0
-70 -96 0
-70 -98 0
-70 -100 0
-70 -102 0
-70 -104 0
-70 -106 0
-70 -108 0
-70 -110 0
-70 -112 0
-70 -114 0
-70 -116 0
-70 -118 0
70 72 74 76 78 80 82 84 86 88 90 92 94 96 98 100 102 104 106 108 110 112 114 116 118 0
-129 -235 130 0
-130 129 0
-130 235 0
-131 -236 132 0
-132 131 0
-132 236 0
-133 -237 134 0
-134 133 0
-134 237 0
-136 0
-137 -239 138 0
-138 137 0
-138 239 0
-139 -240 140 0
-140 139 0
-140 240 0
-141 -241 142 0
-142 141 0
-142 241 0
-144 0
-145 -243 146 0
-146 145 0
-146 243 0
-147 -244 148 0
-148 147 0
-148 244 0
-149 -245 150 0
-150 149 0
-150 245 0
-152 0
-153 -247 154 0
-154 153 0
-154 247 0
-155 -248 156 0
-156 155 0
-156 248 0
-157 -249 158 0
-158 157 0
-158 249 0
-160 0
-161 -251 162 0
-162 161 0
-162 251 0
-163 -252 164 0
-164 163 0
-164 252 0
-165 -253 166 0
-166 165 0
-166 253 0
-168 0
-169 -255 170 0
-170 169 0
-170 255 0
-171 -256 172 0
-172 171 0
-172 256 0
-173 -257 174 0
-174 173 0
-174 257 0
-176 0
-128 -130 0
-128 -132 0
-128 -134 0
-128 -136 0
-128 -138 0
-128 -140 0
-128 -142 0
-128 -144 0
-128 -146 0
-128 -148 0
-128 -150 0
-128 -152 0
-128 -154 0
-128 -156 0
-128 -158 0
-128 -160 0
-128 -162 0
-128 -164 0
-128 -166 0
-128 -168 0
-128 -170 0
-128 -172 0
-128 -174 0
-128 -176 0
128 130 132 134 136 138 140 142 144 146 148 150 152 154 156 158 160 162 164 166 168 170 172 174 176 0
-186 -235 187 0
-187 186 0
-187 235 0
-188 -236 189 0
-189 188 0
-189 236 0
-190 -237 191 0
-191 190 0
-191 237 0
-193 0
-194 -239 195 0
-195 194 0
-195 239 0
-196 -240 197 0
-197 196 0
-197 240 0
-198 -241 199 0
-199 198 0
-199 241 0
-201 0
-202 -243 203 0
-203 202 0
-203 243 0
-204 -244 205 0
-205 204 0
-205 244 0
-206 -245 207 0
-207 206 0
-207 245 0
-209 0
-210 -247 211 0
-211 210 0
-211 247 0
-212 -248 213 0
-213 212 0
-213 248 0
-214 -249 215 0
-215 214 0
-215 249 0
-217 0
-218 -251 219 0
-219 218 0
-219 251 0
-220 -252 221 0
-221 220 0
-221 252 0
-222 -253 223 0
-223 222 0
-223 253 0
-225 0
-226 -255 227 0
-227 226 0
-227 255 0
-228 -256 229 0
-229 228 0
-229 256 0
-230 -257 231 0
-231 230 0
-231 257 0
-233 0
-185 -187 0
-185 -189 0
-185 -191 0
-185 -193 0
-185 -195 0
-185 -197 0
-185 -199 0
-185 -201 0
-185 -203 0
-185 -205 0
-185 -207 0
-185 -209 0
-185 -211 0
-185 -213 0
-185 -215 0
-185 -217 0
-185 -219 0
-185 -221 0
-185 -223 0
-185 -225 0
-185 -227 0
-185 -229 0
-185 -231 0
-185 -233 0
185 187 189 191 193 195 197 199 201 203 205 207 209 211 213 215 217 219 221 223 225 227 229 231 233 0
258 259 260 261 262 263 0
-258 -259 0
-258 -260 0
-258 -261 0
-258 -262 0
-258 -263 0
-259 -260 0
-259 -261 0
-259 -262 0
-259 -263 0
-260 -261 0
-260 -262 0
-260 -263 0
-261 -262 0
-261 -263 0
-262 -263 0
264 265 266 267 0
-264 -265 0
-264 -266 0
-264 -267 0
-265 -266 0
-265 -267 0
-266 -267 0
317 318 319 320 321 322 0
-317 -318 0
-317 -319 0
-317 -320 0
-317 -321 0
-317 -322 0
-318 -319 0
-318 -320 0
-318 -321 0
-318 -322 0
-319 -320 0
-319 -321 0
-319 -322 0
-320 -321 0
-320 -322 0
-321 -322 0
323 324 325 326 0
-323 -324 0
-323 -325 0
-323 -326 0
-324 -325 0
-324 -326 0
-325 -326 0
376 377 378 379 380 0
-376 -377 0
-376 -378 0
-376 -379 0
-376 -380 0
-377 -378 0
-377 -379 0
-377 -380 0
-378 -379 0
-378 -380 0
-379 -380 0
381 382 383 384 0
-381 -382 0
-381 -383 0
-381 -384 0
-382 -383 0
-382 -384 0
-383 -384 0
434 435 436 437 0
-434 -435 0
-434 -436 0
-434 -437 0
-435 -436 0
-435 -437 0
-436 -437 0
438 439 440 441 0
-438 -439 0
-438 -440 0
-438 -441 0
-439 -440 0
-439 -441 0
-440 -441 0
-258 -264 269 0
-269 264 0
-269 258 0
-258 -265 271 0
-271 265 0
-271 258 0
-258 -266 273 0
-273 266 0
-273 258 0
-258 -267 275 0
-275 267 0
-275 258 0
-259 -264 277 0
-277 264 0
-277 259 0
-259 -265 279 0
-279 265 0
-279 259 0
-259 -266 281 0
-281 266 0
-281 259 0
-259 -267 283 0
-283 267 0
-283 259 0
-260 -264 285 0
-285 264 0
-285 260 0
-260 -265 287 0
-287 265 0
-287 260 0
-260 -266 289 0
-289 266 0
-289 260 0
-260 -267 291 0
-291 267 0
-291 260 0
-261 -264 293 0
-293 264 0
-293 261 0
-261 -265 295 0
-295 265 0
-295 261 0
-261 -266 297 0
-297 266 0
-297 261 0
-261 -267 299 0
-299 267 0
-299 261 0
-262 -264 301 0
-301 264 0
-301 262 0
-262 -265 303 0
-303 265 0
-303 262 0
-262 -266 305 0
-305 266 0
-305 262 0
-262 -267 307 0
-307 267 0
-307 262 0
-263 -264 309 0
-309 264 0
-309 263 0
-263 -265 311 0
-311 265 0
-311 263 0
-263 -266 313 0
-313 266 0
-313 263 0
-263 -267 315 0
-315 267 0
-315 263 0
-317 -323 328 0
-328 323 0
-328 317 0
-317 -324 330 0
-330 324 0
-330 317 0
-317 -325 332 0
-332 325 0
-332 317 0
-317 -326 334 0
-334 326 0
-334 317 0
-318 -323 336 0
-336 323 0
-336 318 0
-318 -324 338 0
-338 324 0
-338 318 0
-318 -325 340 0
-340 325 0
-340 318 0
-318 -326 342 0
-342 326 0
-342 318 0
-319 -323 344 0
-344 323 0
-344 319 0
-319 -324 346 0
-346 324 0
-346 319 0
-319 -325 348 0
-348 325 0
-348 319 0
-319 -326 350 0
-350 326 0
-350 319 0
-320 -323 352 0
-352 323 0
-352 320 0
-320 -324 354 0
-354 324 0
-354 320 0
-320 -325 356 0
-356 325 0
-356 320 0
-320 -326 358 0
-358 326 0
-358 320 0
-321 -323 360 0
-360 323 0
-360 321 0
-321 -324 362 0
-362 324 0
-362 321 0
-321 -325 364 0
-364 325 0
-364 321 0
-321 -326 366 0
-366 326 0
-366 321 0
-322 -323 368 0
-368 323 0
-368 322 0
-322 -324 370 0
-370 324 0
-370 322 0
-322 -325 372 0
-372 325 0
-372 322 0
-322 -326 374 0
-374 326 0
-374 322 0
-376 -381 386 0
-386 381 0
-386 376 0
-376 -382 388 0
-388 382 0
-388 376 0
-376 -383 390 0
-390 383 0
-390 376 0
-376 -384 392 0
-392 384 0
-392 376 0
-376 -381 394 0
-377 -381 394 0
-394 381 0
-394 376 377 0
-376 -382 396 0
-377 -382 396 0
-396 382 0
-396 376 377 0
-376 -383 398 0
-377 -383 398 0
-398 383 0
-398 376 377 0
-376 -384 400 0
-377 -384 400 0
-400 384 0
-400 376 377 0
-377 -381 402 0
-378 -381 402 0
-402 381 0
-402 377 378 0
-377 -382 404 0
-378 -382 404 0
-404 382 0
-404 377 378 0
-377 -383 406 0
-378 -383 406 0
-406 383 0
-406 377 378 0
-377 -384 408 0
-378 -384 408 0
-408 384 0
-408 377 378 0
-378 -381 410 0
-379 -381 410 0
-410 381 0
-410 378 379 0
-378 -382 412 0
-379 -382 412 0
-412 382 0
-412 378 379 0
-378 -383 414 0
-379 -383 414 0
-414 383 0
-414 378 379 0
-378 -384 416 0
-379 -384 416 0
-416 384 0
-416 378 379 0
-379 -381 418 0
-380 -381 418 0
-418 381 0
-418 379 380 0
-379 -382 420 0
-380 -382 420 0
-420 382 0
-420 379 380 0
-379 -383 422 0
-380 -383 422 0
-422 383 0
-422 379 380 0
-379 -384 424 0
-380 -384 424 0
-424 384 0
-424 379 380 0
-380 -381 426 0
-426 381 0
-426 380 0
-380 -382 428 0
-428 382 0
-428 380 0
-380 -383 430 0
-430 383 0
-430 380 0
-380 -384 432 0
-432 384 0
-432 380 0
-434 -438 443 0
-443 438 0
-443 434 0
-434 -439 445 0
-445 439 0
-445 434 0
-434 -440 447 0
-447 440 0
-447 434 0
-434 -441 449 0
-449 441 0
-449 434 0
-434 -438 451 0
-435 -438 451 0
-451 438 0
-451 434 435 0
-434 -439 453 0
-435 -439 453 0
-453 439 0
-453 434 435 0
-434 -440 455 0
-435 -440 455 0
-455 440 0
-455 434 435 0
-434 -441 457 0
-435 -441 457 0
-457 441 0
-457 434 435 0
-434 -438 459 0
-435 -438 459 0
-436 -438 459 0
-459 438 0
-459 434 435 436 0
-434 -439 461 0
-435 -439 461 0
-436 -439 461 0
-461 439 0
-461 434 435 436 0
-434 -440 463 0
-435 -440 463 0
-436 -440 463 0
-463 440 0
-463 434 435 436 0
-434 -441 465 0
-435 -441 465 0
-436 -441 465 0
-465 441 0
-465 434 435 436 0
-435 -438 467 0
-436 -438 467 0
-437 -438 467 0
-467 438 0
-467 435 436 437 0
-435 -439 469 0
-436 -439 469 0
-437 -439 469 0
-469 439 0
-469 435 436 437 0
-435 -440 471 0
-436 -440 471 0
-437 -440 471 0
-471 440 0
-471 435 436 437 0
-435 -441 473 0
-436 -441 473 0
-437 -441 473 0
-473 441 0
-473 435 436 437 0
-436 -438 475 0
-437 -438 475 0
-475 438 0
-475 436 437 0
-436 -439 477 0
-437 -439 477 0
-477 439 0
-477 436 437 0
-436 -440 479 0
-437 -440 479 0
-479 440 0
-479 436 437 0
-436 -441 481 0
-437 -441 481 0
-481 441 0
-481 436 437 0
-437 -438 483 0
-483 438 0
-483 437 0
-437 -439 485 0
-485 439 0
-485 437 0
-437 -440 487 0
-487 440 0
-487 437 0
-437 -441 489 0
-489 441 0
-489 437 0
-269 491 0
-328 491 0
-386 491 0
-443 491 0
-491 269 328 386 443 0
-271 492 0
-330 492 0
-388 492 0
-445 492 0
-492 271 330 388 445 0
-273 493 0
-332 493 0
-390 493 0
-447 493 0
-493 273 332 390 447 0
-275 494 0
-334 494 0
-392 494 0
-449 494 0
-494 275 334 392 449 0
-277 495 0
-336 495 0
-394 495 0
-451 495 0
-495 277 336 394 451 0
-279 496 0
-338 496 0
-396 496 0
-453 496 0
-496 279 338 396 453 0
-281 497 0
-340 497 0
-398 497 0
-455 497 0
-497 281 340 398 455 0
-283 498 0
-342 498 0
-400 498 0
-457 498 0
-498 283 342 400 457 0
-285 499 0
-344 499 0
-402 499 0
-459 499 0
-499 285 344 402 459 0
-287 500 0
-346 500 0
-404 500 0
-461 500 0
-500 287 346 404 461 0
-289 501 0
-348 501 0
-406 501 0
-463 501 0
-501 289 348 406 463 0
-291 502 0
-350 502 0
-408 502 0
-465 502 0
-502 291 350 408 465 0
-293 503 0
-352 503 0
-410 503 0
-467 503 0
-503 293 352 410 467 0
-295 504 0
-354 504 0
-412 504 0
-469 504 0
-504 295 354 412 469 0
-297 505 0
-356 505 0
-414 505 0
-471 505 0
-505 297 356 414 471 0
-299 506 0
-358 506 0
-416 506 0
-473 506 0
-506 299 358 416 473 0
-301 507 0
-360 507 0
-418 507 0
-475 507 0
-507 301 360 418 475 0
-303 508 0
-362 508 0
-420 508 0
-477 508 0
-508 303 362 420 477 0
-305 509 0
-364 509 0
-422 509 0
-479 509 0
-509 305 364 422 479 0
-307 510 0
-366 510 0
-424 510 0
-481 510 0
-510 307 366 424 481 0
-309 511 0
-368 511 0
-426 511 0
-483 511 0
-511 309 368 426 483 0
-311 512 0
-370 512 0
-428 512 0
-485 512 0
-512 311 370 428 485 0
-313 513 0
-372 513 0
-430 513 0
-487 513 0
-513 313 372 430 487 0
-315 514 0
-374 514 0
-432 514 0
-489 514 0
-514 315 374 432 489 0
-269 -328 0
-271 -330 0
-273 -332 0
-275 -334 0
-277 -336 0
-279 -338 0
-281 -340 0
-283 -342 0
-285 -344 0
-287 -346 0
-289 -348 0
-291 -350 0
-293 -352 0
-295 -354 0
-297 -356 0
-299 -358 0
-301 -360 0
-303 -362 0
-305 -364 0
-307 -366 0
-309 -368 0
-311 -370 0
-313 -372 0
-315 -374 0
-269 -386 0
-271 -388 0
-273 -390 0
-275 -392 0
-277 -394 0
-279 -396 0
-281 -398 0
-283 -400 0
-285 -402 0
-287 -404 0
-289 -406 0
-291 -408 0
-293 -410 0
-295 -412 0
-297 -414 0
-299 -416 0
-301 -418 0
-303 -420 0
-305 -422 0
-307 -424 0
-309 -426 0
-311 -428 0
-313 -430 0
-315 -432 0
-269 -443 0
-271 -445 0
-273 -447 0
-275 -449 0
-277 -451 0
-279 -453 0
-281 -455 0
-283 -457 0
-285 -459 0
-287 -461 0
-289 -463 0
-291 -465 0
-293 -467 0
-295 -469 0
-297 -471 0
-299 -473 0
-301 -475 0
-303 -477 0
-305 -479 0
-307 -481 0
-309 -483 0
-311 -485 0
-313 -487 0
-315 -489 0
-328 -386 0
-330 -388 0
-332 -390 0
-334 -392 0
-336 -394 0
-338 -396 0
-340 -398 0
-342 -400 0
-344 -402 0
-346 -404 0
-348 -406 0
-350 -408 0
-352 -410 0
-354 -412 0
-356 -414 0
-358 -416 0
-360 -418 0
-362 -420 0
-364 -422 0
-366 -424 0
-368 -426 0
-370 -428 0
-372 -430 0
-374 -432 0
-328 -443 0
-330 -445 0
-332 -447 0
-334 -449 0
-336 -451 0
-338 -453 0
-340 -455 0
-342 -457 0
-344 -459 0
-346 -461 0
-348 -463 0
-350 -465 0
-352 -467 0
-354 -469 0
-356 -471 0
-358 -473 0
-360 -475 0
-362 -477 0
-364 -479 0
-366 -481 0
-368 -483 0
-370 -485 0
-372 -487 0
-374 -489 0
-386 -443 0
-388 -445 0
-390 -447 0
-392 -449 0
-394 -451 0
-396 -453 0
-398 -455 0
-400 -457 0
-402 -459 0
-404 -461 0
-406 -463 0
-408 -465 0
-410 -467 0
-412 -469 0
-414 -471 0
-416 -473 0
-418 -475 0
-420 -477 0
-422 -479 0
-424 -481 0
-426 -483 0
-428 -485 0
-430 -487 0
-432 -489 0
-258 -265 491 0
-258 -266 492 0
-258 -267 493 0
-259 -265 495 0
-259 -266 496 0
-259 -267 497 0
-260 -265 499 0
-260 -266 500 0
-260 -267 501 0
-261 -265 503 0
-261 -266 504 0
-261 -267 505 0
-262 -265 507 0
-262 -266 508 0
-262 -267 509 0
-263 -265 511 0
-263 -266 512 0
-263 -267 513 0
-317 -324 491 0
-317 -325 492 0
-317 -326 493 0
-318 -324 495 0
-318 -325 496 0
-318 -326 497 0
-319 -324 499 0
-319 -325 500 0
-319 -326 501 0
-320 -324 503 0
-320 -325 504 0
-320 -326 505 0
-321 -324 507 0
-321 -325 508 0
-321 -326 509 0
-322 -324 511 0
-322 -325 512 0
-322 -326 513 0
-376 -382 491 495 0
-376 -383 492 496 0
-376 -384 493 497 0
-377 -382 495 499 0
-377 -383 496 500 0
-377 -384 497 501 0
-378 -382 499 503 0
-378 -383 500 504 0
-378 -384 501 505 0
-379 -382 503 507 0
-379 -383 504 508 0
-379 -384 505 509 0
-380 -382 507 511 0
-380 -383 508 512 0
-380 -384 509 513 0
-434 -439 491 495 0
-434 -439 491 499 0
-434 -439 495 499 0
-434 -440 492 496 0
-434 -440 492 500 0
-434 -440 496 500 0
-434 -441 493 497 0
-434 -441 493 501 0
-434 -441 497 501 0
-435 -439 495 499 0
-435 -439 495 503 0
-435 -439 499 503 0
-435 -440 496 500 0
-435 -440 496 504 0
-435 -440 500 504 0
-435 -441 497 501 0
-435 -441 497 505 0
-435 -441 501 505 0
-436 -439 499 503 0
-436 -439 499 507 0
-436 -439 503 507 0
-436 -440 500 504 0
-436 -440 500 508 0
-436 -440 504 508 0
-436 -441 501 505 0
-436 -441 501 509 0
-436 -441 505 509 0
-437 -439 503 507 0
-437 -439 503 511 0
-437 -439 507 511 0
-437 -440 504 508 0
-437 -440 504 512 0
-437 -440 508 512 0
-437 -441 505 509 0
-437 -441 505 513 0
-437 -441 509 513 0
-269 -492 270 0
-270 269 0
-270 492 0
-271 -493 272 0
-272 271 0
-272 493 0
-273 -494 274 0
-274 273 0
-274 494 0
-276 0
-277 -496 278 0
-278 277 0
-278 496 0
-279 -497 280 0
-280 279 0
-280 497 0
-281 -498 282 0
-282 281 0
-282 498 0
-284 0
-285 -500 286 0
-286 285 0
-286 500 0
-287 -501 288 0
-288 287 0
-288 501 0
-289 -502 290 0
-290 289 0
-290 502 0
-292 0
-293 -504 294 0
-294 293 0
-294 504 0
-295 -505 296 0
-296 295 0
-296 505 0
-297 -506 298 0
-298 297 0
-298 506 0
-300 0
-301 -508 302 0
-302 301 0
-302 508 0
-303 -509 304 0
-304 303 0
-304 509 0
-305 -510 306 0
-306 305 0
-306 510 0
-308 0
-309 -512 310 0
-310 309 0
-310 512 0
-311 -513 312 0
-312 311 0
-312 513 0
-313 -514 314 0
-314 313 0
-314 514 0
-316 0
-268 -270 0
-268 -272 0
-268 -274 0
-268 -276 0
-268 -278 0
-268 -280 0
-268 -282 0
-268 -284 0
-268 -286 0
-268 -288 0
-268 -290 0
-268 -292 0
-268 -294 0
-268 -296 0
-268 -298 0
-268 -300 0
-268 -302 0
-268 -304 0
-268 -306 0
-268 -308 0
-268 -310 0
-268 -312 0
-268 -314 0
-268 -316 0
268 270 272 274 276 278 280 282 284 286 288 290 292 294 296 298 300 302 304 306 308 310 312 314 316 0
-328 -492 329 0
-329 328 0
-329 492 0
-330 -493 331 0
-331 330 0
-331 493 0
-332 -494 333 0
-333 332 0
-333 494 0
-335 0
-336 -496 337 0
-337 336 0
-337 496 0
-338 -497 339 0
-339 338 0
-339 497 0
-340 -498 341 0
-341 340 0
-341 498 0
-343 0
-344 -500 345 0
-345 344 0
-345 500 0
-346 -501 347 0
-347 346 0
-347 501 0
-348 -502 349 0
-349 348 0
-349 502 0
-351 0
-352 -504 353 0
-353 352 0
-353 504 0
-354 -505 355 0
-355 354 0
-355 505 0
-356 -506 357 0
-357 356 0
-357 506 0
-359 0
-360 -508 361 0
-361 360 0
-361 508 0
-362 -509 363 0
-363 362 0
-363 509 0
-364 -510 365 0
-365 364 0
-365 510 0
-367 0
-368 -512 369 0
-369 368 0
-369 512 0
-370 -513 371 0
-371 370 0
-371 513 0
-372 -514 373 0
-373 372 0
-373 514 0
-375 0
-327 -329 0
-327 -331 0
-327 -333 0
-327 -335 0
-327 -337 0
-327 -339 0
-327 -341 0
-327 -343 0
-327 -345 0
-327 -347 0
-327 -349 0
-327 -351 0
-327 -353 0
-327 -355 0
-327 -357 0
-327 -359 0
-327 -361 0
-327 -363 0
-327 -365 0
-327 -367 0
-327 -369 0
-327 -371 0
-327 -373 0
-327 -375 0
327 329 331 333 335 337 339 341 343 345 347 349 351 353 355 357 359 361 363 365 367 369 371 373 375 0
-386 -492 387 0
-387 386 0
-387 492 0
-388 -493 389 0
-389 388 0
-389 493 0
-390 -494 391 0
-391 390 0
-391 494 0
-393 0
-394 -496 395 0
-395 394 0
-395 496 0
-396 -497 397 0
-397 396 0
-397 497 0
-398 -498 399 0
-399 398 0
-399 498 0
-401 0
-402 -500 403 0
-403 402 0
-403 500 0
-404 -501 405 0
-405 404 0
-405 501 0
-406 -502 407 0
-407 406 0
-407 502 0
-409 0
-410 -504 411 0
-411 410 0
-411 504 0
-412 -505 413 0
-413 412 0
-413 505 0
-414 -506 415 0
-415 414 0
-415 506 0
-417 0
-418 -508 419 0
-419 418 0
-419 508 0
-420 -509 421 0
-421 420 0
-421 509 0
-422 -510 423 0
-423 422 0
-423 510 0
-425 0
-426 -512 427 0
-427 426 0
-427 512 0
-428 -513 429 0
-429 428 0
-429 513 0
-430 -514 431 0
-431 430 0
-431 514 0
-433 0
-385 -387 0
-385 -389 0
-385 -391 0
-385 -393 0
-385 -395 0
-385 -397 0
-385 -399 0
-385 -401 0
-385 -403 0
-385 -405 0
-385 -407 0
-385 -409 0
-385 -411 0
-385 -413 0
-385 -415 0
-385 -417 0
-385 -419 0
-385 -421 0
-385 -423 0
-385 -425 0
-385 -427 0
-385 -429 0
-385 -431 0
-385 -433 0
385 387 389 391 393 395 397 399 401 403 405 407 409 411 413 415 417 419 421 423 425 427 429 431 433 0
-443 -492 444 0
-444 443 0
-444 492 0
-445 -493 446 0
-446 445 0
-446 493 0
-447 -494 448 0
-448 447 0
-448 494 0
-450 0
-451 -496 452 0
-452 451 0
-452 496 0
-453 -497 454 0
-454 453 0
-454 497 0
-455 -498 456 0
-456 455 0
-456 498 0
-458 0
-459 -500 460 0
-460 459 0
-460 500 0
-461 -501 462 0
-462 461 0
-462 501 0
-463 -502 464 0
-464 463 0
-464 502 0
-466 0
-467 -504 468 0
-468 467 0
-468 504 0
-469 -505 470 0
-470 469 0
-470 505 0
-471 -506 472 0
-472 471 0
-472 506 0
-474 0
-475 -508 476 0
-476 475 0
-476 508 0
-477 -509 478 0
-478 477 0
-478 509 0
-479 -510 480 0
-480 479 0
-480 510 0
-482 0
-483 -512 484 0
-484 483 0
-484 512 0
-485 -513 486 0
-486 485 0
-486 513 0
-487 -514 488 0
-488 487 0
-488 514 0
-490 0
-442 -444 0
-442 -446 0
-442 -448 0
-442 -450 0
-442 -452 0
-442 -454 0
-442 -456 0
-442 -458 0
-442 -460 0
-442 -462 0
-442 -464 0
-442 -466 0
-442 -468 0
-442 -470 0
-442 -472 0
-442 -474 0
-442 -476 0
-442 -478 0
-442 -480 0
-442 -482 0
-442 -484 0
-442 -486 0
-442 -488 0
-442 -490 0
442 444 446 448 450 452 454 456 458 460 462 464 466 468 470 472 474 476 478 480 482 484 486 488 490 0
515 516 517 518 519 520 0
-515 -516 0
-515 -517 0
-515 -518 0
-515 -519 0
-515 -520 0
-516 -517 0
-516 -518 0
-516 -519 0
-516 -520 0
-517 -518 0
-517 -519 0
-517 -520 0
-518 -519 0
-518 -520 0
-519 -520 0
521 522 523 524 0
-521 -522 0
-521 -523 0
-521 -524 0
-522 -523 0
-522 -524 0
-523 -524 0
574 575 576 577 578 579 0
-574 -575 0
-574 -576 0
-574 -577 0
-574 -578 0
-574 -579 0
-575 -576 0
-575 -577 0
-575 -578 0
-575 -579 0
-576 -577 0
-576 -578 0
-576 -579 0
-577 -578 0
-577 -579 0
-578 -579 0
580 581 582 583 0
-580 -581 0
-580 -582 0
-580 -583 0
-581 -582 0
-581 -583 0
-582 -583 0
633 634 635 636 637 0
-633 -634 0
-633 -635 0
-633 -636 0
-633 -637 0
-634 -635 0
-634 -636 0
-634 -637 0
-635 -636 0
-635 -637 0
-636 -637 0
638 639 640 641 0
-638 -639 0
-638 -640 0
-638 -641 0
-639 -640 0
-639 -641 0
-640 -641 0
691 692 693 694 0
-691 -692 0
-691 -693 0
-691 -694 0
-692 -693 0
-692 -694 0
-693 -694 0
695 696 697 698 0
-695 -696 0
-695 -697 0
-695 -698 0
-696 -697 0
-696 -698 0
-697 -698 0
-515 -521 526 0
-526 521 0
-526 515 0
-515 -522 528 0
-528 522 0
-528 515 0
-515 -523 530 0
-530 523 0
-530 515 0
-515 -524 532 0
-532 524 0
-532 515 0
-516 -521 534 0
-534 521 0
-534 516 0
-516 -522 536 0
-536 522 0
-536 516 0
-516 -523 538 0
-538 523 0
-538 516 0
-516 -524 540 0
-540 524 0
-540 516 0
-517 -521 542 0
-542 521 0
-542 517 0
-517 -522 544 0
-544 522 0
-544 517 0
-517 -523 546 0
-546 523 0
-546 517 0
-517 -524 548 0
-548 524 0
-548 517 0
-518 -521 550 0
-550 521 0
-550 518 0
-518 -522 552 0
-552 522 0
-552 518 0
-518 -523 554 0
-554 523 0
-554 518 0
-518 -524 556 0
-556 524 0
-556 518 0
-519 -521 558 0
-558 521 0
-558 519 0
-519 -522 560 0
-560 522 0
-560 519 0
-519 -523 562 0
-562 523 0
-562 519 0
-519 -524 564 0
-564 524 0
-564 519 0
-520 -521 566 0
-566 521 0
-566 520 0
-520 -522 568 0
-568 522 0
-568 520 0
-520 -523 570 0
-570 523 0
-570 520 0
-520 -524 572 0
-572 524 0
-572 520 0
-574 -580 585 0
-585 580 0
-585 574 0
-574 -581 587 0
-587 581 0
-587 574 0
-574 -582 589 0
-589 582 0
-589 574 0
-574 -583 591 0
-591 583 0
-591 574 0
-575 -580 593 0
-593 580 0
-593 575 0
-575 -581 595 0
-595 581 0
-595 575 0
-575 -582 597 0
-597 582 0
-597 575 0
-575 -583 599 0
-599 583 0
-599 575 0
-576 -580 601 0
-601 580 0
-601 576 0
-576 -581 603 0
-603 581 0
-603 576 0
-576 -582 605 0
-605 582 0
-605 576 0
-576 -583 607 0
-607 583 0
-607 576 0
-577 -580 609 0
-609 580 0
-609 577 0
-577 -581 611 0
-611 581 0
-611 577 0
-577 -582 613 0
-613 582 0
-613 577 0
-577 -583 615 0
-615 583 0
-615 577 0
-578 -580 617 0
-617 580 0
-617 578 0
-578 -581 619 0
-619 581 0
-619 578 0
-578 -582 621 0
-621 582 0
-621 578 0
-578 -583 623 0
-623 583 0
-623 578 0
-579 -580 625 0
-625 580 0
-625 579 0
-579 -581 627 0
-627 581 0
-627 579 0
-579 -582 629 0
-629 582 0
-629 579 0
-579 -583 631 0
-631 583 0
-631 579 0
-633 -638 643 0
-643 638 0
-643 633 0
-633 -639 645 0
-645 639 0
-645 633 0
-633 -640 647 0
-647 640 0
-647 633 0
-633 -641 649 0
-649 641 0
-649 633 0
-633 -638 651 0
-634 -638 651 0
-651 638 0
-651 633 634 0
-633 -639 653 0
-634 -639 653 0
-653 639 0
-653 633 634 0
-633 -640 655 0
-634 -640 655 0
-655 640 0
-655 633 634 0
-633 -641 657 0
-634 -641 657 0
-657 641 0
-657 633 634 0
-634 -638 659 0
-635 -638 659 0
-659 638 0
-659 634 635 0
-634 -639 661 0
-635 -639 661 0
-661 639 0
-661 634 635 0
-634 -640 663 0
-635 -640 663 0
-663 640 0
-663 634 635 0
-634 -641 665 0
-635 -641 665 0
-665 641 0
-665 634 635 0
-635 -638 667 0
-636 -638 667 0
-667 638 0
-667 635 636 0
-635 -639 669 0
-636 -639 669 0
-669 639 0
-669 635 636 0
-635 -640 671 0
-636 -640 671 0
-671 640 0
-671 635 636 0
-635 -641 673 0
-636 -641 673 0
-673 641 0
-673 635 636 0
-636 -638 675 0
-637 -638 675 0
-675 638 0
-675 636 637 0
-636 -639 677 0
-637 -639 677 0
-677 639 0
-677 636 637 0
-636 -640 679 0
-637 -640 679 0
-679 640 0
-679 636 637 0
-636 -641 681 0
-637 -641 681 0
-681 641 0
-681 636 637 0
-637 -638 683 0
-683 638 0
-683 637 0
-637 -639 685 0
-685 639 0
-685 637 0
-637 -640 687 0
-687 640 0
-687 637 0
-637 -641 689 0
-689 641 0
-689 637 0
-691 -695 700 0
-700 695 0
-700 691 0
-691 -696 702 0
-702 696 0
-702 691 0
-691 -697 704 0
-704 697 0
-704 691 0
-691 -698 706 0
-706 698 0
-706 691 0
-691 -695 708 0
-692 -695 708 0
-708 695 0
-708 691 692 0
-691 -696 710 0
-692 -696 710 0
-710 696 0
-710 691 692 0
-691 -697 712 0
-692 -697 712 0
-712 697 0
-712 691 692 0
-691 -698 714 0
-692 -698 714 0
-714 698 0
-714 691 692 0
-691 -695 716 0
-692 -695 716 0
-693 -695 716 0
-716 695 0
-716 691 692 693 0
-691 -696 718 0
-692 -696 718 0
-693 -696 718 0
-718 696 0
-718 691 692 693 0
-691 -697 720 0
-692 -697 720 0
-693 -697 720 0
-720 697 0
-720 691 692 693 0
-691 -698 722 0
-692 -698 722 0
-693 -698 722 0
-722 698 0
-722 691 692 693 0
-692 -695 724 0
-693 -695 724 0
-694 -695 724 0
-724 695 0
-724 692 693 694 0
-692 -696 726 0
-693 -696 726 0
-694 -696 726 0
-726 696 0
-726 692 693 694 0
-692 -697 728 0
-693 -697 728 0
-694 -697 728 0
-728 697 0
-728 692 693 694 0
-692 -698 730 0
-693 -698 730 0
-694 -698 730 0
-730 698 0
-730 692 693 694 0
-693 -695 732 0
-694 -695 732 0
-732 695 0
-732 693 694 0
-693 -696 734 0
-694 -696 734 0
-734 696 0
-734 693 694 0
-693 -697 736 0
-694 -697 736 0
-736 697 0
-736 693 694 0
-693 -698 738 0
-694 -698 738 0
-738 698 0
-738 693 694 0
-694 -695 740 0
-740 695 0
-740 694 0
-694 -696 742 0
-742 696 0
-742 694 0
-694 -697 744 0
-744 697 0
-744 694 0
-694 -698 746 0
-746 698 0
-746 694 0
-526 748 0
-585 748 0
-643 748 0
-700 748 0
-748 526 585 643 700 0
-528 749 0
-587 749 0
-645 749 0
-702 749 0
-749 528 587 645 702 0
-530 750 0
-589 750 0
-647 750 0
-704 750 0
-750 530 589 647 704 0
-532 751 0
-591 751 0
-649 751 0
-706 751 0
-751 532 591 649 706 0
-534 752 0
-593 752 0
-651 752 0
-708 752 0
-752 534 593 651 708 0
-536 753 0
-595 753 0
-653 753 0
-710 753 0
-753 536 595 653 710 0
-538 754 0
-597 754 0
-655 754 0
-712 754 0
-754 538 597 655 712 0
-540 755 0
-599 755 0
-657 755 0
-714 755 0
-755 540 599 657 714 0
-542 756 0
-601 756 0
-659 756 0
-716 756 0
-756 542 601 659 716 0
-544 757 0
-603 757 0
-661 757 0
-718 757 0
-757 544 603 661 718 0
-546 758 0
-605 758 0
-663 758 0
-720 758 0
-758 546 605 663 720 0
-548 759 0
-607 759 0
-665 759 0
-722 759 0
-759 548 607 665 722 0
-550 760 0
-609 760 0
-667 760 0
-724 760 0
-760 550 609 667 724 0
-552 761 0
-611 761 0
-669 761 0
-726 761 0
-761 552 611 669 726 0
-554 762 0
-613 762 0
-671 762 0
-728 762 0
-762 554 613 671 728 0
-556 763 0
-615 763 0
-673 763 0
-730 763 0
-763 556 615 673 730 0
-558 764 0
-617 764 0
-675 764 0
-732 764 0
-764 558 617 675 732 0
-560 765 0
-619 765 0
-677 765 0
-734 765 0
-765 560 619 677 734 0
-562 766 0
-621 766 0
-679 766 0
-736 766 0
-766 562 621 679 736 0
-564 767 0
-623 767 0
-681 767 0
-738 767 0
-767 564 623 681 738 0
-566 768 0
-625 768 0
-683 768 0
-740 768 0
-768 566 625 683 740 0
-568 769 0
-627 769 0
-685 769 0
-742 769 0
-769 568 627 685 742 0
-570 770 0
-629 770 0
-687 770 0
-744 770 0
-770 570 629 687 744 0
-572 771 0
-631 771 0
-689 771 0
-746 771 0
-771 572 631 689 746 0
-526 -585 0
-528 -587 0
-530 -589 0
-532 -591 0
-534 -593 0
-536 -595 0
-538 -597 0
-540 -599 0
-542 -601 0
-544 -603 0
-546 -605 0
-548 -607 0
-550 -609 0
-552 -611 0
-554 -613 0
-556 -615 0
-558 -617 0
-560 -619 0
-562 -621 0
-564 -623 0
-566 -625 0
-568 -627 0
-570 -629 0
-572 -631 0
-526 -643 0
-528 -645 0
-530 -647 0
-532 -649 0
-534 -651 0
-536 -653 0
-538 -655 0
-540 -657 0
-542 -659 0
-544 -661 0
-546 -663 0
-548 -665 0
-550 -667 0
-552 -669 0
-554 -671 0
-556 -673 0
-558 -675 0
-560 -677 0
-562 -679 0
-564 -681 0
-566 -683 0
-568 -685 0
-570 -687 0
-572 -689 0
-526 -700 0
-528 -702 0
-530 -704 0
-532 -706 0
-534 -708 0
-536 -710 0
-538 -712 0
-540 -714 0
-542 -716 0
-544 -718 0
-546 -720 0
-548 -722 0
-550 -724 0
-552 -726 0
-554 -728 0
-556 -730 0
-558 -732 0
-560 -734 0
-562 -736 0
-564 -738 0
-566 -740 0
-568 -742 0
-570 -744 0
-572 -746 0
-585 -643 0
-587 -645 0
-589 -647 0
-591 -649 0
-593 -651 0
-595 -653 0
-597 -655 0
-599 -657 0
-601 -659 0
-603 -661 0
-605 -663 0
-607 -665 0
-609 -667 0
-611 -669 0
-613 -671 0
-615 -673 0
-617 -675 0
-619 -677 0
-621 -679 0
-623 -681 0
-625 -683 0
-627 -685 0
-629 -687 0
-631 -689 0
-585 -700 0
-587 -702 0
-589 -704 0
-591 -706 0
-593 -708 0
-595 -710 0
-597 -712 0
-599 -714 0
-601 -716 0
-603 -718 0
-605 -720 0
-607 -722 0
-609 -724 0
-611 -726 0
-613 -728 0
-615 -730 0
-617 -732 0
-619 -734 0
-621 -736 0
-623 -738 0
-625 -740 0
-627 -742 0
-629 -744 0
-631 -746 0
-643 -700 0
-645 -702 0
-647 -704 0
-649 -706 0
-651 -708 0
-653 -710 0
-655 -712 0
-657 -714 0
-659 -716 0
-661 -718 0
-663 -720 0
-665 -722 0
-667 -724 0
-669 -726 0
-671 -728 0
-673 -730 0
-675 -732 0
-677 -734 0
-679 -736 0
-681 -738 0
-683 -740 0
-685 -742 0
-687 -744 0
-689 -746 0
-515 -522 748 0
-515 -523 749 0
-515 -524 750 0
-516 -522 752 0
-516 -523 753 0
-516 -524 754 0
-517 -522 756 0
-517 -523 757 0
-517 -524 758 0
-518 -522 760 0
-518 -523 761 0
-518 -524 762 0
-519 -522 764 0
-519 -523 765 0
-519 -524 766 0
-520 -522 768 0
-520 -523 769 0
-520 -524 770 0
-574 -581 748 0
-574 -582 749 0
-574 -583 750 0
-575 -581 752 0
-575 -582 753 0
-575 -583 754 0
-576 -581 756 0
-576 -582 757 0
-576 -583 758 0
-577 -581 760 0
-577 -582 761 0
-577 -583 762 0
-578 -581 764 0
-578 -582 765 0
-578 -583 766 0
-579 -581 768 0
-579 -582 769 0
-579 -583 770 0
-633 -639 748 752 0
-633 -640 749 753 0
-633 -641 750 754 0
-634 -639 752 756 0
-634 -640 753 757 0
-634 -641 754 758 0
-635 -639 756 760 0
-635 -640 757 761 0
-635 -641 758 762 0
-636 -639 760 764 0
-636 -640 761 765 0
-636 -641 762 766 0
-637 -639 764 768 0
-637 -640 765 769 0
-637 -641 766 770 0
-691 -696 748 752 0
-691 -696 748 756 0
-691 -696 752 756 0
-691 -697 749 753 0
-691 -697 749 757 0
-691 -697 753 757 0
-691 -698 750 754 0
-691 -698 750 758 0
-691 -698 754 758 0
-692 -696 752 756 0
-692 -696 752 760 0
-692 -696 756 760 0
-692 -697 753 757 0
-692 -697 753 761 0
-692 -697 757 761 0
-692 -698 754 758 0
-692 -698 754 762 0
-692 -698 758 762 0
-693 -696 756 760 0
-693 -696 756 764 0
-693 -696 760 764 0
-693 -697 757 761 0
-693 -697 757 765 0
-693 -697 761 765 0
-693 -698 758 762 0
-693 -698 758 766 0
-693 -698 762 766 0
-694 -696 760 764 0
-694 -696 760 768 0
-694 -696 764 768 0
-694 -697 761 765 0
-694 -697 761 769 0
-694 -697 765 769 0
-694 -698 762 766 0
-694 -698 762 770 0
-694 -698 766 770 0
-526 -749 527 0
-527 526 0
-527 749 0
-528 -750 529 0
-529 528 0
-529 750 0
-530 -751 531 0
-531 530 0
-531 751 0
-533 0
-534 -753 535 0
-535 534 0
-535 753 0
-536 -754 537 0
-537 536 0
-537 754 0
-538 -755 539 0
-539 538 0
-539 755 0
-541 0
-542 -757 543 0
-543 542 0
-543 757 0
-544 -758 545 0
-545 544 0
-545 758 0
-546 -759 547 0
-547 546 0
-547 759 0
-549 0
-550 -761 551 0
-551 550 0
-551 761 0
-552 -762 553 0
-553 552 0
-553 762 0
-554 -763 555 0
-555 554 0
-555 763 0
-557 0
-558 -765 559 0
-559 558 0
-559 765 0
-560 -766 561 0
-561 560 0
-561 766 0
-562 -767 563 0
-563 562 0
-563 767 0
-565 0
-566 -769 567 0
-567 566 0
-567 769 0
-568 -770 569 0
-569 568 0
-569 770 0
-570 -771 571 0
-571 570 0
-571 771 0
-573 0
-525 -527 0
-525 -529 0
-525 -531 0
-525 -533 0
-525 -535 0
-525 -537 0
-525 -539 0
-525 -541 0
-525 -543 0
-525 -545 0
-525 -547 0
-525 -549 0
-525 -551 0
-525 -553 0
-525 -555 0
-525 -557 0
-525 -559 0
-525 -561 0
-525 -563 0
-525 -565 0
-525 -567 0
-525 -569 0
-525 -571 0
-525 -573 0
525 527 529 531 533 535 537 539 541 543 545 547 549 551 553 555 557 559 561 563 565 567 569 571 573 0
-585 -749 586 0
-586 585 0
-586 749 0
-587 -750 588 0
-588 587 0
-588 750 0
-589 -751 590 0
-590 589 0
-590 751 0
-592 0
-593 -753 594 0
-594 593 0
-594 753 0
-595 -754 596 0
-596 595 0
-596 754 0
-597 -755 598 0
-598 597 0
-598 755 0
-600 0
-601 -757 602 0
-602 601 0
-602 757 0
-603 -758 604 0
-604 603 0
-604 758 0
-605 -759 606 0
-606 605 0
-606 759 0
-608 0
-609 -761 610 0
-610 609 0
-610 761 0
-611 -762 612 0
-612 611 0
-612 762 0
-613 -763 614 0
-614 613 0
-614 763 0
-616 0
-617 -765 618 0
-618 617 0
-618 765 0
-619 -766 620 0
-620 619 0
-620 766 0
-621 -767 622 0
-622 621 0
-622 767 0
-624 0
-625 -769 626 0
-626 625 0
-626 769 0
-627 -770 628 0
-628 627 0
-628 770 0
-629 -771 630 0
-630 629 0
-630 771 0
-632 0
-584 -586 0
-584 -588 0
-584 -590 0
-584 -592 0
-584 -594 0
-584 -596 0
-584 -598 0
-584 -600 0
-584 -602 0
-584 -604 0
-584 -606 0
-584 -608 0
-584 -610 0
-584 -612 0
-584 -614 0
-584 -616 0
-584 -618 0
-584 -620 0
-584 -622 0
-584 -624 0
-584 -626 0
-584 -628 0
-584 -630 0
-584 -632 0
584 586 588 590 592 594 596 598 600 602 604 606 608 610 612 614 616 618 620 622 624 626 628 630 632 0
-643 -749 644 0
-644 643 0
-644 749 0
-645 -750 646 0
-646 645 0
-646 750 0
-647 -751 648 0
-648 647 0
-648 751 0
-650 0
-651 -753 652 0
-652 651 0
-652 753 0
-653 -754 654 0
-654 653 0
-654 754 0
-655 -755 656 0
-656 655 0
-656 755 0
-658 0
-659 -757 660 0
-660 659 0
-660 757 0
-661 -758 662 0
-662 661 0
-662 758 0
-663 -759 664 0
-664 663 0
-664 759 0
-666 0
-667 -761 668 0
-668 667 0
-668 761 0
-669 -762 670 0
-670 669 0
-670 762 0
-671 -763 672 0
-672 671 0
-672 763 0
-674 0
-675 -765 676 0
-676 675 0
-676 765 0
-677 -766 678 0
-678 677 0
-678 766 0
-679 -767 680 0
-680 679 0
-680 767 0
-682 0
-683 -769 684 0
-684 683 0
-684 769 0
-685 -770 686 0
-686 685 0
-686 770 0
-687 -771 688 0
-688 687 0
-688 771 0
-690 0
-642 -644 0
-642 -646 0
-642 -648 0
-642 -650 0
-642 -652 0
-642 -654 0
-642 -656 0
-642 -658 0
-642 -660 0
-642 -662 0
-642 -664 0
-642 -666 0
-642 -668 0
-642 -670 0
-642 -672 0
-642 -674 0
-642 -676 0
-642 -678 0
-642 -680 0
-642 -682 0
-642 -684 0
-642 -686 0
-642 -688 0
-642 -690 0
642 644 646 648 650 652 654 656 658 660 662 664 666 668 670 672 674 676 678 680 682 684 686 688 690 0
-700 -749 701 0
-701 700 0
-701 749 0
-702 -750 703 0
-703 702 0
-703 750 0
-704 -751 705 0
-705 704 0
-705 751 0
-707 0
-708 -753 709 0
-709 708 0
-709 753 0
-710 -754 711 0
-711 710 0
-711 754 0
-712 -755 713 0
-713 712 0
-713 755 0
-715 0
-716 -757 717 0
-717 716 0
-717 757 0
-718 -758 719 0
-719 718 0
-719 758 0
-720 -759 721 0
-721 720 0
-721 759 0
-723 0
-724 -761 725 0
-725 724 0
-725 761 0
-726 -762 727 0
-727 726 0
-727 762 0
-728 -763 729 0
-729 728 0
-729 763 0
-731 0
-732 -765 733 0
-733 732 0
-733 765 0
-734 -766 735 0
-735 734 0
-735 766 0
-736 -767 737 0
-737 736 0
-737 767 0
-739 0
-740 -769 741 0
-741 740 0
-741 769 0
-742 -770 743 0
-743 742 0
-743 770 0
-744 -771 745 0
-745 744 0
-745 771 0
-747 0
-699 -701 0
-699 -703 0
-699 -705 0
-699 -707 0
-699 -709 0
-699 -711 0
-699 -713 0
-699 -715 0
-699 -717 0
-699 -719 0
-699 -721 0
-699 -723 0
-699 -725 0
-699 -727 0
-699 -729 0
-699 -731 0
-699 -733 0
-699 -735 0
-699 -737 0
-699 -739 0
-699 -741 0
-699 -743 0
-699 -745 0
-699 -747 0
699 701 703 705 707 709 711 713 715 717 719 721 723 725 727 729 731 733 735 737 739 741 743 745 747 0
772 773 774 775 776 777 0
-772 -773 0
-772 -774 0
-772 -775 0
-772 -776 0
-772 -777 0
-773 -774 0
-773 -775 0
-773 -776 0
-773 -777 0
-774 -775 0
-774 -776 0
-774 -777 0
-775 -776 0
-775 -777 0
-776 -777 0
778 779 780 781 0
-778 -779 0
-778 -780 0
-778 -781 0
-779 -780 0
-779 -781 0
-780 -781 0
831 832 833 834 835 836 0
-831 -832 0
-831 -833 0
-831 -834 0
-831 -835 0
-831 -836 0
-832 -833 0
-832 -834 0
-832 -835 0
-832 -836 0
-833 -834 0
-833 -835 0
-833 -836 0
-834 -835 0
-834 -836 0
-835 -836 0
837 838 839 840 0
-837 -838 0
-837 -839 0
-837 -840 0
-838 -839 0
-838 -840 0
-839 -840 0
890 891 892 893 894 0
-890 -891 0
-890 -892 0
-890 -893 0
-890 -894 0
-891 -892 0
-891 -893 0
-891 -894 0
-892 -893 0
-892 -894 0
-893 -894 0
895 896 897 898 0
-895 -896 0
-895 -897 0
-895 -898 0
-896 -897 0
-896 -898 0
-897 -898 0
948 949 950 951 0
-948 -949 0
-948 -950 0
-948 -951 0
-949 -950 0
-949 -951 0
-950 -951 0
952 953 954 955 0
-952 -953 0
-952 -954 0
-952 -955 0
-953 -954 0
-953 -955 0
-954 -955 0
-772 -778 783 0
-783 778 0
-783 772 0
-772 -779 785 0
-785 779 0
-785 772 0
-772 -780 787 0
-787 780 0
-787 772 0
-772 -781 789 0
-789 781 0
-789 772 0
-773 -778 791 0
-791 778 0
-791 773 0
-773 -779 793 0
-793 779 0
-793 773 0
-773 -780 795 0
-795 780 0
-795 773 0
-773 -781 797 0
-797 781 0
-797 773 0
-774 -778 799 0
-799 778 0
-799 774 0
-774 -779 801 0
-801 779 0
-801 774 0
-774 -780 803 0
-803 780 0
-803 774 0
-774 -781 805 0
-805 781 0
-805 774 0
-775 -778 807 0
-807 778 0
-807 775 0
-775 -779 809 0
-809 779 0
-809 775 0
-775 -780 811 0
-811 780 0
-811 775 0
-775 -781 813 0
-813 781 0
-813 775 0
-776 -778 815 0
-815 778 0
-815 776 0
-776 -779 817 0
-817 779 0
-817 776 0
-776 -780 819 0
-819 780 0
-819 776 0
-776 -781 821 0
-821 781 0
-821 776 0
-777 -778 823 0
-823 778 0
-823 777 0
-777 -779 825 0
-825 779 0
-825 777 0
-777 -780 827 0
-827 780 0
-827 777 0
-777 -781 829 0
-829 781 0
-829 777 0
-831 -837 842 0
-842 837 0
-842 831 0
-831 -838 844 0
-844 838 0
-844 831 0
-831 -839 846 0
-846 839 0
-846 831 0
-831 -840 848 0
-848 840 0
-848 831 0
-832 -837 850 0
-850 837 0
-850 832 0
-832 -838 852 0
-852 838 0
-852 832 0
-832 -839 854 0
-854 839 0
-854 832 0
-832 -840 856 0
-856 840 0
-856 832 0
-833 -837 858 0
-858 837 0
-858 833 0
-833 -838 860 0
-860 838 0
-860 833 0
-833 -839 862 0
-862 839 0
-862 833 0
-833 -840 864 0
-864 840 0
-864 833 0
-834 -837 866 0
-866 837 0
-866 834 0
-834 -838 868 0
-868 838 0
-868 834 0
-834 -839 870 0
-870 839 0
-870 834 0
-834 -840 872 0
-872 840 0
-872 834 0
-835 -837 874 0
-874 837 0
-874 835 0
-835 -838 876 0
-876 838 0
-876 835 0
-835 -839 878 0
-878 839 0
-878 835 0
-835 -840 880 0
-880 840 0
-880 835 0
-836 -837 882 0
-882 837 0
-882 836 0
-836 -838 884 0
-884 838 0
-884 836 0
-836 -839 886 0
-886 839 0
-886 836 0
-836 -840 888 0
-888 840 0
-888 836 0
-890 -895 900 0
-900 895 0
-900 890 0
-890 -896 902 0
-902 896 0
-902 890 0
-890 -897 904 0
-904 897 0
-904 890 0
-890 -898 906 0
-906 898 0
-906 890 0
-890 -895 908 0
-891 -895 908 0
-908 895 0
-908 890 891 0
-890 -896 910 0
-891 -896 910 0
-910 896 0
-910 890 891 0
-890 -897 912 0
-891 -897 912 0
-912 897 0
-912 890 891 0
-890 -898 914 0
-891 -898 914 0
-914 898 0
-914 890 891 0
-891 -895 916 0
-892 -895 916 0
-916 895 0
-916 891 892 0
-891 -896 918 0
-892 -896 918 0
-918 896 0
-918 891 892 0
-891 -897 920 0
-892 -897 920 0
-920 897 0
-920 891 892 0
-891 -898 922 0
-892 -898 922 0
-922 898 0
-922 891 892 0
-892 -895 924 0
-893 -895 924 0
-924 895 0
-924 892 893 0
-892 -896 926 0
-893 -896 926 0
-926 896 0
-926 892 893 0
-892 -897 928 0
-893 -897 928 0
-928 897 0
-928 892 893 0
-892 -898 930 0
-893 -898 930 0
-930 898 0
-930 892 893 0
-893 -895 932 0
-894 -895 932 0
-932 895 0
-932 893 894 0
-893 -896 934 0
-894 -896 934 0
-934 896 0
-934 893 894 0
-893 -897 936 0
-894 -897 936 0
-936 897 0
-936 893 894 0
-893 -898 938 0
-894 -898 938 0
-938 898 0
-938 893 894 0
-894 -895 940 0
-940 895 0
-940 894 0
-894 -896 942 0
-942 896 0
-942 894 0
-894 -897 944 0
-944 897 0
-944 894 0
-894 -898 946 0
-946 898 0
-946 894 0
-948 -952 957 0
-957 952 0
-957 948 0
-948 -953 959 0
-959 953 0
-959 948 0
-948 -954 961 0
-961 954 0
-961 948 0
-948 -955 963 0
-963 955 0
-963 948 0
-948 -952 965 0
-949 -952 965 0
-965 952 0
-965 948 949 0
-948 -953 967 0
-949 -953 967 0
-967 953 0
-967 948 949 0
-948 -954 969 0
-949 -954 969 0
-969 954 0
-969 948 949 0
-948 -955 971 0
-949 -955 971 0
-971 955 0
-971 948 949 0
-948 -952 973 0
-949 -952 973 0
-950 -952 973 0
-973 952 0
-973 948 949 950 0
-948 -953 975 0
-949 -953 975 0
-950 -953 975 0
-975 953 0
-975 948 949 950 0
-948 -954 977 0
-949 -954 977 0
-950 -954 977 0
-977 954 0
-977 948 949 950 0
-948 -955 979 0
-949 -955 979 0
-950 -955 979 0
-979 955 0
-979 948 949 950 0
-949 -952 981 0
-950 -952 981 0
-951 -952 981 0
-981 952 0
-981 949 950 951 0
-949 -953 983 0
-950 -953 983 0
-951 -953 983 0
-983 953 0
-983 949 950 951 0
-949 -954 985 0
-950 -954 985 0
-951 -954 985 0
-985 954 0
-985 949 950 951 0
-949 -955 987 0
-950 -955 987 0
-951 -955 987 0
-987 955 0
-987 949 950 951 0
-950 -952 989 0
-951 -952 989 0
-989 952 0
-989 950 951 0
-950 -953 991 0
-951 -953 991 0
-991 953 0
-991 950 951 0
-950 -954 993 0
-951 -954 993 0
-993 954 0
-993 950 951 0
-950 -955 995 0
-951 -955 995 0
-995 955 0
-995 950 951 0
-951 -952 997 0
-997 952 0
-997 951 0
-951 -953 999 0
-999 953 0
-999 951 0
-951 -954 1001 0
-1001 954 0
-1001 951 0
-951 -955 1003 0
-1003 955 0
-1003 951 0
-783 1005 0
-842 1005 0
-900 1005 0
-957 1005 0
-1005 783 842 900 957 0
-785 1006 0
-844 1006 0
-902 1006 0
-959 1006 0
-1006 785 844 902 959 0
-787 1007 0
-846 1007 0
-904 1007 0
-961 1007 0
-1007 787 846 904 961 0
-789 1008 0
-848 1008 0
-906 1008 0
-963 1008 0
-1008 789 848 906 963 0
-791 1009 0
-850 1009 0
-908 1009 0
-965 1009 0
-1009 791 850 908 965 0
-793 1010 0
-852 1010 0
-910 1010 0
-967 1010 0
-1010 793 852 910 967 0
-795 1011 0
-854 1011 0
-912 1011 0
-969 1011 0
-1011 795 854 912 969 0
-797 1012 0
-856 1012 0
-914 1012 0
-971 1012 0
-1012 797 856 914 971 0
-799 1013 0
-858 1013 0
-916 1013 0
-973 1013 0
-1013 799 858 916 973 0
-801 1014 0
-860 1014 0
-918 1014 0
-975 1014 0
-1014 801 860 918 975 0
-803 1015 0
-862 1015 0
-920 1015 0
-977 1015 0
-1015 803 862 920 977 0
-805 1016 0
-864 1016 0
-922 1016 0
-979 1016 0
-1016 805 864 922 979 0
-807 1017 0
-866 1017 0
-924 1017 0
-981 1017 0
-1017 807 866 924 981 0
-809 1018 0
-868 1018 0
-926 1018 0
-983 1018 0
-1018 809 868 926 983 0
-811 1019 0
-870 1019 0
-928 1019 0
-985 1019 0
-1019 811 870 928 985 0
-813 1020 0
-872 1020 0
-930 1020 0
-987 1020 0
-1020 813 872 930 987 0
-815 1021 0
-874 1021 0
-932 1021 0
-989 1021 0
-1021 815 874 932 989 0
-817 1022 0
-876 1022 0
-934 1022 0
-991 1022 0
-1022 817 876 934 991 0
-819 1023 0
-878 1023 0
-936 1023 0
-993 1023 0
-1023 819 878 936 993 0
-821 1024 0
-880 1024 0
-938 1024 0
-995 1024 0
-1024 821 880 938 995 0
-823 1025 0
-882 1025 0
-940 1025 0
-997 1025 0
-1025 823 882 940 997 0
-825 1026 0
-884 1026 0
-942 1026 0
-999 1026 0
-1026 825 884 942 999 0
-827 1027 0
-886 1027 0
-944 1027 0
-1001 1027 0
-1027 827 886 944 1001 0
-829 1028 0
-888 1028 0
-946 1028 0
-1003 1028 0
-1028 829 888 946 1003 0
-783 -842 0
-785 -844 0
-787 -846 0
-789 -848 0
-791 -850 0
-793 -852 0
-795 -854 0
-797 -856 0
-799 -858 0
-801 -860 0
-803 -862 0
-805 -864 0
-807 -866 0
-809 -868 0
-811 -870 0
-813 -872 0
-815 -874 0
-817 -876 0
-819 -878 0
-821 -880 0
-823 -882 0
-825 -884 0
-827 -886 0
-829 -888 0
-783 -900 0
-785 -902 0
-787 -904 0
-789 -906 0
-791 -908 0
-793 -910 0
-795 -912 0
-797 -914 0
-799 -916 0
-801 -918 0
-803 -920 0
-805 -922 0
-807 -924 0
-809 -926 0
-811 -928 0
-813 -930 0
-815 -932 0
-817 -934 0
-819 -936 0
-821 -938 0
-823 -940 0
-825 -942 0
-827 -944 0
-829 -946 0
-783 -957 0
-785 -959 0
-787 -961 0
-789 -963 0
-791 -965 0
-793 -967 0
-795 -969 0
-797 -971 0
-799 -973 0
-801 -975 0
-803 -977 0
-805 -979 0
-807 -981 0
-809 -983 0
-811 -985 0
-813 -987 0
-815 -989 0
-817 -991 0
-819 -993 0
-821 -995 0
-823 -997 0
-825 -999 0
-827 -1001 0
-829 -1003 0
-842 -900 0
-844 -902 0
-846 -904 0
-848 -906 0
-850 -908 0
-852 -910 0
-854 -912 0
-856 -914 0
-858 -916 0
-860 -918 0
-862 -920 0
-864 -922 0
-866 -924 0
-868 -926 0
-870 -928 0
-872 -930 0
-874 -932 0
-876 -934 0
-878 -936 0
-880 -938 0
-882 -940 0
-884 -942 0
-886 -944 0
-888 -946 0
-842 -957 0
-844 -959 0
-846 -961 0
-848 -963 0
-850 -965 0
-852 -967 0
-854 -969 0
-856 -971 0
-858 -973 0
-860 -975 0
-862 -977 0
-864 -979 0
-866 -981 0
-868 -983 0
-870 -985 0
-872 -987 0
-874 -989 0
-876 -991 0
-878 -993 0
-880 -995 0
-882 -997 0
-884 -999 0
-886 -1001 0
-888 -1003 0
-900 -957 0
-902 -959 0
-904 -961 0
-906 -963 0
-908 -965 0
-910 -967 0
-912 -969 0
-914 -971 0
-916 -973 0
-918 -975 0
-920 -977 0
-922 -979 0
-924 -981 0
-926 -983 0
-928 -985 0
-930 -987 0
-932 -989 0
-934 -991 0
-936 -993 0
-938 -995 0
-940 -997 0
-942 -999 0
-944 -1001 0
-946 -1003 0
-772 -779 1005 0
-772 -780 1006 0
-772 -781 1007 0
-773 -779 1009 0
-773 -780 1010 0
-773 -781 1011 0
-774 -779 1013 0
-774 -780 1014 0
-774 -781 1015 0
-775 -779 1017 0
-775 -780 1018 0
-775 -781 1019 0
-776 -779 1021 0
-776 -780 1022 0
-776 -781 1023 0
-777 -779 1025 0
-777 -780 1026 0
-777 -781 1027 0
-831 -838 1005 0
-831 -839 1006 0
-831 -840 1007 0
-832 -838 1009 0
-832 -839 1010 0
-832 -840 1011 0
-833 -838 1013 0
-833 -839 1014 0
-833 -840 1015 0
-834 -838 1017 0
-834 -839 1018 0
-834 -840 1019 0
-835 -838 1021 0
-835 -839 1022 0
-835 -840 1023 0
-836 -838 1025 0
-836 -839 1026 0
-836 -840 1027 0
-890 -896 1005 1009 0
-890 -897 1006 1010 0
-890 -898 1007 1011 0
-891 -896 1009 1013 0
-891 -897 1010 1014 0
-891 -898 1011 1015 0
-892 -896 1013 1017 0
-892 -897 1014 1018 0
-892 -898 1015 1019 0
-893 -896 1017 1021 0
-893 -897 1018 1022 0
-893 -898 1019 1023 0
-894 -896 1021 1025 0
-894 -897 1022 1026 0
-894 -898 1023 1027 0
-948 -953 1005 1009 0
-948 -953 1005 1013 0
-948 -953 1009 1013 0
-948 -954 1006 1010 0
-948 -954 1006 1014 0
-948 -954 1010 1014 0
-948 -955 1007 1011 0
-948 -955 1007 1015 0
-948 -955 1011 1015 0
-949 -953 1009 1013 0
-949 -953 1009 1017 0
-949 -953 1013 1017 0
-949 -954 1010 1014 0
-949 -954 1010 1018 0
-949 -954 1014 1018 0
-949 -955 1011 1015 0
-949 -955 1011 1019 0
-949 -955 1015 1019 0
-950 -953 1013 1017 0
-950 -953 1013 1021 0
-950 -953 1017 1021 0
-950 -954 1014 1018 0
-950 -954 1014 1022 0
-950 -954 1018 1022 0
-950 -955 1015 1019 0
-950 -955 1015 1023 0
-950 -955 1019 1023 0
-951 -953 1017 1021 0
-951 -953 1017 1025 0
-951 -953 1021 1025 0
-951 -954 1018 1022 0
-951 -954 1018 1026 0
-951 -954 1022 1026 0
-951 -955 1019 1023 0
-951 -955 1019 1027 0
-951 -955 1023 1027 0
-783 -1006 784 0
-784 783 0
-784 1006 0
-785 -1007 786 0
-786 785 0
-786 1007 0
-787 -1008 788 0
-788 787 0
-788 1008 0
-790 0
-791 -1010 792 0
-792 791 0
-792 1010 0
-793 -1011 794 0
-794 793 0
-794 1011 0
-795 -1012 796 0
-796 795 0
-796 1012 0
-798 0
-799 -1014 800 0
-800 799 0
-800 1014 0
-801 -1015 802 0
-802 801 0
-802 1015 0
-803 -1016 804 0
-804 803 0
-804 1016 0
-806 0
-807 -1018 808 0
-808 807 0
-808 1018 0
-809 -1019 810 0
-810 809 0
-810 1019 0
-811 -1020 812 0
-812 811 0
-812 1020 0
-814 0
-815 -1022 816 0
-816 815 0
-816 1022 0
-817 -1023 818 0
-818 817 0
-818 1023 0
-819 -1024 820 0
-820 819 0
-820 1024 0
-822 0
-823 -1026 824 0
-824 823 0
-824 1026 0
-825 -1027 826 0
-826 825 0
-826 1027 0
-827 -1028 828 0
-828 827 0
-828 1028 0
-830 0
-782 -784 0
-782 -786 0
-782 -788 0
-782 -790 0
-782 -792 0
-782 -794 0
-782 -796 0
-782 -798 0
-782 -800 0
-782 -802 0
-782 -804 0
-782 -806 0
-782 -808 0
-782 -810 0
-782 -812 0
-782 -814 0
-782 -816 0
-782 -818 0
-782 -820 0
-782 -822 0
-782 -824 0
-782 -826 0
-782 -828 0
-782 -830 0
782 784 786 788 790 792 794 796 798 800 802 804 806 808 810 812 814 816 818 820 822 824 826 828 830 0
-842 -1006 843 0
-843 842 0
-843 1006 0
-844 -1007 845 0
-845 844 0
-845 1007 0
-846 -1008 847 0
-847 846 0
-847 1008 0
-849 0
-850 -1010 851 0
-851 850 0
-851 1010 0
-852 -1011 853 0
-853 852 0
-853 1011 0
-854 -1012 855 0
-855 854 0
-855 1012 0
-857 0
-858 -1014 859 0
-859 858 0
-859 1014 0
-860 -1015 861 0
-861 860 0
-861 1015 0
-862 -1016 863 0
-863 862 0
-863 1016 0
-865 0
-866 -1018 867 0
-867 866 0
-867 1018 0
-868 -1019 869 0
-869 868 0
-869 1019 0
-870 -1020 871 0
-871 870 0
-871 1020 0
-873 0
-874 -1022 875 0
-875 874 0
-875 1022 0
-876 -1023 877 0
-877 876 0
-877 1023 0
-878 -1024 879 0
-879 878 0
-879 1024 0
-881 0
-882 -1026 883 0
-883 882 0
-883 1026 0
-884 -1027 885 0
-885 884 0
-885 1027 0
-886 -1028 887 0
-887 886 0
-887 1028 0
-889 0
-841 -843 0
-841 -845 0
-841 -847 0
-841 -849 0
-841 -851 0
-841 -853 0
-841 -855 0
-841 -857 0
-841 -859 0
-841 -861 0
-841 -863 0
-841 -865 0
-841 -867 0
-841 -869 0
-841 -871 0
-841 -873 0
-841 -875 0
-841 -877 0
-841 -879 0
-841 -881 0
-841 -883 0
-841 -885 0
-841 -887 0
-841 -889 0
841 843 845 847 849 851 853 855 857 859 861 863 865 867 869 871 873 875 877 879 881 883 885 887 889 0
-900 -1006 901 0
-901 900 0
-901 1006 0
-902 -1007 903 0
-903 902 0
-903 1007 0
-904 -1008 905 0
-905 904 0
-905 1008 0
-907 0
-908 -1010 909 0
-909 908 0
-909 1010 0
-910 -1011 911 0
-911 910 0
-911 1011 0
-912 -1012 913 0
-913 912 0
-913 1012 0
-915 0
-916 -1014 917 0
-917 916 0
-917 1014 0
-918 -1015 919 0
-919 918 0
-919 1015 0
-920 -1016 921 0
-921 920 0
-921 1016 0
-923 0
-924 -1018 925 0
-925 924 0
-925 1018 0
-926 -1019 927 0
-927 926 0
-927 1019 0
-928 -1020 929 0
-929 928 0
-929 1020 0
-931 0
-932 -1022 933 0
-933 932 0
-933 1022 0
-934 -1023 935 0
-935 934 0
-935 1023 0
-936 -1024 937 0
-937 936 0
-937 1024 0
-939 0
-940 -1026 941 0
-941 940 0
-941 1026 0
-942 -1027 943 0
-943 942 0
-943 1027 0
-944 -1028 945 0
-945 944 0
-945 1028 0
-947 0
-899 -901 0
-899 -903 0
-899 -905 0
-899 -907 0
-899 -909 0
-899 -911 0
-899 -913 0
-899 -915 0
-899 -917 0
-899 -919 0
-899 -921 0
-899 -923 0
-899 -925 0
-899 -927 0
-899 -929 0
-899 -931 0
-899 -933 0
-899 -935 0
-899 -937 0
-899 -939 0
-899 -941 0
-899 -943 0
-899 -945 0
-899 -947 0
899 901 903 905 907 909 911 913 915 917 919 921 923 925 927 929 931 933 935 937 939 941 943 945 947 0
-957 -1006 958 0
-958 957 0
-958 1006 0
-959 -1007 960 0
-960 959 0
-960 1007 0
-961 -1008 962 0
-962 961 0
-962 1008 0
-964 0
-965 -1010 966 0
-966 965 0
-966 1010 0
-967 -1011 968 0
-968 967 0
-968 1011 0
-969 -1012 970 0
-970 969 0
-970 1012 0
-972 0
-973 -1014 974 0
-974 973 0
-974 1014 0
-975 -1015 976 0
-976 975 0
-976 1015 0
-977 -1016 978 0
-978 977 0
-978 1016 0
-980 0
-981 -1018 982 0
-982 981 0
-982 1018 0
-983 -1019 984 0
-984 983 0
-984 1019 0
-985 -1020 986 0
-986 985 0
-986 1020 0
-988 0
-989 -1022 990 0
-990 989 0
-990 1022 0
-991 -1023 992 0
-992 991 0
-992 1023 0
-993 -1024 994 0
-994 993 0
-994 1024 0
-996 0
-997 -1026 998 0
-998 997 0
-998 1026 0
-999 -1027 1000 0
-1000 999 0
-1000 1027 0
-1001 -1028 1002 0
-1002 1001 0
-1002 1028 0
-1004 0
-956 -958 0
-956 -960 0
-956 -962 0
-956 -964 0
-956 -966 0
-956 -968 0
-956 -970 0
-956 -972 0
-956 -974 0
-956 -976 0
-956 -978 0
-956 -980 0
-956 -982 0
-956 -984 0
-956 -986 0
-956 -988 0
-956 -990 0
-956 -992 0
-956 -994 0
-956 -996 0
-956 -998 0
-956 -1000 0
-956 -1002 0
-956 -1004 0
956 958 960 962 964 966 968 970 972 974 976 978 980 982 984 986 988 990 992 994 996 998 1000 1002 1004 0
1029 1030 1031 1032 1033 1034 0
-1029 -1030 0
-1029 -1031 0
-1029 -1032 0
-1029 -1033 0
-1029 -1034 0
-1030 -1031 0
-1030 -1032 0
-1030 -1033 0
-1030 -1034 0
-1031 -1032 0
-1031 -1033 0
-1031 -1034 0
-1032 -1033 0
-1032 -1034 0
-1033 -1034 0
1035 1036 1037 1038 0
-1035 -1036 0
-1035 -1037 0
-1035 -1038 0
-1036 -1037 0
-1036 -1038 0
-1037 -1038 0
1088 1089 1090 1091 1092 1093 0
-1088 -1089 0
-1088 -1090 0
-1088 -1091 0
-1088 -1092 0
-1088 -1093 0
-1089 -1090 0
-1089 -1091 0
-1089 -1092 0
-1089 -1093 0
-1090 -1091 0
-1090 -1092 0
-1090 -1093 0
-1091 -1092 0
-1091 -1093 0
-1092 -1093 0
1094 1095 1096 1097 0
-1094 -1095 0
-1094 -1096 0
-1094 -1097 0
-1095 -1096 0
-1095 -1097 0
-1096 -1097 0
1147 1148 1149 1150 1151 0
-1147 -1148 0
-1147 -1149 0
-1147 -1150 0
-1147 -1151 0
-1148 -1149 0
-1148 -1150 0
-1148 -1151 0
-1149 -1150 0
-1149 -1151 0
-1150 -1151 0
1152 1153 1154 1155 0
-1152 -1153 0
-1152 -1154 0
-1152 -1155 0
-1153 -1154 0
-1153 -1155 0
-1154 -1155 0
1205 1206 1207 1208 0
-1205 -1206 0
-1205 -1207 0
-1205 -1208 0
-1206 -1207 0
-1206 -1208 0
-1207 -1208 0
1209 1210 1211 1212 0
-1209 -1210 0
-1209 -1211 0
-1209 -1212 0
-1210 -1211 0
-1210 -1212 0
-1211 -1212 0
-1029 -1035 1040 0
-1040 1035 0
-1040 1029 0
-1029 -1036 1042 0
-1042 1036 0
-1042 1029 0
-1029 -1037 1044 0
-1044 1037 0
-1044 1029 0
-1029 -1038 1046 0
-1046 1038 0
-1046 1029 0
-1030 -1035 1048 0
-1048 1035 0
-1048 1030 0
-1030 -1036 1050 0
-1050 1036 0
-1050 1030 0
-1030 -1037 1052 0
-1052 1037 0
-1052 1030 0
-1030 -1038 1054 0
-1054 1038 0
-1054 1030 0
-1031 -1035 1056 0
-1056 1035 0
-1056 1031 0
-1031 -1036 1058 0
-1058 1036 0
-1058 1031 0
-1031 -1037 1060 0
-1060 1037 0
-1060 1031 0
-1031 -1038 1062 0
-1062 1038 0
-1062 1031 0
-1032 -1035 1064 0
-1064 1035 0
-1064 1032 0
-1032 -1036 1066 0
-1066 1036 0
-1066 1032 0
-1032 -1037 1068 0
-1068 1037 0
-1068 1032 0
-1032 -1038 1070 0
-1070 1038 0
-1070 1032 0
-1033 -1035 1072 0
-1072 1035 0
-1072 1033 0
-1033 -1036 1074 0
-1074 1036 0
-1074 1033 0
-1033 -1037 1076 0
-1076 1037 0
-1076 1033 0
-1033 -1038 1078 0
-1078 1038 0
-1078 1033 0
-1034 -1035 1080 0
-1080 1035 0
-1080 1034 0
-1034 -1036 1082 0
-1082 1036 0
-1082 1034 0
-1034 -1037 1084 0
-1084 1037 0
-1084 1034 0
-1034 -1038 1086 0
-1086 1038 0
-1086 1034 0
-1088 -1094 1099 0
-1099 1094 0
-1099 1088 0
-1088 -1095 1101 0
-1101 1095 0
-1101 1088 0
-1088 -1096 1103 0
-1103 1096 0
-1103 1088 0
-1088 -1097 1105 0
-1105 1097 0
-1105 1088 0
-1089 -1094 1107 0
-1107 1094 0
-1107 1089 0
-1089 -1095 1109 0
-1109 1095 0
-1109 1089 0
-1089 -1096 1111 0
-1111 1096 0
-1111 1089 0
-1089 -1097 1113 0
-1113 1097 0
-1113 1089 0
-1090 -1094 1115 0
-1115 1094 0
-1115 1090 0
-1090 -1095 1117 0
-1117 1095 0
-1117 1090 0
-1090 -1096 1119 0
-1119 1096 0
-1119 1090 0
-1090 -1097 1121 0
-1121 1097 0
-1121 1090 0
-1091 -1094 1123 0
-1123 1094 0
-1123 1091 0
-1091 -1095 1125 0
-1125 1095 0
-1125 1091 0
-1091 -1096 1127 0
-1127 1096 0
-1127 1091 0
-1091 -1097 1129 0
-1129 1097 0
-1129 1091 0
-1092 -1094 1131 0
-1131 1094 0
-1131 1092 0
-1092 -1095 1133 0
-1133 1095 0
-1133 1092 0
-1092 -1096 1135 0
-1135 1096 0
-1135 1092 0
-1092 -1097 1137 0
-1137 1097 0
-1137 1092 0
-1093 -1094 1139 0
-1139 1094 0
-1139 1093 0
-1093 -1095 1141 0
-1141 1095 0
-1141 1093 0
-1093 -1096 1143 0
-1143 1096 0
-1143 1093 0
-1093 -1097 1145 0
-1145 1097 0
-1145 1093 0
-1147 -1152 1157 0
-1157 1152 0
-1157 1147 0
-1147 -1153 1159 0
-1159 1153 0
-1159 1147 0
-1147 -1154 1161 0
-1161 1154 0
-1161 1147 0
-1147 -1155 1163 0
-1163 1155 0
-1163 1147 0
-1147 -1152 1165 0
-1148 -1152 1165 0
-1165 1152 0
-1165 1147 1148 0
-1147 -1153 1167 0
-1148 -1153 1167 0
-1167 1153 0
-1167 1147 1148 0
-1147 -1154 1169 0
-1148 -1154 1169 0
-1169 1154 0
-1169 1147 1148 0
-1147 -1155 1171 0
-1148 -1155 1171 0
-1171 1155 0
-1171 1147 1148 0
-1148 -1152 1173 0
-1149 -1152 1173 0
-1173 1152 0
-1173 1148 1149 0
-1148 -1153 1175 0
-1149 -1153 1175 0
-1175 1153 0
-1175 1148 1149 0
-1148 -1154 1177 0
-1149 -1154 1177 0
-1177 1154 0
-1177 1148 1149 0
-1148 -1155 1179 0
-1149 -1155 1179 0
-1179 1155 0
-1179 1148 1149 0
-1149 -1152 1181 0
-1150 -1152 1181 0
-1181 1152 0
-1181 1149 1150 0
-1149 -1153 1183 0
-1150 -1153 1183 0
-1183 1153 0
-1183 1149 1150 0
-1149 -1154 1185 0
-1150 -1154 1185 0
-1185 1154 0
-1185 1149 1150 0
-1149 -1155 1187 0
-1150 -1155 1187 0
-1187 1155 0
-1187 1149 1150 0
-1150 -1152 1189 0
-1151 -1152 1189 0
-1189 1152 0
-1189 1150 1151 0
-1150 -1153 1191 0
-1151 -1153 1191 0
-1191 1153 0
-1191 1150 1151 0
-1150 -1154 1193 0
-1151 -1154 1193 0
-1193 1154 0
-1193 1150 1151 0
-1150 -1155 1195 0
-1151 -1155 1195 0
-1195 1155 0
-1195 1150 1151 0
-1151 -1152 1197 0
-1197 1152 0
-1197 1151 0
-1151 -1153 1199 0
-1199 1153 0
-1199 1151 0
-1151 -1154 1201 0
-1201 1154 0
-1201 1151 0
-1151 -1155 1203 0
-1203 1155 0
-1203 1151 0
-1205 -1209 1214 0
-1214 1209 0
-1214 1205 0
-1205 -1210 1216 0
-1216 1210 0
-1216 1205 0
-1205 -1211 1218 0
-1218 1211 0
-1218 1205 0
-1205 -1212 1220 0
-1220 1212 0
-1220 1205 0
-1205 -1209 1222 0
-1206 -1209 1222 0
-1222 1209 0
-1222 1205 1206 0
-1205 -1210 1224 0
-1206 -1210 1224 0
-1224 1210 0
-1224 1205 1206 0
-1205 -1211 1226 0
-1206 -1211 1226 0
-1226 1211 0
-1226 1205 1206 0
-1205 -1212 1228 0
-1206 -1212 1228 0
-1228 1212 0
-1228 1205 1206 0
-1205 -1209 1230 0
-1206 -1209 1230 0
-1207 -1209 1230 0
-1230 1209 0
-1230 1205 1206 1207 0
-1205 -1210 1232 0
-1206 -1210 1232 0
-1207 -1210 1232 0
-1232 1210 0
-1232 1205 1206 1207 0
-1205 -1211 1234 0
-1206 -1211 1234 0
-1207 -1211 1234 0
-1234 1211 0
-1234 1205 1206 1207 0
-1205 -1212 1236 0
-1206 -1212 1236 0
-1207 -1212 1236 0
-1236 1212 0
-1236 1205 1206 1207 0
-1206 -1209 1238 0
-1207 -1209 1238 0
-1208 -1209 1238 0
-1238 1209 0
-1238 1206 1207 1208 0
-1206 -1210 1240 0
-1207 -1210 1240 0
-1208 -1210 1240 0
-1240 1210 0
-1240 1206 1207 1208 0
-1206 -1211 1242 0
-1207 -1211 1242 0
-1208 -1211 1242 0
-1242 1211 0
-1242 1206 1207 1208 0
-1206 -1212 1244 0
-1207 -1212 1244 0
-1208 -1212 1244 0
-1244 1212 0
-1244 1206 1207 1208 0
-1207 -1209 1246 0
-1208 -1209 1246 0
-1246 1209 0
-1246 1207 1208 0
-1207 -1210 1248 0
-1208 -1210 1248 0
-1248 1210 0
-1248 1207 1208 0
-1207 -1211 1250 0
-1208 -1211 1250 0
-1250 1211 0
-1250 1207 1208 0
-1207 -1212 1252 0
-1208 -1212 1252 0
-1252 1212 0
-1252 1207 1208 0
-1208 -1209 1254 0
-1254 1209 0
-1254 1208 0
-1208 -1210 1256 0
-1256 1210 0
-1256 1208 0
-1208 -1211 1258 0
-1258 1211 0
-1258 1208 0
-1208 -1212 1260 0
-1260 1212 0
-1260 1208 0
-1040 1262 0
-1099 1262 0
-1157 1262 0
-1214 1262 0
-1262 1040 1099 1157 1214 0
-1042 1263 0
-1101 1263 0
-1159 1263 0
-1216 1263 0
-1263 1042 1101 1159 1216 0
-1044 1264 0
-1103 1264 0
-1161 1264 0
-1218 1264 0
-1264 1044 1103 1161 1218 0
-1046 1265 0
-1105 1265 0
-1163 1265 0
-1220 1265 0
-1265 1046 1105 1163 1220 0
-1048 1266 0
-1107 1266 0
-1165 1266 0
-1222 1266 0
-1266 1048 1107 1165 1222 0
-1050 1267 0
-1109 1267 0
-1167 1267 0
-1224 1267 0
-1267 1050 1109 1167 1224 0
-1052 1268 0
-1111 1268 0
-1169 1268 0
-1226 1268 0
-1268 1052 1111 1169 1226 0
-1054 1269 0
-1113 1269 0
-1171 1269 0
-1228 1269 0
-1269 1054 1113 1171 1228 0
-1056 1270 0
-1115 1270 0
-1173 1270 0
-1230 1270 0
-1270 1056 1115 1173 1230 0
-1058 1271 0
-1117 1271 0
-1175 1271 0
-1232 1271 0
-1271 1058 1117 1175 1232 0
-1060 1272 0
-1119 1272 0
-1177 1272 0
-1234 1272 0
-1272 1060 1119 1177 1234 0
-1062 1273 0
-1121 1273 0
-1179 1273 0
-1236 1273 0
-1273 1062 1121 1179 1236 0
-1064 1274 0
-1123 1274 0
-1181 1274 0
-1238 1274 0
-1274 1064 1123 1181 1238 0
-1066 1275 0
-1125 1275 0
-1183 1275 0
-1240 1275 0
-1275 1066 1125 1183 1240 0
-1068 1276 0
-1127 1276 0
-1185 1276 0
-1242 1276 0
-1276 1068 1127 1185 1242 0
-1070 1277 0
-1129 1277 0
-1187 1277 0
-1244 1277 0
-1277 1070 1129 1187 1244 0
-1072 1278 0
-1131 1278 0
-1189 1278 0
-1246 1278 0
-1278 1072 1131 1189 1246 0
-1074 1279 0
-1133 1279 0
-1191 1279 0
-1248 1279 0
-1279 1074 1133 1191 1248 0
-1076 1280 0
-1135 1280 0
-1193 1280 0
-1250 1280 0
-1280 1076 1135 1193 1250 0
-1078 1281 0
-1137 1281 0
-1195 1281 0
-1252 1281 0
-1281 1078 1137 1195 1252 0
-1080 1282 0
-1139 1282 0
-1197 1282 0
-1254 1282 0
-1282 1080 1139 1197 1254 0
-1082 1283 0
-1141 1283 0
-1199 1283 0
-1256 1283 0
-1283 1082 1141 1199 1256 0
-1084 1284 0
-1143 1284 0
-1201 1284 0
-1258 1284 0
-1284 1084 1143 1201 1258 0
-1086 1285 0
-1145 1285 0
-1203 1285 0
-1260 1285 0
-1285 1086 1145 1203 1260 0
-1040 -1099 0
-1042 -1101 0
-1044 -1103 0
-1046 -1105 0
-1048 -1107 0
-1050 -1109 0
-1052 -1111 0
-1054 -1113 0
-1056 -1115 0
-1058 -1117 0
-1060 -1119 0
-1062 -1121 0
-1064 -1123 0
-1066 -1125 0
-1068 -1127 0
-1070 -1129 0
-1072 -1131 0
-1074 -1133 0
-1076 -1135 0
-1078 -1137 0
-1080 -1139 0
-1082 -1141 0
-1084 -1143 0
-1086 -1145 0
-1040 -1157 0
-1042 -1159 0
-1044 -1161 0
-1046 -1163 0
-1048 -1165 0
-1050 -1167 0
-1052 -1169 0
-1054 -1171 0
-1056 -1173 0
-1058 -1175 0
-1060 -1177 0
-1062 -1179 0
-1064 -1181 0
-1066 -1183 0
-1068 -1185 0
-1070 -1187 0
-1072 -1189 0
-1074 -1191 0
-1076 -1193 0
-1078 -1195 0
-1080 -1197 0
-1082 -1199 0
-1084 -1201 0
-1086 -1203 0
-1040 -1214 0
-1042 -1216 0
-1044 -1218 0
-1046 -1220 0
-1048 -1222 0
-1050 -1224 0
-1052 -1226 0
-1054 -1228 0
-1056 -1230 0
-1058 -1232 0
-1060 -1234 0
-1062 -1236 0
-1064 -1238 0
-1066 -1240 0
-1068 -1242 0
-1070 -1244 0
-1072 -1246 0
-1074 -1248 0
-1076 -1250 0
-1078 -1252 0
-1080 -1254 0
-1082 -1256 0
-1084 -1258 0
-1086 -1260 0
-1099 -1157 0
-1101 -1159 0
-1103 -1161 0
-1105 -1163 0
-1107 -1165 0
-1109 -1167 0
-1111 -1169 0
-1113 -1171 0
-1115 -1173 0
-1117 -1175 0
-1119 -1177 0
-1121 -1179 0
-1123 -1181 0
-1125 -1183 0
-1127 -1185 0
-1129 -1187 0
-1131 -1189 0
-1133 -1191 0
-1135 -1193 0
-1137 -1195 0
-1139 -1197 0
-1141 -1199 0
-1143 -1201 0
-1145 -1203 0
-1099 -1214 0
-1101 -1216 0
-1103 -1218 0
-1105 -1220 0
-1107 -1222 0
-1109 -1224 0
-1111 -1226 0
-1113 -1228 0
-1115 -1230 0
-1117 -1232 0
-1119 -1234 0
-1121 -1236 0
-1123 -1238 0
-1125 -1240 0
-1127 -1242 0
-1129 -1244 0
-1131 -1246 0
-1133 -1248 0
-1135 -1250 0
-1137 -1252 0
-1139 -1254 0
-1141 -1256 0
-1143 -1258 0
-1145 -1260 0
-1157 -1214 0
-1159 -1216 0
-1161 -1218 0
-1163 -1220 0
-1165 -1222 0
-1167 -1224 0
-1169 -1226 0
-1171 -1228 0
-1173 -1230 0
-1175 -1232 0
-1177 -1234 0
-1179 -1236 0
-1181 -1238 0
-1183 -1240 0
-1185 -1242 0
-1187 -1244 0
-1189 -1246 0
-1191 -1248 0
-1193 -1250 0
-1195 -1252 0
-1197 -1254 0
-1199 -1256 0
-1201 -1258 0
-1203 -1260 0
-1029 -1036 1262 0
-1029 -1037 1263 0
-1029 -1038 1264 0
-1030 -1036 1266 0
-1030 -1037 1267 0
-1030 -1038 1268 0
-1031 -1036 1270 0
-1031 -1037 1271 0
-1031 -1038 1272 0
-1032 -1036 1274 0
-1032 -1037 1275 0
-1032 -1038 1276 0
-1033 -1036 1278 0
-1033 -1037 1279 0
-1033 -1038 1280 0
-1034 -1036 1282 0
-1034 -1037 1283 0
-1034 -1038 1284 0
-1088 -1095 1262 0
-1088 -1096 1263 0
-1088 -1097 1264 0
-1089 -1095 1266 0
-1089 -1096 1267 0
-1089 -1097 1268 0
-1090 -1095 1270 0
-1090 -1096 1271 0
-1090 -1097 1272 0
-1091 -1095 1274 0
-1091 -1096 1275 0
-1091 -1097 1276 0
-1092 -1095 1278 0
-1092 -1096 1279 0
-1092 -1097 1280 0
-1093 -1095 1282 0
-1093 -1096 1283 0
-1093 -1097 1284 0
-1147 -1153 1262 1266 0
-1147 -1154 1263 1267 0
-1147 -1155 1264 1268 0
-1148 -1153 1266 1270 0
-1148 -1154 1267 1271 0
-1148 -1155 1268 1272 0
-1149 -1153 1270 1274 0
-1149 -1154 1271 1275 0
-1149 -1155 1272 1276 0
-1150 -1153 1274 1278 0
-1150 -1154 1275 1279 0
-1150 -1155 1276 1280 0
-1151 -1153 1278 1282 0
-1151 -1154 1279 1283 0
-1151 -1155 1280 1284 0
-1205 -1210 1262 1266 0
-1205 -1210 1262 1270 0
-1205 -1210 1266 1270 0
-1205 -1211 1263 1267 0
-1205 -1211 1263 1271 0
-1205 -1211 1267 1271 0
-1205 -1212 1264 1268 0
-1205 -1212 1264 1272 0
-1205 -1212 1268 1272 0
-1206 -1210 1266 1270 0
-1206 -1210 1266 1274 0
-1206 -1210 1270 1274 0
-1206 -1211 1267 1271 0
-1206 -1211 1267 1275 0
-1206 -1211 1271 1275 0
-1206 -1212 1268 1272 0
-1206 -1212 1268 1276 0
-1206 -1212 1272 1276 0
-1207 -1210 1270 1274 0
-1207 -1210 1270 1278 0
-1207 -1210 1274 1278 0
-1207 -1211 1271 1275 0
-1207 -1211 1271 1279 0
-1207 -1211 1275 1279 0
-1207 -1212 1272 1276 0
-1207 -1212 1272 1280 0
-1207 -1212 1276 1280 0
-1208 -1210 1274 1278 0
-1208 -1210 1274 1282 0
-1208 -1210 1278 1282 0
-1208 -1211 1275 1279 0
-1208 -1211 1275 1283 0
-1208 -1211 1279 1283 0
-1208 -1212 1276 1280 0
-1208 -1212 1276 1284 0
-1208 -1212 1280 1284 0
-1040 -1263 1041 0
-1041 1040 0
-1041 1263 0
-1042 -1264 1043 0
-1043 1042 0
-1043 1264 0
-1044 -1265 1045 0
-1045 1044 0
-1045 1265 0
-1047 0
-1048 -1267 1049 0
-1049 1048 0
-1049 1267 0
-1050 -1268 1051 0
-1051 1050 0
-1051 1268 0
-1052 -1269 1053 0
-1053 1052 0
-1053 1269 0
-1055 0
-1056 -1271 1057 0
-1057 1056 0
-1057 1271 0
-1058 -1272 1059 0
-1059 1058 0
-1059 1272 0
-1060 -1273 1061 0
-1061 1060 0
-1061 1273 0
-1063 0
-1064 -1275 1065 0
-1065 1064 0
-1065 1275 0
-1066 -1276 1067 0
-1067 1066 0
-1067 1276 0
-1068 -1277 1069 0
-1069 1068 0
-1069 1277 0
-1071 0
-1072 -1279 1073 0
-1073 1072 0
-1073 1279 0
-1074 -1280 1075 0
-1075 1074 0
-1075 1280 0
-1076 -1281 1077 0
-1077 1076 0
-1077 1281 0
-1079 0
-1080 -1283 1081 0
-1081 1080 0
-1081 1283 0
-1082 -1284 1083 0
-1083 1082 0
-1083 1284 0
-1084 -1285 1085 0
-1085 1084 0
-1085 1285 0
-1087 0
-1039 -1041 0
-1039 -1043 0
-1039 -1045 0
-1039 -1047 0
-1039 -1049 0
-1039 -1051 0
-1039 -1053 0
-1039 -1055 0
-1039 -1057 0
-1039 -1059 0
-1039 -1061 0
-1039 -1063 0
-1039 -1065 0
-1039 -1067 0
-1039 -1069 0
-1039 -1071 0
-1039 -1073 0
-1039 -1075 0
-1039 -1077 0
-1039 -1079 0
-1039 -1081 0
-1039 -1083 0
-1039 -1085 0
-1039 -1087 0
1039 1041 1043 1045 1047 1049 1051 1053 1055 1057 1059 1061 1063 1065 1067 1069 1071 1073 1075 1077 1079 1081 1083 1085 1087 0
-1099 -1263 1100 0
-1100 1099 0
-1100 1263 0
-1101 -1264 1102 0
-1102 1101 0
-1102 1264 0
-1103 -1265 1104 0
-1104 1103 0
-1104 1265 0
-1106 0
-1107 -1267 1108 0
-1108 1107 0
-1108 1267 0
-1109 -1268 1110 0
-1110 1109 0
-1110 1268 0
-1111 -1269 1112 0
-1112 1111 0
-1112 1269 0
-1114 0
-1115 -1271 1116 0
-1116 1115 0
-1116 1271 0
-1117 -1272 1118 0
-1118 1117 0
-1118 1272 0
-1119 -1273 1120 0
-1120 1119 0
-1120 1273 0
-1122 0
-1123 -1275 1124 0
-1124 1123 0
-1124 1275 0
-1125 -1276 1126 0
-1126 1125 0
-1126 1276 0
-1127 -1277 1128 0
-1128 1127 0
-1128 1277 0
-1130 0
-1131 -1279 1132 0
-1132 1131 0
-1132 1279 0
-1133 -1280 1134 0
-1134 1133 0
-1134 1280 0
-1135 -1281 1136 0
-1136 1135 0
-1136 1281 0
-1138 0
-1139 -1283 1140 0
-1140 1139 0
-1140 1283 0
-1141 -1284 1142 0
-1142 1141 0
-1142 1284 0
-1143 -1285 1144 0
-1144 1143 0
-1144 1285 0
-1146 0
-1098 -1100 0
-1098 -1102 0
-1098 -1104 0
-1098 -1106 0
-1098 -1108 0
-1098 -1110 0
-1098 -1112 0
-1098 -1114 0
-1098 -1116 0
-1098 -1118 0
-1098 -1120 0
-1098 -1122 0
-1098 -1124 0
-1098 -1126 0
-1098 -1128 0
-1098 -1130 0
-1098 -1132 0
-1098 -1134 0
-1098 -1136 0
-1098 -1138 0
-1098 -1140 0
-1098 -1142 0
-1098 -1144 0
-1098 -1146 0
1098 1100 1102 1104 1106 1108 1110 1112 1114 1116 1118 1120 1122 1124 1126 1128 1130 1132 1134 1136 1138 1140 1142 1144 1146 0
-1157 -1263 1158 0
-1158 1157 0
-1158 1263 0
-1159 -1264 1160 0
-1160 1159 0
-1160 1264 0
-1161 -1265 1162 0
-1162 1161 0
-1162 1265 0
-1164 0
-1165 -1267 1166 0
-1166 1165 0
-1166 1267 0
-1167 -1268 1168 0
-1168 1167 0
-1168 1268 0
-1169 -1269 1170 0
-1170 1169 0
-1170 1269 0
-1172 0
-1173 -1271 1174 0
-1174 1173 0
-1174 1271 0
-1175 -1272 1176 0
-1176 1175 0
-1176 1272 0
-1177 -1273 1178 0
-1178 1177 0
-1178 1273 0
-1180 0
-1181 -1275 1182 0
-1182 1181 0
-1182 1275 0
-1183 -1276 1184 0
-1184 1183 0
-1184 1276 0
-1185 -1277 1186 0
-1186 1185 0
-1186 1277 0
-1188 0
-1189 -1279 1190 0
-1190 1189 0
-1190 1279 0
-1191 -1280 1192 0
-1192 1191 0
-1192 1280 0
-1193 -1281 1194 0
-1194 1193 0
-1194 1281 0
-1196 0
-1197 -1283 1198 0
-1198 1197 0
-1198 1283 0
-1199 -1284 1200 0
-1200 1199 0
-1200 1284 0
-1201 -1285 1202 0
-1202 1201 0
-1202 1285 0
-1204 0
-1156 -1158 0
-1156 -1160 0
-1156 -1162 0
-1156 -1164 0
-1156 -1166 0
-1156 -1168 0
-1156 -1170 0
-1156 -1172 0
-1156 -1174 0
-1156 -1176 0
-1156 -1178 0
-1156 -1180 0
-1156 -1182 0
-1156 -1184 0
-1156 -1186 0
-1156 -1188 0
-1156 -1190 0
-1156 -1192 0
-1156 -1194 0
-1156 -1196 0
-1156 -1198 0
-1156 -1200 0
-1156 -1202 0
-1156 -1204 0
1156 1158 1160 1162 1164 1166 1168 1170 1172 1174 1176 1178 1180 1182 1184 1186 1188 1190 1192 1194 1196 1198 1200 1202 1204 0
-1214 -1263 1215 0
-1215 1214 0
-1215 1263 0
-1216 -1264 1217 0
-1217 1216 0
-1217 1264 0
-1218 -1265 1219 0
-1219 1218 0
-1219 1265 0
-1221 0
-1222 -1267 1223 0
-1223 1222 0
-1223 1267 0
-1224 -1268 1225 0
-1225 1224 0
-1225 1268 0
-1226 -1269 1227 0
-1227 1226 0
-1227 1269 0
-1229 0
-1230 -1271 1231 0
-1231 1230 0
-1231 1271 0
-1232 -1272 1233 0
-1233 1232 0
-1233 1272 0
-1234 -1273 1235 0
-1235 1234 0
-1235 1273 0
-1237 0
-1238 -1275 1239 0
-1239 1238 0
-1239 1275 0
-1240 -1276 1241 0
-1241 1240 0
-1241 1276 0
-1242 -1277 1243 0
-1243 1242 0
-1243 1277 0
-1245 0
-1246 -1279 1247 0
-1247 1246 0
-1247 1279 0
-1248 -1280 1249 0
-1249 1248 0
-1249 1280 0
-1250 -1281 1251 0
-1251 1250 0
-1251 1281 0
-1253 0
-1254 -1283 1255 0
-1255 1254 0
-1255 1283 0
-1256 -1284 1257 0
-1257 1256 0
-1257 1284 0
-1258 -1285 1259 0
-1259 1258 0
-1259 1285 0
-1261 0
-1213 -1215 0
-1213 -1217 0
-1213 -1219 0
-1213 -1221 0
-1213 -1223 0
-1213 -1225 0
-1213 -1227 0
-1213 -1229 0
-1213 -1231 0
-1213 -1233 0
-1213 -1235 0
-1213 -1237 0
-1213 -1239 0
-1213 -1241 0
-1213 -1243 0
-1213 -1245 0
-1213 -1247 0
-1213 -1249 0
-1213 -1251 0
-1213 -1253 0
-1213 -1255 0
-1213 -1257 0
-1213 -1259 0
-1213 -1261 0
1213 1215 1217 1219 1221 1223 1225 1227 1229 1231 1233 1235 1237 1239 1241 1243 1245 1247 1249 1251 1253 1255 1257 1259 1261 0
-1286 -1287 0
-1286 -1288 0
-1286 -1289 0
-1286 -1290 0
-1286 -1291 0
-1286 -1292 0
-1286 -1293 0
-1286 -1294 0
-1286 -1295 0
-1286 -1296 0
-1286 -1297 0
-1286 -1298 0
-1286 -1299 0
-1286 -1300 0
-1286 -1301 0
-1286 -1302 0
-1286 -1303 0
-1286 -1304 0
-1286 -1305 0
-1286 -1306 0
-1286 -1307 0
-1286 -1308 0
-1286 -1309 0
-1286 -1310 0
-1286 -1311 0
-1286 -1312 0
-1286 -1313 0
-1286 -1314 0
-1286 -1315 0
-1286 -1316 0
-1286 -1317 0
-1286 -1318 0
-1286 -1319 0
-1286 -1320 0
-1286 -1321 0
-1286 -1322 0
-1286 -1323 0
-1286 -1324 0
-1286 -1325 0
-1286 -1326 0
-1286 -1327 0
-1286 -1328 0
-1286 -1329 0
-1286 -1330 0
-1286 -1331 0
-1286 -1332 0
-1286 -1333 0
-1286 -1334 0
-1286 -1335 0
-1286 -1336 0
-1286 -1337 0
-1286 -1338 0
-1286 -1339 0
-1286 -1340 0
-1286 -1341 0
-1286 -1342 0
-1286 -1343 0
-1286 -1344 0
-1286 -1345 0
-1286 -1346 0
-1286 -1347 0
-1286 -1348 0
-1286 -1349 0
-1286 -1350 0
-1286 -1351 0
-1286 -1352 0
-1286 -1353 0
-1286 -1354 0
-1286 -1355 0
-1286 -1356 0
-1286 -1357 0
-1286 -1358 0
-1286 -1359 0
-1286 -1360 0
-1286 -1361 0
-1286 -1362 0
-1286 -1363 0
-1286 -1364 0
-1286 -1365 0
-1286 -1366 0
-1286 -1367 0
-1286 -1368 0
-1286 -1369 0
-1287 -1288 0
-1287 -1289 0
-1287 -1290 0
-1287 -1291 0
-1287 -1292 0
-1287 -1293 0
-1287 -1294 0
-1287 -1295 0
-1287 -1296 0
-1287 -1297 0
-1287 -1298 0
-1287 -1299 0
-1287 -1300 0
-1287 -1301 0
-1287 -1302 0
-1287 -1303 0
-1287 -1304 0
-1287 -1305 0
-1287 -1306 0
-1287 -1307 0
-1287 -1308 0
-1287 -1309 0
-1287 -1310 0
-1287 -1311 0
-1287 -1312 0
-1287 -1313 0
-1287 -1314 0
-1287 -1315 0
-1287 -1316 0
-1287 -1317 0
-1287 -1318 0
-1287 -1319 0
-1287 -1320 0
-1287 -1321 0
-1287 -1322 0
-1287 -1323 0
-1287 -1324 0
-1287 -1325 0
-1287 -1326 0
-1287 -1327 0
-1287 -1328 0
-1287 -1329 0
-1287 -1330 0
-1287 -1331 0
-1287 -1332 0
-1287 -1333 0
-1287 -1334 0
-1287 -1335 0
-1287 -1336 0
-1287 -1337 0
-1287 -1338 0
-1287 -1339 0
-1287 -1340 0
-1287 -1341 0
-1287 -1342 0
-1287 -1343 0
-1287 -1344 0
-1287 -1345 0
-1287 -1346 0
-1287 -1347 0
-1287 -1348 0
-1287 -1349 0
-1287 -1350 0
-1287 -1351 0
-1287 -1352 0
-1287 -1353 0
-1287 -1354 0
-1287 -1355 0
-1287 -1356 0
-1287 -1357 0
-1287 -1358 0
-1287 -1359 0
-1287 -1360 0
-1287 -1361 0
-1287 -1362 0
-1287 -1363 0
-1287 -1364 0
-1287 -1365 0
-1287 -1366 0
-1287 -1367 0
-1287 -1368 0
-1287 -1369 0
-1288 -1289 0
-1288 -1290 0
-1288 -1291 0
-1288 -1292 0
-1288 -1293 0
-1288 -1294 0
-1288 -1295 0
-1288 -1296 0
-1288 -1297 0
-1288 -1298 0
-1288 -1299 0
-1288 -1300 0
-1288 -1301 0
-1288 -1302 0
-1288 -1303 0
-1288 -1304 0
-1288 -1305 0
-1288 -1306 0
-1288 -1307 0
-1288 -1308 0
-1288 -1309 0
-1288 -1310 0
-1288 -1311 0
-1288 -1312 0
-1288 -1313 0
-1288 -1314 0
-1288 -1315 0
-1288 -1316 0
-1288 -1317 0
-1288 -1318 0
-1288 -1319 0
-1288 -1320 0
-1288 -1321 0
-1288 -1322 0
-1288 -1323 0
-1288 -1324 0
-1288 -1325 0
-1288 -1326 0
-1288 -1327 0
-1288 -1328 0
-1288 -1329 0
-1288 -1330 0
-1288 -1331 0
-1288 -1332 0
-1288 -1333 0
-1288 -1334 0
-1288 -1335 0
-1288 -1336 0
-1288 -1337 0
-1288 -1338 0
-1288 -1339 0
-1288 -1340 0
-1288 -1341 0
-1288 -1342 0
-1288 -1343 0
-1288 -1344 0
-1288 -1345 0
-1288 -1346 0
-1288 -1347 0
-1288 -1348 0
-1288 -1349 0
-1288 -1350 0
-1288 -1351 0
-1288 -1352 0
-1288 -1353 0
-1288 -1354 0
-1288 -1355 0
-1288 -1356 0
-1288 -1357 0
-1288 -1358 0
-1288 -1359 0
-1288 -1360 0
-1288 -1361 0
-1288 -1362 0
-1288 -1363 0
-1288 -1364 0
-1288 -1365 0
-1288 -1366 0
-1288 -1367 0
-1288 -1368 0
-1288 -1369 0
-1289 -1290 0
-1289 -1291 0
-1289 -1292 0
-1289 -1293 0
-1289 -1294 0
-1289 -1295 0
-1289 -1296 0
-1289 -1297 0
-1289 -1298 0
-1289 -1299 0
-1289 -1300 0
-1289 -1301 0
-1289 -1302 0
-1289 -1303 0
-1289 -1304 0
-1289 -1305 0
-1289 -1306 0
-1289 -1307 0
-1289 -1308 0
-1289 -1309 0
-1289 -1310 0
-1289 -1311 0
-1289 -1312 0
-1289 -1313 0
-1289 -1314 0
-1289 -1315 0
-1289 -1316 0
-1289 -1317 0
-1289 -1318 0
-1289 -1319 0
-1289 -1320 0
-1289 -1321 0
-1289 -1322 0
-1289 -1323 0
-1289 -1324 0
-1289 -1325 0
-1289 -1326 0
-1289 -1327 0
-1289 -1328 0
-1289 -1329 0
-1289 -1330 0
-1289 -1331 0
-1289 -1332 0
-1289 -1333 0
-1289 -1334 0
-1289 -1335 0
-1289 -1336 0
-1289 -1337 0
-1289 -1338 0
-1289 -1339 0
-1289 -1340 0
-1289 -1341 0
-1289 -1342 0
-1289 -1343 0
-1289 -1344 0
-1289 -1345 0
-1289 -1346 0
-1289 -1347 0
-1289 -1348 0
-1289 -1349 0
-1289 -1350 0
-1289 -1351 0
-1289 -1352 0
-1289 -1353 0
-1289 -1354 0
-1289 -1355 0
-1289 -1356 0
-1289 -1357 0
-1289 -1358 0
-1289 -1359 0
-1289 -1360 0
-1289 -1361 0
-1289 -1362 0
-1289 -1363 0
-1289 -1364 0
-1289 -1365 0
-1289 -1366 0
-1289 -1367 0
-1289 -1368 0
-1289 -1369 0
-1290 -1291 0
-1290 -1292 0
-1290 -1293 0
-1290 -1294 0
-1290 -1295 0
-1290 -1296 0
-1290 -1297 0
-1290 -1298 0
-1290 -1299 0
-1290 -1300 0
-1290 -1301 0
-1290 -1302 0
-1290 -1303 0
-1290 -1304 0
-1290 -1305 0
-1290 -1306 0
-1290 -1307 0
-1290 -1308 0
-1290 -1309 0
-1290 -1310 0
-1290 -1311 0
-1290 -1312 0
-1290 -1313 0
-1290 -1314 0
-1290 -1315 0
-1290 -1316 0
-1290 -1317 0
-1290 -1318 0
-1290 -1319 0
-1290 -1320 0
-1290 -1321 0
-1290 -1322 0
-1290 -1323 0
-1290 -1324 0
-1290 -1325 0
-1290 -1326 0
-1290 -1327 0
-1290 -1328 0
-1290 -1329 0
-1290 -1330 0
-1290 -1331 0
-1290 -1332 0
-1290 -1333 0
-1290 -1334 0
-1290 -1335 0
-1290 -1336 0
-1290 -1337 0
-1290 -1338 0
-1290 -1339 0
-1290 -1340 0
-1290 -1341 0
-1290 -1342 0
-1290 -1343 0
-1290 -1344 0
-1290 -1345 0
-1290 -1346 0
-1290 -1347 0
-1290 -1348 0
-1290 -1349 0
-1290 -1350 0
-1290 -1351 0
-1290 -1352 0
-1290 -1353 0
-1290 -1354 0
-1290 -1355 0
-1290 -1356 0
-1290 -1357 0
-1290 -1358 0
-1290 -1359 0
-1290 -1360 0
-1290 -1361 0
-1290 -1362 0
-1290 -1363 0
-1290 -1364 0
-1290 -1365 0
-1290 -1366 0
-1290 -1367 0
-1290 -1368 0
-1290 -1369 0
-1291 -1292 0
-1291 -1293 0
-1291 -1294 0
-1291 -1295 0
-1291 -1296 0
-1291 -1297 0
-1291 -1298 0
-1291 -1299 0
-1291 -1300 0
-1291 -1301 0
-1291 -1302 0
-1291 -1303 0
-1291 -1304 0
-1291 -1305 0
-1291 -1306 0
-1291 -1307 0
-1291 -1308 0
-1291 -1309 0
-1291 -1310 0
-1291 -1311 0
-1291 -1312 0
-1291 -1313 0
-1291 -1314 0
-1291 -1315 0
-1291 -1316 0
-1291 -1317 0
-1291 -1318 0
-1291 -1319 0
-1291 -1320 0
-1291 -1321 0
-1291 -1322 0
-1291 -1323 0
-1291 -1324 0
-1291 -1325 0
-1291 -1326 0
-1291 -1327 0
-1291 -1328 0
-1291 -1329 0
-1291 -1330 0
-1291 -1331 0
-1291 -1332 0
-1291 -1333 0
-1291 -1334 0
-1291 -1335 0
-1291 -1336 0
-1291 -1337 0
-1291 -1338 0
-1291 -1339 0
-1291 -1340 0
-1291 -1341 0
-1291 -1342 0
-1291 -1343 0
-1291 -1344 0
-1291 -1345 0
-1291 -1346 0
-1291 -1347 0
-1291 -1348 0
-1291 -1349 0
-1291 -1350 0
-1291 -1351 0
-1291 -1352 0
-1291 -1353 0
-1291 -1354 0
-1291 -1355 0
-1291 -1356 0
-1291 -1357 0
-1291 -1358 0
-1291 -1359 0
-1291 -1360 0
-1291 -1361 0
-1291 -1362 0
-1291 -1363 0
-1291 -1364 0
-1291 -1365 0
-1291 -1366 0
-1291 -1367 0
-1291 -1368 0
-1291 -1369 0
-1292 -1293 0
-1292 -1294 0
-1292 -1295 0
-1292 -1296 0
-1292 -1297 0
-1292 -1298 0
-1292 -1299 0
-1292 -1300 0
-1292 -1301 0
-1292 -1302 0
-1292 -1303 0
-1292 -1304 0
-1292 -1305 0
-1292 -1306 0
-1292 -1307 0
-1292 -1308 0
-1292 -1309 0
-1292 -1310 0
-1292 -1311 0
-1292 -1312 0
-1292 -1313 0
-1292 -1314 0
-1292 -1315 0
-1292 -1316 0
-1292 -1317 0
-1292 -1318 0
-1292 -1319 0
-1292 -1320 0
-1292 -1321 0
-1292 -1322 0
-1292 -1323 0
-1292 -1324 0
-1292 -1325 0
-1292 -1326 0
-1292 -1327 0
-1292 -1328 0
-1292 -1329 0
-1292 -1330 0
-1292 -1331 0
-1292 -1332 0
-1292 -1333 0
-1292 -1334 0
-1292 -1335 0
-1292 -1336 0
-1292 -1337 0
-1292 -1338 0
-1292 -1339 0
-1292 -1340 0
-1292 -1341 0
-1292 -1342 0
-1292 -1343 0
-1292 -1344 0
-1292 -1345 0
-1292 -1346 0
-1292 -1347 0
-1292 -1348 0
-1292 -1349 0
-1292 -1350 0
-1292 -1351 0
-1292 -1352 0
-1292 -1353 0
-1292 -1354 0
-1292 -1355 0
-1292 -1356 0
-1292 -1357 0
-1292 -1358 0
-1292 -1359 0
-1292 -1360 0
-1292 -1361 0
-1292 -1362 0
-1292 -1363 0
-1292 -1364 0
-1292 -1365 0
-1292 -1366 0
-1292 -1367 0
-1292 -1368 0
-1292 -1369 0
-1293 -1294 0
-1293 -1295 0
-1293 -1296 0
-1293 -1297 0
-1293 -1298 0
-1293 -1299 0
-1293 -1300 0
-1293 -1301 0
-1293 -1302 0
-1293 -1303 0
-1293 -1304 0
-1293 -1305 0
-1293 -1306 0
-1293 -1307 0
-1293 -1308 0
-1293 -1309 0
-1293 -1310 0
-1293 -1311 0
-1293 -1312 0
-1293 -1313 0
-1293 -1314 0
-1293 -1315 0
-1293 -1316 0
-1293 -1317 0
-1293 -1318 0
-1293 -1319 0
-1293 -1320 0
-1293 -1321 0
-1293 -1322 0
-1293 -1323 0
-1293 -1324 0
-1293 -1325 0
-1293 -1326 0
-1293 -1327 0
-1293 -1328 0
-1293 -1329 0
-1293 -1330 0
-1293 -1331 0
-1293 -1332 0
-1293 -1333 0
-1293 -1334 0
-1293 -1335 0
-1293 -1336 0
-1293 -1337 0
-1293 -1338 0
-1293 -1339 0
-1293 -1340 0
-1293 -1341 0
-1293 -1342 0
-1293 -1343 0
-1293 -1344 0
-1293 -1345 0
-1293 -1346 0
-1293 -1347 0
-1293 -1348 0
-1293 -1349 0
-1293 -1350 0
-1293 -1351 0
-1293 -1352 0
-1293 -1353 0
-1293 -1354 0
-1293 -1355 0
-1293 -1356 0
-1293 -1357 0
-1293 -1358 0
-1293 -1359 0
-1293 -1360 0
-1293 -1361 0
-1293 -1362 0
-1293 -1363 0
-1293 -1364 0
-1293 -1365 0
-1293 -1366 0
-1293 -1367 0
-1293 -1368 0
-1293 -1369 0
-1294 -1295 0
-1294 -1296 0
-1294 -1297 0
-1294 -1298 0
-1294 -1299 0
-1294 -1300 0
-1294 -1301 0
-1294 -1302 0
-1294 -1303 0
-1294 -1304 0
-1294 -1305 0
-1294 -1306 0
-1294 -1307 0
-1294 -1308 0
-1294 -1309 0
-1294 -1310 0
-1294 -1311 0
-1294 -1312 0
-1294 -1313 0
-1294 -1314 0
-1294 -1315 0
-1294 -1316 0
-1294 -1317 0
-1294 -1318 0
-1294 -1319 0
-1294 -1320 0
-1294 -1321 0
-1294 -1322 0
-1294 -1323 0
-1294 -1324 0
-1294 -1325 0
-1294 -1326 0
-1294 -1327 0
-1294 -1328 0
-1294 -1329 0
-1294 -1330 0
-1294 -1331 0
-1294 -1332 0
-1294 -1333 0
-1294 -1334 0
-1294 -1335 0
-1294 -1336 0
-1294 -1337 0
-1294 -1338 0
-1294 -1339 0
-1294 -1340 0
-1294 -1341 0
-1294 -1342 0
-1294 -1343 0
-1294 -1344 0
-1294 -1345 0
-1294 -1346 0
-1294 -1347 0
-1294 -1348 0
-1294 -1349 0
-1294 -1350 0
-1294 -1351 0
-1294 -1352 0
-1294 -1353 0
-1294 -1354 0
-1294 -1355 0
-1294 -1356 0
-1294 -1357 0
-1294 -1358 0
-1294 -1359 0
-1294 -1360 0
-1294 -1361 0
-1294 -1362 0
-1294 -1363 0
-1294 -1364 0
-1294 -1365 0
-1294 -1366 0
-1294 -1367 0
-1294 -1368 0
-1294 -1369 0
-1295 -1296 0
-1295 -1297 0
-1295 -1298 0
-1295 -1299 0
-1295 -1300 0
-1295 -1301 0
-1295 -1302 0
-1295 -1303 0
-1295 -1304 0
-1295 -1305 0
-1295 -1306 0
-1295 -1307 0
-1295 -1308 0
-1295 -1309 0
-1295 -1310 0
-1295 -1311 0
-1295 -1312 0
-1295 -1313 0
-1295 -1314 0
-1295 -1315 0
-1295 -1316 0
-1295 -1317 0
-1295 -1318 0
-1295 -1319 0
-1295 -1320 0
-1295 -1321 0
-1295 -1322 0
-1295 -1323 0
-1295 -1324 0
-1295 -1325 0
-1295 -1326 0
-1295 -1327 0
-1295 -1328 0
-1295 -1329 0
-1295 -1330 0
-1295 -1331 0
-1295 -1332 0
-1295 -1333 0
-1295 -1334 0
-1295 -1335 0
-1295 -1336 0
-1295 -1337 0
-1295 -1338 0
-1295 -1339 0
-1295 -1340 0
-1295 -1341 0
-1295 -1342 0
-1295 -1343 0
-1295 -1344 0
-1295 -1345 0
-1295 -1346 0
-1295 -1347 0
-1295 -1348 0
-1295 -1349 0
-1295 -1350 0
-1295 -1351 0
-1295 -1352 0
-1295 -1353 0
-1295 -1354 0
-1295 -1355 0
-1295 -1356 0
-1295 -1357 0
-1295 -1358 0
-1295 -1359 0
-1295 -1360 0
-1295 -1361 0
-1295 -1362 0
-1295 -1363 0
-1295 -1364 0
-1295 -1365 0
-1295 -1366 0
-1295 -1367 0
-1295 -1368 0
-1295 -1369 0
-1296 -1297 0
-1296 -1298 0
-1296 -1299 0
-1296 -1300 0
-1296 -1301 0
-1296 -1302 0
-1296 -1303 0
-1296 -1304 0
-1296 -1305 0
-1296 -1306 0
-1296 -1307 0
-1296 -1308 0
-1296 -1309 0
-1296 -1310 0
-1296 -1311 0
-1296 -1312 0
-1296 -1313 0
-1296 -1314 0
-1296 -1315 0
-1296 -1316 0
-1296 -1317 0
-1296 -1318 0
-1296 -1319 0
-1296 -1320 0
-1296 -1321 0
-1296 -1322 0
-1296 -1323 0
-1296 -1324 0
-1296 -1325 0
-1296 -1326 0
-1296 -1327 0
-1296 -1328 0
-1296 -1329 0
-1296 -1330 0
-1296 -1331 0
-1296 -1332 0
-1296 -1333 0
-1296 -1334 0
-1296 -1335 0
-1296 -1336 0
-1296 -1337 0
-1296 -1338 0
-1296 -1339 0
-1296 -1340 0
-1296 -1341 0
-1296 -1342 0
-1296 -1343 0
-1296 -1344 0
-1296 -1345 0
-1296 -1346 0
-1296 -1347 0
-1296 -1348 0
-1296 -1349 0
-1296 -1350 0
-1296 -1351 0
-1296 -1352 0
-1296 -1353 0
-1296 -1354 0
-1296 -1355 0
-1296 -1356 0
-1296 -1357 0
-1296 -1358 0
-1296 -1359 0
-1296 -1360 0
-1296 -1361 0
-1296 -1362 0
-1296 -1363 0
-1296 -1364 0
-1296 -1365 0
-1296 -1366 0
-1296 -1367 0
-1296 -1368 0
-1296 -1369 0
-1297 -1298 0
-1297 -1299 0
-1297 -1300 0
-1297 -1301 0
-1297 -1302 0
-1297 -1303 0
-1297 -1304 0
-1297 -1305 0
-1297 -1306 0
-1297 -1307 0
-1297 -1308 0
-1297 -1309 0
-1297 -1310 0
-1297 -1311 0
-1297 -1312 0
-1297 -1313 0
-1297 -1314 0
-1297 -1315 0
-1297 -1316 0
-1297 -1317 0
-1297 -1318 0
-1297 -1319 0
-1297 -1320 0
-1297 -1321 0
-1297 -1322 0
-1297 -1323 0
-1297 -1324 0
-1297 -1325 0
-1297 -1326 0
-1297 -1327 0
-1297 -1328 0
-1297 -1329 0
-1297 -1330 0
-1297 -1331 0
-1297 -1332 0
-1297 -1333 0
-1297 -1334 0
-1297 -1335 0
-1297 -1336 0
-1297 -1337 0
-1297 -1338 0
-1297 -1339 0
-1297 -1340 0
-1297 -1341 0
-1297 -1342 0
-1297 -1343 0
-1297 -1344 0
-1297 -1345 0
-1297 -1346 0
-1297 -1347 0
-1297 -1348 0
-1297 -1349 0
-1297 -1350 0
-1297 -1351 0
-1297 -1352 0
-1297 -1353 0
-1297 -1354 0
-1297 -1355 0
-1297 -1356 0
-1297 -1357 0
-1297 -1358 0
-1297 -1359 0
-1297 -1360 0
-1297 -1361 0
-1297 -1362 0
-1297 -1363 0
-1297 -1364 0
-1297 -1365 0
-1297 -1366 0
-1297 -1367 0
-1297 -1368 0
-1297 -1369 0
-1298 -1299 0
-1298 -1300 0
-1298 -1301 0
-1298 -1302 0
-1298 -1303 0
-1298 -1304 0
-1298 -1305 0
-1298 -1306 0
-1298 -1307 0
-1298 -1308 0
-1298 -1309 0
-1298 -1310 0
-1298 -1311 0
-1298 -1312 0
-1298 -1313 0
-1298 -1314 0
-1298 -1315 0
-1298 -1316 0
-1298 -1317 0
-1298 -1318 0
-1298 -1319 0
-1298 -1320 0
-1298 -1321 0
-1298 -1322 0
-1298 -1323 0
-1298 -1324 0
-1298 -1325 0
-1298 -1326 0
-1298 -1327 0
-1298 -1328 0
-1298 -1329 0
-1298 -1330 0
-1298 -1331 0
-1298 -1332 0
-1298 -1333 0
-1298 -1334 0
-1298 -1335 0
-1298 -1336 0
-1298 -1337 0
-1298 -1338 0
-1298 -1339 0
-1298 -1340 0
-1298 -1341 0
-1298 -1342 0
-1298 -1343 0
-1298 -1344 0
-1298 -1345 0
-1298 -1346 0
-1298 -1347 0
-1298 -1348 0
-1298 -1349 0
-1298 -1350 0
-1298 -1351 0
-1298 -1352 0
-1298 -1353 0
-1298 -1354 0
-1298 -1355 0
-1298 -1356 0
-1298 -1357 0
-1298 -1358 0
-1298 -1359 0
-1298 -1360 0
-1298 -1361 0
-1298 -1362 0
-1298 -1363 0
-1298 -1364 0
-1298 -1365 0
-1298 -1366 0
-1298 -1367 0
-1298 -1368 0
-1298 -1369 0
-1299 -1300 0
-1299 -1301 0
-1299 -1302 0
-1299 -1303 0
-1299 -1304 0
-1299 -1305 0
-1299 -1306 0
-1299 -1307 0
-1299 -1308 0
-1299 -1309 0
-1299 -1310 0
-1299 -1311 0
-1299 -1312 0
-1299 -1313 0
-1299 -1314 0
-1299 -1315 0
-1299 -1316 0
-1299 -1317 0
-1299 -1318 0
-1299 -1319 0
-1299 -1320 0
-1299 -1321 0
-1299 -1322 0
-1299 -1323 0
-1299 -1324 0
-1299 -1325 0
-1299 -1326 0
-1299 -1327 0
-1299 -1328 0
-1299 -1329 0
-1299 -1330 0
-1299 -1331 0
-1299 -1332 0
-1299 -1333 0
-1299 -1334 0
-1299 -1335 0
-1299 -1336 0
-1299 -1337 0
-1299 -1338 0
-1299 -1339 0
-1299 -1340 0
-1299 -1341 0
-1299 -1342 0
-1299 -1343 0
-1299 -1344 0
-1299 -1345 0
-1299 -1346 0
-1299 -1347 0
-1299 -1348 0
-1299 -1349 0
-1299 -1350 0
-1299 -1351 0
-1299 -1352 0
-1299 -1353 0
-1299 -1354 0
-1299 -1355 0
-1299 -1356 0
-1299 -1357 0
-1299 -1358 0
-1299 -1359 0
-1299 -1360 0
-1299 -1361 0
-1299 -1362 0
-1299 -1363 0
-1299 -1364 0
-1299 -1365 0
-1299 -1366 0
-1299 -1367 0
-1299 -1368 0
-1299 -1369 0
-1300 -1301 0
-1300 -1302 0
-1300 -1303 0
-1300 -1304 0
-1300 -1305 0
-1300 -1306 0
-1300 -1307 0
-1300 -1308 0
-1300 -1309 0
-1300 -1310 0
-1300 -1311 0
-1300 -1312 0
-1300 -1313 0
-1300 -1314 0
-1300 -1315 0
-1300 -1316 0
-1300 -1317 0
-1300 -1318 0
-1300 -1319 0
-1300 -1320 0
-1300 -1321 0
-1300 -1322 0
-1300 -1323 0
-1300 -1324 0
-1300 -1325 0
-1300 -1326 0
-1300 -1327 0
-1300 -1328 0
-1300 -1329 0
-1300 -1330 0
-1300 -1331 0
-1300 -1332 0
-1300 -1333 0
-1300 -1334 0
-1300 -1335 0
-1300 -1336 0
-1300 -1337 0
-1300 -1338 0
-1300 -1339 0
-1300 -1340 0
-1300 -1341 0
-1300 -1342 0
-1300 -1343 0
-1300 -1344 0
-1300 -1345 0
-1300 -1346 0
-1300 -1347 0
-1300 -1348 0
-1300 -1349 0
-1300 -1350 0
-1300 -1351 0
-1300 -1352 0
-1300 -1353 0
-1300 -1354 0
-1300 -1355 0
-1300 -1356 0
-1300 -1357 0
-1300 -1358 0
-1300 -1359 0
-1300 -1360 0
-1300 -1361 0
-1300 -1362 0
-1300 -1363 0
-1300 -1364 0
-1300 -1365 0
-1300 -1366 0
-1300 -1367 0
-1300 -1368 0
-1300 -1369 0
-1301 -1302 0
-1301 -1303 0
-1301 -1304 0
-1301 -1305 0
-1301 -1306 0
-1301 -1307 0
-1301 -1308 0
-1301 -1309 0
-1301 -1310 0
-1301 -1311 0
-1301 -1312 0
-1301 -1313 0
-1301 -1314 0
-1301 -1315 0
-1301 -1316 0
-1301 -1317 0
-1301 -1318 0
-1301 -1319 0
-1301 -1320 0
-1301 -1321 0
-1301 -1322 0
-1301 -1323 0
-1301 -1324 0
-1301 -1325 0
-1301 -1326 0
-1301 -1327 0
-1301 -1328 0
-1301 -1329 0
-1301 -1330 0
-1301 -1331 0
-1301 -1332 0
-1301 -1333 0
-1301 -1334 0
-1301 -1335 0
-1301 -1336 0
-1301 -1337 0
-1301 -1338 0
-1301 -1339 0
-1301 -1340 0
-1301 -1341 0
-1301 -1342 0
-1301 -1343 0
-1301 -1344 0
-1301 -1345 0
-1301 -1346 0
-1301 -1347 0
-1301 -1348 0
-1301 -1349 0
-1301 -1350 0
-1301 -1351 0
-1301 -1352 0
-1301 -1353 0
-1301 -1354 0
-1301 -1355 0
-1301 -1356 0
-1301 -1357 0
-1301 -1358 0
-1301 -1359 0
-1301 -1360 0
-1301 -1361 0
-1301 -1362 0
-1301 -1363 0
-1301 -1364 0
-1301 -1365 0
-1301 -1366 0
-1301 -1367 0
-1301 -1368 0
-1301 -1369 0
-1302 -1303 0
-1302 -1304 0
-1302 -1305 0
-1302 -1306 0
-1302 -1307 0
-1302 -1308 0
-1302 -1309 0
-1302 -1310 0
-1302 -1311 0
-1302 -1312 0
-1302 -1313 0
-1302 -1314 0
-1302 -1315 0
-1302 -1316 0
-1302 -1317 0
-1302 -1318 0
-1302 -1319 0
-1302 -1320 0
-1302 -1321 0
-1302 -1322 0
-1302 -1323 0
-1302 -1324 0
-1302 -1325 0
-1302 -1326 0
-1302 -1327 0
-1302 -1328 0
-1302 -1329 0
-1302 -1330 0
-1302 -1331 0
-1302 -1332 0
-1302 -1333 0
-1302 -1334 0
-1302 -1335 0
-1302 -1336 0
-1302 -1337 0
-1302 -1338 0
-1302 -1339 0
-1302 -1340 0
-1302 -1341 0
-1302 -1342 0
-1302 -1343 0
-1302 -1344 0
-1302 -1345 0
-1302 -1346 0
-1302 -1347 0
-1302 -1348 0
-1302 -1349 0
-1302 -1350 0
-1302 -1351 0
-1302 -1352 0
-1302 -1353 0
-1302 -1354 0
-1302 -1355 0
-1302 -1356 0
-1302 -1357 0
-1302 -1358 0
-1302 -1359 0
-1302 -1360 0
-1302 -1361 0
-1302 -1362 0
-1302 -1363 0
-1302 -1364 0
-1302 -1365 0
-1302 -1366 0
-1302 -1367 0
-1302 -1368 0
-1302 -1369 0
-1303 -1304 0
-1303 -1305 0
-1303 -1306 0
-1303 -1307 0
-1303 -1308 0
-1303 -1309 0
-1303 -1310 0
-1303 -1311 0
-1303 -1312 0
-1303 -1313 0
-1303 -1314 0
-1303 -1315 0
-1303 -1316 0
-1303 -1317 0
-1303 -1318 0
-1303 -1319 0
-1303 -1320 0
-1303 -1321 0
-1303 -1322 0
-1303 -1323 0
-1303 -1324 0
-1303 -1325 0
-1303 -1326 0
-1303 -1327 0
-1303 -1328 0
-1303 -1329 0
-1303 -1330 0
-1303 -1331 0
-1303 -1332 0
-1303 -1333 0
-1303 -1334 0
-1303 -1335 0
-1303 -1336 0
-1303 -1337 0
-1303 -1338 0
-1303 -1339 0
-1303 -1340 0
-1303 -1341 0
-1303 -1342 0
-1303 -1343 0
-1303 -1344 0
-1303 -1345 0
-1303 -1346 0
-1303 -1347 0
-1303 -1348 0
-1303 -1349 0
-1303 -1350 0
-1303 -1351 0
-1303 -1352 0
-1303 -1353 0
-1303 -1354 0
-1303 -1355 0
-1303 -1356 0
-1303 -1357 0
-1303 -1358 0
-1303 -1359 0
-1303 -1360 0
-1303 -1361 0
-1303 -1362 0
-1303 -1363 0
-1303 -1364 0
-1303 -1365 0
-1303 -1366 0
-1303 -1367 0
-1303 -1368 0
-1303 -1369 0
-1304 -1305 0
-1304 -1306 0
-1304 -1307 0
-1304 -1308 0
-1304 -1309 0
-1304 -1310 0
-1304 -1311 0
-1304 -1312 0
-1304 -1313 0
-1304 -1314 0
-1304 -1315 0
-1304 -1316 0
-1304 -1317 0
-1304 -1318 0
-1304 -1319 0
-1304 -1320 0
-1304 -1321 0
-1304 -1322 0
-1304 -1323 0
-1304 -1324 0
-1304 -1325 0
-1304 -1326 0
-1304 -1327 0
-1304 -1328 0
-1304 -1329 0
-1304 -1330 0
-1304 -1331 0
-1304 -1332 0
-1304 -1333 0
-1304 -1334 0
-1304 -1335 0
-1304 -1336 0
-1304 -1337 0
-1304 -1338 0
-1304 -1339 0
-1304 -1340 0
-1304 -1341 0
-1304 -1342 0
-1304 -1343 0
-1304 -1344 0
-1304 -1345 0
-1304 -1346 0
-1304 -1347 0
-1304 -1348 0
-1304 -1349 0
-1304 -1350 0
-1304 -1351 0
-1304 -1352 0
-1304 -1353 0
-1304 -1354 0
-1304 -1355 0
-1304 -1356 0
-1304 -1357 0
-1304 -1358 0
-1304 -1359 0
-1304 -1360 0
-1304 -1361 0
-1304 -1362 0
-1304 -1363 0
-1304 -1364 0
-1304 -1365 0
-1304 -1366 0
-1304 -1367 0
-1304 -1368 0
-1304 -1369 0
-1305 -1306 0
-1305 -1307 0
-1305 -1308 0
-1305 -1309 0
-1305 -1310 0
-1305 -1311 0
-1305 -1312 0
-1305 -1313 0
-1305 -1314 0
-1305 -1315 0
-1305 -1316 0
-1305 -1317 0
-1305 -1318 0
-1305 -1319 0
-1305 -1320 0
-1305 -1321 0
-1305 -1322 0
-1305 -1323 0
-1305 -1324 0
-1305 -1325 0
-1305 -1326 0
-1305 -1327 0
-1305 -1328 0
-1305 -1329 0
-1305 -1330 0
-1305 -1331 0
-1305 -1332 0
-1305 -1333 0
-1305 -1334 0
-1305 -1335 0
-1305 -1336 0
-1305 -1337 0
-1305 -1338 0
-1305 -1339 0
-1305 -1340 0
-1305 -1341 0
-1305 -1342 0
-1305 -1343 0
-1305 -1344 0
-1305 -1345 0
-1305 -1346 0
-1305 -1347 0
-1305 -1348 0
-1305 -1349 0
-1305 -1350 0
-1305 -1351 0
-1305 -1352 0
-1305 -1353 0
-1305 -1354 0
-1305 -1355 0
-1305 -1356 0
-1305 -1357 0
-1305 -1358 0
-1305 -1359 0
-1305 -1360 0
-1305 -1361 0
-1305 -1362 0
-1305 -1363 0
-1305 -1364 0
-1305 -1365 0
-1305 -1366 0
-1305 -1367 0
-1305 -1368 0
-1305 -1369 0
-1306 -1307 0
-1306 -1308 0
-1306 -1309 0
-1306 -1310 0
-1306 -1311 0
-1306 -1312 0
-1306 -1313 0
-1306 -1314 0
-1306 -1315 0
-1306 -1316 0
-1306 -1317 0
-1306 -1318 0
-1306 -1319 0
-1306 -1320 0
-1306 -1321 0
-1306 -1322 0
-1306 -1323 0
-1306 -1324 0
-1306 -1325 0
-1306 -1326 0
-1306 -1327 0
-1306 -1328 0
-1306 -1329 0
-1306 -1330 0
-1306 -1331 0
-1306 -1332 0
-1306 -1333 0
-1306 -1334 0
-1306 -1335 0
-1306 -1336 0
-1306 -1337 0
-1306 -1338 0
-1306 -1339 0
-1306 -1340 0
-1306 -1341 0
-1306 -1342 0
-1306 -1343 0
-1306 -1344 0
-1306 -1345 0
-1306 -1346 0
-1306 -1347 0
-1306 -1348 0
-1306 -1349 0
-1306 -1350 0
-1306 -1351 0
-1306 -1352 0
-1306 -1353 0
-1306 -1354 0
-1306 -1355 0
-1306 -1356 0
-1306 -1357 0
-1306 -1358 0
-1306 -1359 0
-1306 -1360 0
-1306 -1361 0
-1306 -1362 0
-1306 -1363 0
-1306 -1364 0
-1306 -1365 0
-1306 -1366 0
-1306 -1367 0
-1306 -1368 0
-1306 -1369 0
-1307 -1308 0
-1307 -1309 0
-1307 -1310 0
-1307 -1311 0
-1307 -1312 0
-1307 -1313 0
-1307 -1314 0
-1307 -1315 0
-1307 -1316 0
-1307 -1317 0
-1307 -1318 0
-1307 -1319 0
-1307 -1320 0
-1307 -1321 0
-1307 -1322 0
-1307 -1323 0
-1307 -1324 0
-1307 -1325 0
-1307 -1326 0
-1307 -1327 0
-1307 -1328 0
-1307 -1329 0
-1307 -1330 0
-1307 -1331 0
-1307 -1332 0
-1307 -1333 0
-1307 -1334 0
-1307 -1335 0
-1307 -1336 0
-1307 -1337 0
-1307 -1338 0
-1307 -1339 0
-1307 -1340 0
-1307 -1341 0
-1307 -1342 0
-1307 -1343 0
-1307 -1344 0
-1307 -1345 0
-1307 -1346 0
-1307 -1347 0
-1307 -1348 0
-1307 -1349 0
-1307 -1350 0
-1307 -1351 0
-1307 -1352 0
-1307 -1353 0
-1307 -1354 0
-1307 -1355 0
-1307 -1356 0
-1307 -1357 0
-1307 -1358 0
-1307 -1359 0
-1307 -1360 0
-1307 -1361 0
-1307 -1362 0
-1307 -1363 0
-1307 -1364 0
-1307 -1365 0
-1307 -1366 0
-1307 -1367 0
-1307 -1368 0
-1307 -1369 0
-1308 -1309 0
-1308 -1310 0
-1308 -1311 0
-1308 -1312 0
-1308 -1313 0
-1308 -1314 0
-1308 -1315 0
-1308 -1316 0
-1308 -1317 0
-1308 -1318 0
-1308 -1319 0
-1308 -1320 0
-1308 -1321 0
-1308 -1322 0
-1308 -1323 0
-1308 -1324 0
-1308 -1325 0
-1308 -1326 0
-1308 -1327 0
-1308 -1328 0
-1308 -1329 0
-1308 -1330 0
-1308 -1331 0
-1308 -1332 0
-1308 -1333 0
-1308 -1334 0
-1308 -1335 0
-1308 -1336 0
-1308 -1337 0
-1308 -1338 0
-1308 -1339 0
-1308 -1340 0
-1308 -1341 0
-1308 -1342 0
-1308 -1343 0
-1308 -1344 0
-1308 -1345 0
-1308 -1346 0
-1308 -1347 0
-1308 -1348 0
-1308 -1349 0
-1308 -1350 0
-1308 -1351 0
-1308 -1352 0
-1308 -1353 0
-1308 -1354 0
-1308 -1355 0
-1308 -1356 0
-1308 -1357 0
-1308 -1358 0
-1308 -1359 0
-1308 -1360 0
-1308 -1361 0
-1308 -1362 0
-1308 -1363 0
-1308 -1364 0
-1308 -1365 0
-1308 -1366 0
-1308 -1367 0
-1308 -1368 0
-1308 -1369 0
-1309 -1310 0
-1309 -1311 0
-1309 -1312 0
-1309 -1313 0
-1309 -1314 0
-1309 -1315 0
-1309 -1316 0
-1309 -1317 0
-1309 -1318 0
-1309 -1319 0
-1309 -1320 0
-1309 -1321 0
-1309 -1322 0
-1309 -1323 0
-1309 -1324 0
-1309 -1325 0
-1309 -1326 0
-1309 -1327 0
-1309 -1328 0
-1309 -1329 0
-1309 -1330 0
-1309 -1331 0
-1309 -1332 0
-1309 -1333 0
-1309 -1334 0
-1309 -1335 0
-1309 -1336 0
-1309 -1337 0
-1309 -1338 0
-1309 -1339 0
-1309 -1340 0
-1309 -1341 0
-1309 -1342 0
-1309 -1343 0
-1309 -1344 0
-1309 -1345 0
-1309 -1346 0
-1309 -1347 0
-1309 -1348 0
-1309 -1349 0
-1309 -1350 0
-1309 -1351 0
-1309 -1352 0
-1309 -1353 0
-1309 -1354 0
-1309 -1355 0
-1309 -1356 0
-1309 -1357 0
-1309 -1358 0
-1309 -1359 0
-1309 -1360 0
-1309 -1361 0
-1309 -1362 0
-1309 -1363 0
-1309 -1364 0
-1309 -1365 0
-1309 -1366 0
-1309 -1367 0
-1309 -1368 0
-1309 -1369 0
-1310 -1311 0
-1310 -1312 0
-1310 -1313 0
-1310 -1314 0
-1310 -1315 0
-1310 -1316 0
-1310 -1317 0
-1310 -1318 0
-1310 -1319 0
-1310 -1320 0
-1310 -1321 0
-1310 -1322 0
-1310 -1323 0
-1310 -1324 0
-1310 -1325 0
-1310 -1326 0
-1310 -1327 0
-1310 -1328 0
-1310 -1329 0
-1310 -1330 0
-1310 -1331 0
-1310 -1332 0
-1310 -1333 0
-1310 -1334 0
-1310 -1335 0
-1310 -1336 0
-1310 -1337 0
-1310 -1338 0
-1310 -1339 0
-1310 -1340 0
-1310 -1341 0
-1310 -1342 0
-1310 -1343 0
-1310 -1344 0
-1310 -1345 0
-1310 -1346 0
-1310 -1347 0
-1310 -1348 0
-1310 -1349 0
-1310 -1350 0
-1310 -1351 0
-1310 -1352 0
-1310 -1353 0
-1310 -1354 0
-1310 -1355 0
-1310 -1356 0
-1310 -1357 0
-1310 -1358 0
-1310 -1359 0
-1310 -1360 0
-1310 -1361 0
-1310 -1362 0
-1310 -1363 0
-1310 -1364 0
-1310 -1365 0
-1310 -1366 0
-1310 -1367 0
-1310 -1368 0
-1310 -1369 0
-1311 -1312 0
-1311 -1313 0
-1311 -1314 0
-1311 -1315 0
-1311 -1316 0
-1311 -1317 0
-1311 -1318 0
-1311 -1319 0
-1311 -1320 0
-1311 -1321 0
-1311 -1322 0
-1311 -1323 0
-1311 -1324 0
-1311 -1325 0
-1311 -1326 0
-1311 -1327 0
-1311 -1328 0
-1311 -1329 0
-1311 -1330 0
-1311 -1331 0
-1311 -1332 0
-1311 -1333 0
-1311 -1334 0
-1311 -1335 0
-1311 -1336 0
-1311 -1337 0
-1311 -1338 0
-1311 -1339 0
-1311 -1340 0
-1311 -1341 0
-1311 -1342 0
-1311 -1343 0
-1311 -1344 0
-1311 -1345 0
-1311 -1346 0
-1311 -1347 0
-1311 -1348 0
-1311 -1349 0
-1311 -1350 0
-1311 -1351 0
-1311 -1352 0
-1311 -1353 0
-1311 -1354 0
-1311 -1355 0
-1311 -1356 0
-1311 -1357 0
-1311 -1358 0
-1311 -1359 0
-1311 -1360 0
-1311 -1361 0
-1311 -1362 0
-1311 -1363 0
-1311 -1364 0
-1311 -1365 0
-1311 -1366 0
-1311 -1367 0
-1311 -1368 0
-1311 -1369 0
-1312 -1313 0
-1312 -1314 0
-1312 -1315 0
-1312 -1316 0
-1312 -1317 0
-1312 -1318 0
-1312 -1319 0
-1312 -1320 0
-1312 -1321 0
-1312 -1322 0
-1312 -1323 0
-1312 -1324 0
-1312 -1325 0
-1312 -1326 0
-1312 -1327 0
-1312 -1328 0
-1312 -1329 0
-1312 -1330 0
-1312 -1331 0
-1312 -1332 0
-1312 -1333 0
-1312 -1334 0
-1312 -1335 0
-1312 -1336 0
-1312 -1337 0
-1312 -1338 0
-1312 -1339 0
-1312 -1340 0
-1312 -1341 0
-1312 -1342 0
-1312 -1343 0
-1312 -1344 0
-1312 -1345 0
-1312 -1346 0
-1312 -1347 0
-1312 -1348 0
-1312 -1349 0
-1312 -1350 0
-1312 -1351 0
-1312 -1352 0
-1312 -1353 0
-1312 -1354 0
-1312 -1355 0
-1312 -1356 0
-1312 -1357 0
-1312 -1358 0
-1312 -1359 0
-1312 -1360 0
-1312 -1361 0
-1312 -1362 0
-1312 -1363 0
-1312 -1364 0
-1312 -1365 0
-1312 -1366 0
-1312 -1367 0
-1312 -1368 0
-1312 -1369 0
-1313 -1314 0
-1313 -1315 0
-1313 -1316 0
-1313 -1317 0
-1313 -1318 0
-1313 -1319 0
-1313 -1320 0
-1313 -1321 0
-1313 -1322 0
-1313 -1323 0
-1313 -1324 0
-1313 -1325 0
-1313 -1326 0
-1313 -1327 0
-1313 -1328 0
-1313 -1329 0
-1313 -1330 0
-1313 -1331 0
-1313 -1332 0
-1313 -1333 0
-1313 -1334 0
-1313 -1335 0
-1313 -1336 0
-1313 -1337 0
-1313 -1338 0
-1313 -1339 0
-1313 -1340 0
-1313 -1341 0
-1313 -1342 0
-1313 -1343 0
-1313 -1344 0
-1313 -1345 0
-1313 -1346 0
-1313 -1347 0
-1313 -1348 0
-1313 -1349 0
-1313 -1350 0
-1313 -1351 0
-1313 -1352 0
-1313 -1353 0
-1313 -1354 0
-1313 -1355 0
-1313 -1356 0
-1313 -1357 0
-1313 -1358 0
-1313 -1359 0
-1313 -1360 0
-1313 -1361 0
-1313 -1362 0
-1313 -1363 0
-1313 -1364 0
-1313 -1365 0
-1313 -1366 0
-1313 -1367 0
-1313 -1368 0
-1313 -1369 0
-1314 -1315 0
-1314 -1316 0
-1314 -1317 0
-1314 -1318 0
-1314 -1319 0
-1314 -1320 0
-1314 -1321 0
-1314 -1322 0
-1314 -1323 0
-1314 -1324 0
-1314 -1325 0
-1314 -1326 0
-1314 -1327 0
-1314 -1328 0
-1314 -1329 0
-1314 -1330 0
-1314 -1331 0
-1314 -1332 0
-1314 -1333 0
-1314 -1334 0
-1314 -1335 0
-1314 -1336 0
-1314 -1337 0
-1314 -1338 0
-1314 -1339 0
-1314 -1340 0
-1314 -1341 0
-1314 -1342 0
-1314 -1343 0
-1314 -1344 0
-1314 -1345 0
-1314 -1346 0
-1314 -1347 0
-1314 -1348 0
-1314 -1349 0
-1314 -1350 0
-1314 -1351 0
-1314 -1352 0
-1314 -1353 0
-1314 -1354 0
-1314 -1355 0
-1314 -1356 0
-1314 -1357 0
-1314 -1358 0
-1314 -1359 0
-1314 -1360 0
-1314 -1361 0
-1314 -1362 0
-1314 -1363 0
-1314 -1364 0
-1314 -1365 0
-1314 -1366 0
-1314 -1367 0
-1314 -1368 0
-1314 -1369 0
-1315 -1316 0
-1315 -1317 0
-1315 -1318 0
-1315 -1319 0
-1315 -1320 0
-1315 -1321 0
-1315 -1322 0
-1315 -1323 0
-1315 -1324 0
-1315 -1325 0
-1315 -1326 0
-1315 -1327 0
-1315 -1328 0
-1315 -1329 0
-1315 -1330 0
-1315 -1331 0
-1315 -1332 0
-1315 -1333 0
-1315 -1334 0
-1315 -1335 0
-1315 -1336 0
-1315 -1337 0
-1315 -1338 0
-1315 -1339 0
-1315 -1340 0
-1315 -1341 0
-1315 -1342 0
-1315 -1343 0
-1315 -1344 0
-1315 -1345 0
-1315 -1346 0
-1315 -1347 0
-1315 -1348 0
-1315 -1349 0
-1315 -1350 0
-1315 -1351 0
-1315 -1352 0
-1315 -1353 0
-1315 -1354 0
-1315 -1355 0
-1315 -1356 0
-1315 -1357 0
-1315 -1358 0
-1315 -1359 0
-1315 -1360 0
-1315 -1361 0
-1315 -1362 0
-1315 -1363 0
-1315 -1364 0
-1315 -1365 0
-1315 -1366 0
-1315 -1367 0
-1315 -1368 0
-1315 -1369 0
-1316 -1317 0
-1316 -1318 0
-1316 -1319 0
-1316 -1320 0
-1316 -1321 0
-1316 -1322 0
-1316 -1323 0
-1316 -1324 0
-1316 -1325 0
-1316 -1326 0
-1316 -1327 0
-1316 -1328 0
-1316 -1329 0
-1316 -1330 0
-1316 -1331 0
-1316 -1332 0
-1316 -1333 0
-1316 -1334 0
-1316 -1335 0
-1316 -1336 0
-1316 -1337 0
-1316 -1338 0
-1316 -1339 0
-1316 -1340 0
-1316 -1341 0
-1316 -1342 0
-1316 -1343 0
-1316 -1344 0
-1316 -1345 0
-1316 -1346 0
-1316 -1347 0
-1316 -1348 0
-1316 -1349 0
-1316 -1350 0
-1316 -1351 0
-1316 -1352 0
-1316 -1353 0
-1316 -1354 0
-1316 -1355 0
-1316 -1356 0
-1316 -1357 0
-1316 -1358 0
-1316 -1359 0
-1316 -1360 0
-1316 -1361 0
-1316 -1362 0
-1316 -1363 0
-1316 -1364 0
-1316 -1365 0
-1316 -1366 0
-1316 -1367 0
-1316 -1368 0
-1316 -1369 0
-1317 -1318 0
-1317 -1319 0
-1317 -1320 0
-1317 -1321 0
-1317 -1322 0
-1317 -1323 0
-1317 -1324 0
-1317 -1325 0
-1317 -1326 0
-1317 -1327 0
-1317 -1328 0
-1317 -1329 0
-1317 -1330 0
-1317 -1331 0
-1317 -1332 0
-1317 -1333 0
-1317 -1334 0
-1317 -1335 0
-1317 -1336 0
-1317 -1337 0
-1317 -1338 0
-1317 -1339 0
-1317 -1340 0
-1317 -1341 0
-1317 -1342 0
-1317 -1343 0
-1317 -1344 0
-1317 -1345 0
-1317 -1346 0
-1317 -1347 0
-1317 -1348 0
-1317 -1349 0
-1317 -1350 0
-1317 -1351 0
-1317 -1352 0
-1317 -1353 0
-1317 -1354 0
-1317 -1355 0
-1317 -1356 0
-1317 -1357 0
-1317 -1358 0
-1317 -1359 0
-1317 -1360 0
-1317 -1361 0
-1317 -1362 0
-1317 -1363 0
-1317 -1364 0
-1317 -1365 0
-1317 -1366 0
-1317 -1367 0
-1317 -1368 0
-1317 -1369 0
-1318 -1319 0
-1318 -1320 0
-1318 -1321 0
-1318 -1322 0
-1318 -1323 0
-1318 -1324 0
-1318 -1325 0
-1318 -1326 0
-1318 -1327 0
-1318 -1328 0
-1318 -1329 0
-1318 -1330 0
-1318 -1331 0
-1318 -1332 0
-1318 -1333 0
-1318 -1334 0
-1318 -1335 0
-1318 -1336 0
-1318 -1337 0
-1318 -1338 0
-1318 -1339 0
-1318 -1340 0
-1318 -1341 0
-1318 -1342 0
-1318 -1343 0
-1318 -1344 0
-1318 -1345 0
-1318 -1346 0
-1318 -1347 0
-1318 -1348 0
-1318 -1349 0
-1318 -1350 0
-1318 -1351 0
-1318 -1352 0
-1318 -1353 0
-1318 -1354 0
-1318 -1355 0
-1318 -1356 0
-1318 -1357 0
-1318 -1358 0
-1318 -1359 0
-1318 -1360 0
-1318 -1361 0
-1318 -1362 0
-1318 -1363 0
-1318 -1364 0
-1318 -1365 0
-1318 -1366 0
-1318 -1367 0
-1318 -1368 0
-1318 -1369 0
-1319 -1320 0
-1319 -1321 0
-1319 -1322 0
-1319 -1323 0
-1319 -1324 0
-1319 -1325 0
-1319 -1326 0
-1319 -1327 0
-1319 -1328 0
-1319 -1329 0
-1319 -1330 0
-1319 -1331 0
-1319 -1332 0
-1319 -1333 0
-1319 -1334 0
-1319 -1335 0
-1319 -1336 0
-1319 -1337 0
-1319 -1338 0
-1319 -1339 0
-1319 -1340 0
-1319 -1341 0
-1319 -1342 0
-1319 -1343 0
-1319 -1344 0
-1319 -1345 0
-1319 -1346 0
-1319 -1347 0
-1319 -1348 0
-1319 -1349 0
-1319 -1350 0
-1319 -1351 0
-1319 -1352 0
-1319 -1353 0
-1319 -1354 0
-1319 -1355 0
-1319 -1356 0
-1319 -1357 0
-1319 -1358 0
-1319 -1359 0
-1319 -1360 0
-1319 -1361 0
-1319 -1362 0
-1319 -1363 0
-1319 -1364 0
-1319 -1365 0
-1319 -1366 0
-1319 -1367 0
-1319 -1368 0
-1319 -1369 0
-1320 -1321 0
-1320 -1322 0
-1320 -1323 0
-1320 -1324 0
-1320 -1325 0
-1320 -1326 0
-1320 -1327 0
-1320 -1328 0
-1320 -1329 0
-1320 -1330 0
-1320 -1331 0
-1320 -1332 0
-1320 -1333 0
-1320 -1334 0
-1320 -1335 0
-1320 -1336 0
-1320 -1337 0
-1320 -1338 0
-1320 -1339 0
-1320 -1340 0
-1320 -1341 0
-1320 -1342 0
-1320 -1343 0
-1320 -1344 0
-1320 -1345 0
-1320 -1346 0
-1320 -1347 0
-1320 -1348 0
-1320 -1349 0
-1320 -1350 0
-1320 -1351 0
-1320 -1352 0
-1320 -1353 0
-1320 -1354 0
-1320 -1355 0
-1320 -1356 0
-1320 -1357 0
-1320 -1358 0
-1320 -1359 0
-1320 -1360 0
-1320 -1361 0
-1320 -1362 0
-1320 -1363 0
-1320 -1364 0
-1320 -1365 0
-1320 -1366 0
-1320 -1367 0
-1320 -1368 0
-1320 -1369 0
-1321 -1322 0
-1321 -1323 0
-1321 -1324 0
-1321 -1325 0
-1321 -1326 0
-1321 -1327 0
-1321 -1328 0
-1321 -1329 0
-1321 -1330 0
-1321 -1331 0
-1321 -1332 0
-1321 -1333 0
-1321 -1334 0
-1321 -1335 0
-1321 -1336 0
-1321 -1337 0
-1321 -1338 0
-1321 -1339 0
-1321 -1340 0
-1321 -1341 0
-1321 -1342 0
-1321 -1343 0
-1321 -1344 0
-1321 -1345 0
-1321 -1346 0
-1321 -1347 0
-1321 -1348 0
-1321 -1349 0
-1321 -1350 0
-1321 -1351 0
-1321 -1352 0
-1321 -1353 0
-1321 -1354 0
-1321 -1355 0
-1321 -1356 0
-1321 -1357 0
-1321 -1358 0
-1321 -1359 0
-1321 -1360 0
-1321 -1361 0
-1321 -1362 0
-1321 -1363 0
-1321 -1364 0
-1321 -1365 0
-1321 -1366 0
-1321 -1367 0
-1321 -1368 0
-1321 -1369 0
-1322 -1323 0
-1322 -1324 0
-1322 -1325 0
-1322 -1326 0
-1322 -1327 0
-1322 -1328 0
-1322 -1329 0
-1322 -1330 0
-1322 -1331 0
-1322 -1332 0
-1322 -1333 0
-1322 -1334 0
-1322 -1335 0
-1322 -1336 0
-1322 -1337 0
-1322 -1338 0
-1322 -1339 0
-1322 -1340 0
-1322 -1341 0
-1322 -1342 0
-1322 -1343 0
-1322 -1344 0
-1322 -1345 0
-1322 -1346 0
-1322 -1347 0
-1322 -1348 0
-1322 -1349 0
-1322 -1350 0
-1322 -1351 0
-1322 -1352 0
-1322 -1353 0
-1322 -1354 0
-1322 -1355 0
-1322 -1356 0
-1322 -1357 0
-1322 -1358 0
-1322 -1359 0
-1322 -1360 0
-1322 -1361 0
-1322 -1362 0
-1322 -1363 0
-1322 -1364 0
-1322 -1365 0
-1322 -1366 0
-1322 -1367 0
-1322 -1368 0
-1322 -1369 0
-1323 -1324 0
-1323 -1325 0
-1323 -1326 0
-1323 -1327 0
-1323 -1328 0
-1323 -1329 0
-1323 -1330 0
-1323 -1331 0
-1323 -1332 0
-1323 -1333 0
-1323 -1334 0
-1323 -1335 0
-1323 -1336 0
-1323 -1337 0
-1323 -1338 0
-1323 -1339 0
-1323 -1340 0
-1323 -1341 0
-1323 -1342 0
-1323 -1343 0
-1323 -1344 0
-1323 -1345 0
-1323 -1346 0
-1323 -1347 0
-1323 -1348 0
-1323 -1349 0
-1323 -1350 0
-1323 -1351 0
-1323 -1352 0
-1323 -1353 0
-1323 -1354 0
-1323 -1355 0
-1323 -1356 0
-1323 -1357 0
-1323 -1358 0
-1323 -1359 0
-1323 -1360 0
-1323 -1361 0
-1323 -1362 0
-1323 -1363 0
-1323 -1364 0
-1323 -1365 0
-1323 -1366 0
-1323 -1367 0
-1323 -1368 0
-1323 -1369 0
-1324 -1325 0
-1324 -1326 0
-1324 -1327 0
-1324 -1328 0
-1324 -1329 0
-1324 -1330 0
-1324 -1331 0
-1324 -1332 0
-1324 -1333 0
-1324 -1334 0
-1324 -1335 0
-1324 -1336 0
-1324 -1337 0
-1324 -1338 0
-1324 -1339 0
-1324 -1340 0
-1324 -1341 0
-1324 -1342 0
-1324 -1343 0
-1324 -1344 0
-1324 -1345 0
-1324 -1346 0
-1324 -1347 0
-1324 -1348 0
-1324 -1349 0
-1324 -1350 0
-1324 -1351 0
-1324 -1352 0
-1324 -1353 0
-1324 -1354 0
-1324 -1355 0
-1324 -1356 0
-1324 -1357 0
-1324 -1358 0
-1324 -1359 0
-1324 -1360 0
-1324 -1361 0
-1324 -1362 0
-1324 -1363 0
-1324 -1364 0
-1324 -1365 0
-1324 -1366 0
-1324 -1367 0
-1324 -1368 0
-1324 -1369 0
-1325 -1326 0
-1325 -1327 0
-1325 -1328 0
-1325 -1329 0
-1325 -1330 0
-1325 -1331 0
-1325 -1332 0
-1325 -1333 0
-1325 -1334 0
-1325 -1335 0
-1325 -1336 0
-1325 -1337 0
-1325 -1338 0
-1325 -1339 0
-1325 -1340 0
-1325 -1341 0
-1325 -1342 0
-1325 -1343 0
-1325 -1344 0
-1325 -1345 0
-1325 -1346 0
-1325 -1347 0
-1325 -1348 0
-1325 -1349 0
-1325 -1350 0
-1325 -1351 0
-1325 -1352 0
-1325 -1353 0
-1325 -1354 0
-1325 -1355 0
-1325 -1356 0
-1325 -1357 0
-1325 -1358 0
-1325 -1359 0
-1325 -1360 0
-1325 -1361 0
-1325 -1362 0
-1325 -1363 0
-1325 -1364 0
-1325 -1365 0
-1325 -1366 0
-1325 -1367 0
-1325 -1368 0
-1325 -1369 0
-1326 -1327 0
-1326 -1328 0
-1326 -1329 0
-1326 -1330 0
-1326 -1331 0
-1326 -1332 0
-1326 -1333 0
-1326 -1334 0
-1326 -1335 0
-1326 -1336 0
-1326 -1337 0
-1326 -1338 0
-1326 -1339 0
-1326 -1340 0
-1326 -1341 0
-1326 -1342 0
-1326 -1343 0
-1326 -1344 0
-1326 -1345 0
-1326 -1346 0
-1326 -1347 0
-1326 -1348 0
-1326 -1349 0
-1326 -1350 0
-1326 -1351 0
-1326 -1352 0
-1326 -1353 0
-1326 -1354 0
-1326 -1355 0
-1326 -1356 0
-1326 -1357 0
-1326 -1358 0
-1326 -1359 0
-1326 -1360 0
-1326 -1361 0
-1326 -1362 0
-1326 -1363 0
-1326 -1364 0
-1326 -1365 0
-1326 -1366 0
-1326 -1367 0
-1326 -1368 0
-1326 -1369 0
-1327 -1328 0
-1327 -1329 0
-1327 -1330 0
-1327 -1331 0
-1327 -1332 0
-1327 -1333 0
-1327 -1334 0
-1327 -1335 0
-1327 -1336 0
-1327 -1337 0
-1327 -1338 0
-1327 -1339 0
-1327 -1340 0
-1327 -1341 0
-1327 -1342 0
-1327 -1343 0
-1327 -1344 0
-1327 -1345 0
-1327 -1346 0
-1327 -1347 0
-1327 -1348 0
-1327 -1349 0
-1327 -1350 0
-1327 -1351 0
-1327 -1352 0
-1327 -1353 0
-1327 -1354 0
-1327 -1355 0
-1327 -1356 0
-1327 -1357 0
-1327 -1358 0
-1327 -1359 0
-1327 -1360 0
-1327 -1361 0
-1327 -1362 0
-1327 -1363 0
-1327 -1364 0
-1327 -1365 0
-1327 -1366 0
-1327 -1367 0
-1327 -1368 0
-1327 -1369 0
-1328 -1329 0
-1328 -1330 0
-1328 -1331 0
-1328 -1332 0
-1328 -1333 0
-1328 -1334 0
-1328 -1335 0
-1328 -1336 0
-1328 -1337 0
-1328 -1338 0
-1328 -1339 0
-1328 -1340 0
-1328 -1341 0
-1328 -1342 0
-1328 -1343 0
-1328 -1344 0
-1328 -1345 0
-1328 -1346 0
-1328 -1347 0
-1328 -1348 0
-1328 -1349 0
-1328 -1350 0
-1328 -1351 0
-1328 -1352 0
-1328 -1353 0
-1328 -1354 0
-1328 -1355 0
-1328 -1356 0
-1328 -1357 0
-1328 -1358 0
-1328 -1359 0
-1328 -1360 0
-1328 -1361 0
-1328 -1362 0
-1328 -1363 0
-1328 -1364 0
-1328 -1365 0
-1328 -1366 0
-1328 -1367 0
-1328 -1368 0
-1328 -1369 0
-1329 -1330 0
-1329 -1331 0
-1329 -1332 0
-1329 -1333 0
-1329 -1334 0
-1329 -1335 0
-1329 -1336 0
-1329 -1337 0
-1329 -1338 0
-1329 -1339 0
-1329 -1340 0
-1329 -1341 0
-1329 -1342 0
-1329 -1343 0
-1329 -1344 0
-1329 -1345 0
-1329 -1346 0
-1329 -1347 0
-1329 -1348 0
-1329 -1349 0
-1329 -1350 0
-1329 -1351 0
-1329 -1352 0
-1329 -1353 0
-1329 -1354 0
-1329 -1355 0
-1329 -1356 0
-1329 -1357 0
-1329 -1358 0
-1329 -1359 0
-1329 -1360 0
-1329 -1361 0
-1329 -1362 0
-1329 -1363 0
-1329 -1364 0
-1329 -1365 0
-1329 -1366 0
-1329 -1367 0
-1329 -1368 0
-1329 -1369 0
-1330 -1331 0
-1330 -1332 0
-1330 -1333 0
-1330 -1334 0
-1330 -1335 0
-1330 -1336 0
-1330 -1337 0
-1330 -1338 0
-1330 -1339 0
-1330 -1340 0
-1330 -1341 0
-1330 -1342 0
-1330 -1343 0
-1330 -1344 0
-1330 -1345 0
-1330 -1346 0
-1330 -1347 0
-1330 -1348 0
-1330 -1349 0
-1330 -1350 0
-1330 -1351 0
-1330 -1352 0
-1330 -1353 0
-1330 -1354 0
-1330 -1355 0
-1330 -1356 0
-1330 -1357 0
-1330 -1358 0
-1330 -1359 0
-1330 -1360 0
-1330 -1361 0
-1330 -1362 0
-1330 -1363 0
-1330 -1364 0
-1330 -1365 0
-1330 -1366 0
-1330 -1367 0
-1330 -1368 0
-1330 -1369 0
-1331 -1332 0
-1331 -1333 0
-1331 -1334 0
-1331 -1335 0
-1331 -1336 0
-1331 -1337 0
-1331 -1338 0
-1331 -1339 0
-1331 -1340 0
-1331 -1341 0
-1331 -1342 0
-1331 -1343 0
-1331 -1344 0
-1331 -1345 0
-1331 -1346 0
-1331 -1347 0
-1331 -1348 0
-1331 -1349 0
-1331 -1350 0
-1331 -1351 0
-1331 -1352 0
-1331 -1353 0
-1331 -1354 0
-1331 -1355 0
-1331 -1356 0
-1331 -1357 0
-1331 -1358 0
-1331 -1359 0
-1331 -1360 0
-1331 -1361 0
-1331 -1362 0
-1331 -1363 0
-1331 -1364 0
-1331 -1365 0
-1331 -1366 0
-1331 -1367 0
-1331 -1368 0
-1331 -1369 0
-1332 -1333 0
-1332 -1334 0
-1332 -1335 0
-1332 -1336 0
-1332 -1337 0
-1332 -1338 0
-1332 -1339 0
-1332 -1340 0
-1332 -1341 0
-1332 -1342 0
-1332 -1343 0
-1332 -1344 0
-1332 -1345 0
-1332 -1346 0
-1332 -1347 0
-1332 -1348 0
-1332 -1349 0
-1332 -1350 0
-1332 -1351 0
-1332 -1352 0
-1332 -1353 0
-1332 -1354 0
-1332 -1355 0
-1332 -1356 0
-1332 -1357 0
-1332 -1358 0
-1332 -1359 0
-1332 -1360 0
-1332 -1361 0
-1332 -1362 0
-1332 -1363 0
-1332 -1364 0
-1332 -1365 0
-1332 -1366 0
-1332 -1367 0
-1332 -1368 0
-1332 -1369 0
-1333 -1334 0
-1333 -1335 0
-1333 -1336 0
-1333 -1337 0
-1333 -1338 0
-1333 -1339 0
-1333 -1340 0
-1333 -1341 0
-1333 -1342 0
-1333 -1343 0
-1333 -1344 0
-1333 -1345 0
-1333 -1346 0
-1333 -1347 0
-1333 -1348 0
-1333 -1349 0
-1333 -1350 0
-1333 -1351 0
-1333 -1352 0
-1333 -1353 0
-1333 -1354 0
-1333 -1355 0
-1333 -1356 0
-1333 -1357 0
-1333 -1358 0
-1333 -1359 0
-1333 -1360 0
-1333 -1361 0
-1333 -1362 0
-1333 -1363 0
-1333 -1364 0
-1333 -1365 0
-1333 -1366 0
-1333 -1367 0
-1333 -1368 0
-1333 -1369 0
-1334 -1335 0
-1334 -1336 0
-1334 -1337 0
-1334 -1338 0
-1334 -1339 0
-1334 -1340 0
-1334 -1341 0
-1334 -1342 0
-1334 -1343 0
-1334 -1344 0
-1334 -1345 0
-1334 -1346 0
-1334 -1347 0
-1334 -1348 0
-1334 -1349 0
-1334 -1350 0
-1334 -1351 0
-1334 -1352 0
-1334 -1353 0
-1334 -1354 0
-1334 -1355 0
-1334 -1356 0
-1334 -1357 0
-1334 -1358 0
-1334 -1359 0
-1334 -1360 0
-1334 -1361 0
-1334 -1362 0
-1334 -1363 0
-1334 -1364 0
-1334 -1365 0
-1334 -1366 0
-1334 -1367 0
-1334 -1368 0
-1334 -1369 0
-1335 -1336 0
-1335 -1337 0
-1335 -1338 0
-1335 -1339 0
-1335 -1340 0
-1335 -1341 0
-1335 -1342 0
-1335 -1343 0
-1335 -1344 0
-1335 -1345 0
-1335 -1346 0
-1335 -1347 0
-1335 -1348 0
-1335 -1349 0
-1335 -1350 0
-1335 -1351 0
-1335 -1352 0
-1335 -1353 0
-1335 -1354 0
-1335 -1355 0
-1335 -1356 0
-1335 -1357 0
-1335 -1358 0
-1335 -1359 0
-1335 -1360 0
-1335 -1361 0
-1335 -1362 0
-1335 -1363 0
-1335 -1364 0
-1335 -1365 0
-1335 -1366 0
-1335 -1367 0
-1335 -1368 0
-1335 -1369 0
-1336 -1337 0
-1336 -1338 0
-1336 -1339 0
-1336 -1340 0
-1336 -1341 0
-1336 -1342 0
-1336 -1343 0
-1336 -1344 0
-1336 -1345 0
-1336 -1346 0
-1336 -1347 0
-1336 -1348 0
-1336 -1349 0
-1336 -1350 0
-1336 -1351 0
-1336 -1352 0
-1336 -1353 0
-1336 -1354 0
-1336 -1355 0
-1336 -1356 0
-1336 -1357 0
-1336 -1358 0
-1336 -1359 0
-1336 -1360 0
-1336 -1361 0
-1336 -1362 0
-1336 -1363 0
-1336 -1364 0
-1336 -1365 0
-1336 -1366 0
-1336 -1367 0
-1336 -1368 0
-1336 -1369 0
-1337 -1338 0
-1337 -1339 0
-1337 -1340 0
-1337 -1341 0
-1337 -1342 0
-1337 -1343 0
-1337 -1344 0
-1337 -1345 0
-1337 -1346 0
-1337 -1347 0
-1337 -1348 0
-1337 -1349 0
-1337 -1350 0
-1337 -1351 0
-1337 -1352 0
-1337 -1353 0
-1337 -1354 0
-1337 -1355 0
-1337 -1356 0
-1337 -1357 0
-1337 -1358 0
-1337 -1359 0
-1337 -1360 0
-1337 -1361 0
-1337 -1362 0
-1337 -1363 0
-1337 -1364 0
-1337 -1365 0
-1337 -1366 0
-1337 -1367 0
-1337 -1368 0
-1337 -1369 0
-1338 -1339 0
-1338 -1340 0
-1338 -1341 0
-1338 -1342 0
-1338 -1343 0
-1338 -1344 0
-1338 -1345 0
-1338 -1346 0
-1338 -1347 0
-1338 -1348 0
-1338 -1349 0
-1338 -1350 0
-1338 -1351 0
-1338 -1352 0
-1338 -1353 0
-1338 -1354 0
-1338 -1355 0
-1338 -1356 0
-1338 -1357 0
-1338 -1358 0
-1338 -1359 0
-1338 -1360 0
-1338 -1361 0
-1338 -1362 0
-1338 -1363 0
-1338 -1364 0
-1338 -1365 0
-1338 -1366 0
-1338 -1367 0
-1338 -1368 0
-1338 -1369 0
-1339 -1340 0
-1339 -1341 0
-1339 -1342 0
-1339 -1343 0
-1339 -1344 0
-1339 -1345 0
-1339 -1346 0
-1339 -1347 0
-1339 -1348 0
-1339 -1349 0
-1339 -1350 0
-1339 -1351 0
-1339 -1352 0
-1339 -1353 0
-1339 -1354 0
-1339 -1355 0
-1339 -1356 0
-1339 -1357 0
-1339 -1358 0
-1339 -1359 0
-1339 -1360 0
-1339 -1361 0
-1339 -1362 0
-1339 -1363 0
-1339 -1364 0
-1339 -1365 0
-1339 -1366 0
-1339 -1367 0
-1339 -1368 0
-1339 -1369 0
-1340 -1341 0
-1340 -1342 0
-1340 -1343 0
-1340 -1344 0
-1340 -1345 0
-1340 -1346 0
-1340 -1347 0
-1340 -1348 0
-1340 -1349 0
-1340 -1350 0
-1340 -1351 0
-1340 -1352 0
-1340 -1353 0
-1340 -1354 0
-1340 -1355 0
-1340 -1356 0
-1340 -1357 0
-1340 -1358 0
-1340 -1359 0
-1340 -1360 0
-1340 -1361 0
-1340 -1362 0
-1340 -1363 0
-1340 -1364 0
-1340 -1365 0
-1340 -1366 0
-1340 -1367 0
-1340 -1368 0
-1340 -1369 0
-1341 -1342 0
-1341 -1343 0
-1341 -1344 0
-1341 -1345 0
-1341 -1346 0
-1341 -1347 0
-1341 -1348 0
-1341 -1349 0
-1341 -1350 0
-1341 -1351 0
-1341 -1352 0
-1341 -1353 0
-1341 -1354 0
-1341 -1355 0
-1341 -1356 0
-1341 -1357 0
-1341 -1358 0
-1341 -1359 0
-1341 -1360 0
-1341 -1361 0
-1341 -1362 0
-1341 -1363 0
-1341 -1364 0
-1341 -1365 0
-1341 -1366 0
-1341 -1367 0
-1341 -1368 0
-1341 -1369 0
-1342 -1343 0
-1342 -1344 0
-1342 -1345 0
-1342 -1346 0
-1342 -1347 0
-1342 -1348 0
-1342 -1349 0
-1342 -1350 0
-1342 -1351 0
-1342 -1352 0
-1342 -1353 0
-1342 -1354 0
-1342 -1355 0
-1342 -1356 0
-1342 -1357 0
-1342 -1358 0
-1342 -1359 0
-1342 -1360 0
-1342 -1361 0
-1342 -1362 0
-1342 -1363 0
-1342 -1364 0
-1342 -1365 0
-1342 -1366 0
-1342 -1367 0
-1342 -1368 0
-1342 -1369 0
-1343 -1344 0
-1343 -1345 0
-1343 -1346 0
-1343 -1347 0
-1343 -1348 0
-1343 -1349 0
-1343 -1350 0
-1343 -1351 0
-1343 -1352 0
-1343 -1353 0
-1343 -1354 0
-1343 -1355 0
-1343 -1356 0
-1343 -1357 0
-1343 -1358 0
-1343 -1359 0
-1343 -1360 0
-1343 -1361 0
-1343 -1362 0
-1343 -1363 0
-1343 -1364 0
-1343 -1365 0
-1343 -1366 0
-1343 -1367 0
-1343 -1368 0
-1343 -1369 0
-1344 -1345 0
-1344 -1346 0
-1344 -1347 0
-1344 -1348 0
-1344 -1349 0
-1344 -1350 0
-1344 -1351 0
-1344 -1352 0
-1344 -1353 0
-1344 -1354 0
-1344 -1355 0
-1344 -1356 0
-1344 -1357 0
-1344 -1358 0
-1344 -1359 0
-1344 -1360 0
-1344 -1361 0
-1344 -1362 0
-1344 -1363 0
-1344 -1364 0
-1344 -1365 0
-1344 -1366 0
-1344 -1367 0
-1344 -1368 0
-1344 -1369 0
-1345 -1346 0
-1345 -1347 0
-1345 -1348 0
-1345 -1349 0
-1345 -1350 0
-1345 -1351 0
-1345 -1352 0
-1345 -1353 0
-1345 -1354 0
-1345 -1355 0
-1345 -1356 0
-1345 -1357 0
-1345 -1358 0
-1345 -1359 0
-1345 -1360 0
-1345 -1361 0
-1345 -1362 0
-1345 -1363 0
-1345 -1364 0
-1345 -1365 0
-1345 -1366 0
-1345 -1367 0
-1345 -1368 0
-1345 -1369 0
-1346 -1347 0
-1346 -1348 0
-1346 -1349 0
-1346 -1350 0
-1346 -1351 0
-1346 -1352 0
-1346 -1353 0
-1346 -1354 0
-1346 -1355 0
-1346 -1356 0
-1346 -1357 0
-1346 -1358 0
-1346 -1359 0
-1346 -1360 0
-1346 -1361 0
-1346 -1362 0
-1346 -1363 0
-1346 -1364 0
-1346 -1365 0
-1346 -1366 0
-1346 -1367 0
-1346 -1368 0
-1346 -1369 0
-1347 -1348 0
-1347 -1349 0
-1347 -1350 0
-1347 -1351 0
-1347 -1352 0
-1347 -1353 0
-1347 -1354 0
-1347 -1355 0
-1347 -1356 0
-1347 -1357 0
-1347 -1358 0
-1347 -1359 0
-1347 -1360 0
-1347 -1361 0
-1347 -1362 0
-1347 -1363 0
-1347 -1364 0
-1347 -1365 0
-1347 -1366 0
-1347 -1367 0
-1347 -1368 0
-1347 -1369 0
-1348 -1349 0
-1348 -1350 0
-1348 -1351 0
-1348 -1352 0
-1348 -1353 0
-1348 -1354 0
-1348 -1355 0
-1348 -1356 0
-1348 -1357 0
-1348 -1358 0
-1348 -1359 0
-1348 -1360 0
-1348 -1361 0
-1348 -1362 0
-1348 -1363 0
-1348 -1364 0
-1348 -1365 0
-1348 -1366 0
-1348 -1367 0
-1348 -1368 0
-1348 -1369 0
-1349 -1350 0
-1349 -1351 0
-1349 -1352 0
-1349 -1353 0
-1349 -1354 0
-1349 -1355 0
-1349 -1356 0
-1349 -1357 0
-1349 -1358 0
-1349 -1359 0
-1349 -1360 0
-1349 -1361 0
-1349 -1362 0
-1349 -1363 0
-1349 -1364 0
-1349 -1365 0
-1349 -1366 0
-1349 -1367 0
-1349 -1368 0
-1349 -1369 0
-1350 -1351 0
-1350 -1352 0
-1350 -1353 0
-1350 -1354 0
-1350 -1355 0
-1350 -1356 0
-1350 -1357 0
-1350 -1358 0
-1350 -1359 0
-1350 -1360 0
-1350 -1361 0
-1350 -1362 0
-1350 -1363 0
-1350 -1364 0
-1350 -1365 0
-1350 -1366 0
-1350 -1367 0
-1350 -1368 0
-1350 -1369 0
-1351 -1352 0
-1351 -1353 0
-1351 -1354 0
-1351 -1355 0
-1351 -1356 0
-1351 -1357 0
-1351 -1358 0
-1351 -1359 0
-1351 -1360 0
-1351 -1361 0
-1351 -1362 0
-1351 -1363 0
-1351 -1364 0
-1351 -1365 0
-1351 -1366 0
-1351 -1367 0
-1351 -1368 0
-1351 -1369 0
-1352 -1353 0
-1352 -1354 0
-1352 -1355 0
-1352 -1356 0
-1352 -1357 0
-1352 -1358 0
-1352 -1359 0
-1352 -1360 0
-1352 -1361 0
-1352 -1362 0
-1352 -1363 0
-1352 -1364 0
-1352 -1365 0
-1352 -1366 0
-1352 -1367 0
-1352 -1368 0
-1352 -1369 0
-1353 -1354 0
-1353 -1355 0
-1353 -1356 0
-1353 -1357 0
-1353 -1358 0
-1353 -1359 0
-1353 -1360 0
-1353 -1361 0
-1353 -1362 0
-1353 -1363 0
-1353 -1364 0
-1353 -1365 0
-1353 -1366 0
-1353 -1367 0
-1353 -1368 0
-1353 -1369 0
-1354 -1355 0
-1354 -1356 0
-1354 -1357 0
-1354 -1358 0
-1354 -1359 0
-1354 -1360 0
-1354 -1361 0
-1354 -1362 0
-1354 -1363 0
-1354 -1364 0
-1354 -1365 0
-1354 -1366 0
-1354 -1367 0
-1354 -1368 0
-1354 -1369 0
-1355 -1356 0
-1355 -1357 0
-1355 -1358 0
-1355 -1359 0
-1355 -1360 0
-1355 -1361 0
-1355 -1362 0
-1355 -1363 0
-1355 -1364 0
-1355 -1365 0
-1355 -1366 0
-1355 -1367 0
-1355 -1368 0
-1355 -1369 0
-1356 -1357 0
-1356 -1358 0
-1356 -1359 0
-1356 -1360 0
-1356 -1361 0
-1356 -1362 0
-1356 -1363 0
-1356 -1364 0
-1356 -1365 0
-1356 -1366 0
-1356 -1367 0
-1356 -1368 0
-1356 -1369 0
-1357 -1358 0
-1357 -1359 0
-1357 -1360 0
-1357 -1361 0
-1357 -1362 0
-1357 -1363 0
-1357 -1364 0
-1357 -1365 0
-1357 -1366 0
-1357 -1367 0
-1357 -1368 0
-1357 -1369 0
-1358 -1359 0
-1358 -1360 0
-1358 -1361 0
-1358 -1362 0
-1358 -1363 0
-1358 -1364 0
-1358 -1365 0
-1358 -1366 0
-1358 -1367 0
-1358 -1368 0
-1358 -1369 0
-1359 -1360 0
-1359 -1361 0
-1359 -1362 0
-1359 -1363 0
-1359 -1364 0
-1359 -1365 0
-1359 -1366 0
-1359 -1367 0
-1359 -1368 0
-1359 -1369 0
-1360 -1361 0
-1360 -1362 0
-1360 -1363 0
-1360 -1364 0
-1360 -1365 0
-1360 -1366 0
-1360 -1367 0
-1360 -1368 0
-1360 -1369 0
-1361 -1362 0
-1361 -1363 0
-1361 -1364 0
-1361 -1365 0
-1361 -1366 0
-1361 -1367 0
-1361 -1368 0
-1361 -1369 0
-1362 -1363 0
-1362 -1364 0
-1362 -1365 0
-1362 -1366 0
-1362 -1367 0
-1362 -1368 0
-1362 -1369 0
-1363 -1364 0
-1363 -1365 0
-1363 -1366 0
-1363 -1367 0
-1363 -1368 0
-1363 -1369 0
-1364 -1365 0
-1364 -1366 0
-1364 -1367 0
-1364 -1368 0
-1364 -1369 0
-1365 -1366 0
-1365 -1367 0
-1365 -1368 0
-1365 -1369 0
-1366 -1367 0
-1366 -1368 0
-1366 -1369 0
-1367 -1368 0
-1367 -1369 0
-1368 -1369 0
-1286 11 0
-1286 258 0
-1286 -61 0
-1286 -62 0
-1286 -63 0
-1286 -64 0
-1286 -65 0
-1286 -66 265 0
-1286 -66 -1 -8 0
-1286 -66 -73 0
-1286 -66 -131 0
-1286 -66 -188 0
-1286 -67 266 0
-1286 -67 -1 -9 0
-1286 -67 -75 0
-1286 -67 -133 0
-1286 -67 -190 0
-1286 -68 267 0
-1286 -68 -1 -10 0
-1286 -68 -77 0
-1286 -68 -135 0
-1286 -68 -192 0
-1286 -69 0
-1287 11 0
-1287 259 0
-1287 -60 0
-1287 -62 0
-1287 -63 0
-1287 -64 0
-1287 -65 0
-1287 -66 265 0
-1287 -66 -2 -8 0
-1287 -66 -81 0
-1287 -66 -139 0
-1287 -66 -196 0
-1287 -67 266 0
-1287 -67 -2 -9 0
-1287 -67 -83 0
-1287 -67 -141 0
-1287 -67 -198 0
-1287 -68 267 0
-1287 -68 -2 -10 0
-1287 -68 -85 0
-1287 -68 -143 0
-1287 -68 -200 0
-1287 -69 0
-1288 11 0
-1288 260 0
-1288 -60 0
-1288 -61 0
-1288 -63 0
-1288 -64 0
-1288 -65 0
-1288 -66 265 0
-1288 -66 -3 -8 0
-1288 -66 -89 0
-1288 -66 -147 0
-1288 -66 -204 0
-1288 -67 266 0
-1288 -67 -3 -9 0
-1288 -67 -91 0
-1288 -67 -149 0
-1288 -67 -206 0
-1288 -68 267 0
-1288 -68 -3 -10 0
-1288 -68 -93 0
-1288 -68 -151 0
-1288 -68 -208 0
-1288 -69 0
-1289 11 0
-1289 261 0
-1289 -60 0
-1289 -61 0
-1289 -62 0
-1289 -64 0
-1289 -65 0
-1289 -66 265 0
-1289 -66 -4 -8 0
-1289 -66 -97 0
-1289 -66 -155 0
-1289 -66 -212 0
-1289 -67 266 0
-1289 -67 -4 -9 0
-1289 -67 -99 0
-1289 -67 -157 0
-1289 -67 -214 0
-1289 -68 267 0
-1289 -68 -4 -10 0
-1289 -68 -101 0
-1289 -68 -159 0
-1289 -68 -216 0
-1289 -69 0
-1290 11 0
-1290 262 0
-1290 -60 0
-1290 -61 0
-1290 -62 0
-1290 -63 0
-1290 -65 0
-1290 -66 265 0
-1290 -66 -5 -8 0
-1290 -66 -105 0
-1290 -66 -163 0
-1290 -66 -220 0
-1290 -67 266 0
-1290 -67 -5 -9 0
-1290 -67 -107 0
-1290 -67 -165 0
-1290 -67 -222 0
-1290 -68 267 0
-1290 -68 -5 -10 0
-1290 -68 -109 0
-1290 -68 -167 0
-1290 -68 -224 0
-1290 -69 0
-1291 11 0
-1291 263 0
-1291 -60 0
-1291 -61 0
-1291 -62 0
-1291 -63 0
-1291 -64 0
-1291 -66 265 0
-1291 -66 -6 -8 0
-1291 -66 -113 0
-1291 -66 -171 0
-1291 -66 -228 0
-1291 -67 266 0
-1291 -67 -6 -9 0
-1291 -67 -115 0
-1291 -67 -173 0
-1291 -67 -230 0
-1291 -68 267 0
-1291 -68 -6 -10 0
-1291 -68 -117 0
-1291 -68 -175 0
-1291 -68 -232 0
-1291 -69 0
-1292 11 0
-1292 258 0
-1292 -120 0
-1292 -121 0
-1292 -122 0
-1292 -123 0
-1292 -124 265 0
-1292 -124 -1 -8 0
-1292 -124 -73 0
-1292 -124 -131 0
-1292 -124 -188 0
-1292 -125 266 0
-1292 -125 -1 -9 0
-1292 -125 -75 0
-1292 -125 -133 0
-1292 -125 -190 0
-1292 -126 267 0
-1292 -126 -1 -10 0
-1292 -126 -77 0
-1292 -126 -135 0
-1292 -126 -192 0
-1292 -127 0
-1293 11 0
-1293 259 0
-1293 -121 0
-1293 -122 0
-1293 -123 0
-1293 -124 265 0
-1293 -124 -2 -8 0
-1293 -124 -81 0
-1293 -124 -139 0
-1293 -124 -196 0
-1293 -125 266 0
-1293 -125 -2 -9 0
-1293 -125 -83 0
-1293 -125 -141 0
-1293 -125 -198 0
-1293 -126 267 0
-1293 -126 -2 -10 0
-1293 -126 -85 0
-1293 -126 -143 0
-1293 -126 -200 0
-1293 -127 0
-1294 11 0
-1294 260 0
-1294 -119 0
-1294 -122 0
-1294 -123 0
-1294 -124 265 0
-1294 -124 -3 -8 0
-1294 -124 -89 0
-1294 -124 -147 0
-1294 -124 -204 0
-1294 -125 266 0
-1294 -125 -3 -9 0
-1294 -125 -91 0
-1294 -125 -149 0
-1294 -125 -206 0
-1294 -126 267 0
-1294 -126 -3 -10 0
-1294 -126 -93 0
-1294 -126 -151 0
-1294 -126 -208 0
-1294 -127 0
-1295 11 0
-1295 261 0
-1295 -119 0
-1295 -120 0
-1295 -123 0
-1295 -124 265 0
-1295 -124 -4 -8 0
-1295 -124 -97 0
-1295 -124 -155 0
-1295 -124 -212 0
-1295 -125 266 0
-1295 -125 -4 -9 0
-1295 -125 -99 0
-1295 -125 -157 0
-1295 -125 -214 0
-1295 -126 267 0
-1295 -126 -4 -10 0
-1295 -126 -101 0
-1295 -126 -159 0
-1295 -126 -216 0
-1295 -127 0
-1296 11 0
-1296 262 0
-1296 -119 0
-1296 -120 0
-1296 -121 0
-1296 -124 265 0
-1296 -124 -5 -8 0
-1296 -124 -105 0
-1296 -124 -163 0
-1296 -124 -220 0
-1296 -125 266 0
-1296 -125 -5 -9 0
-1296 -125 -107 0
-1296 -125 -165 0
-1296 -125 -222 0
-1296 -126 267 0
-1296 -126 -5 -10 0
-1296 -126 -109 0
-1296 -126 -167 0
-1296 -126 -224 0
-1296 -127 0
-1297 11 0
-1297 263 0
-1297 -119 0
-1297 -120 0
-1297 -121 0
-1297 -122 0
-1297 -124 265 0
-1297 -124 -6 -8 0
-1297 -124 -113 0
-1297 -124 -171 0
-1297 -124 -228 0
-1297 -125 266 0
-1297 -125 -6 -9 0
-1297 -125 -115 0
-1297 -125 -173 0
-1297 -125 -230 0
-1297 -126 267 0
-1297 -126 -6 -10 0
-1297 -126 -117 0
-1297 -126 -175 0
-1297 -126 -232 0
-1297 -127 0
-1298 11 0
-1298 258 0
-1298 -178 0
-1298 -179 0
-1298 -180 0
-1298 -181 265 0
-1298 -181 -1 -8 0
-1298 -181 -73 0
-1298 -181 -131 0
-1298 -181 -188 0
-1298 -182 266 0
-1298 -182 -1 -9 0
-1298 -182 -75 0
-1298 -182 -133 0
-1298 -182 -190 0
-1298 -183 267 0
-1298 -183 -1 -10 0
-1298 -183 -77 0
-1298 -183 -135 0
-1298 -183 -192 0
-1298 -184 0
-1299 11 0
-1299 259 0
-1299 -179 0
-1299 -180 0
-1299 -181 265 0
-1299 -181 -2 -8 0
-1299 -181 -81 0
-1299 -181 -139 0
-1299 -181 -196 0
-1299 -182 266 0
-1299 -182 -2 -9 0
-1299 -182 -83 0
-1299 -182 -141 0
-1299 -182 -198 0
-1299 -183 267 0
-1299 -183 -2 -10 0
-1299 -183 -85 0
-1299 -183 -143 0
-1299 -183 -200 0
-1299 -184 0
-1300 11 0
-1300 260 0
-1300 -180 0
-1300 -181 265 0
-1300 -181 -3 -8 0
-1300 -181 -89 0
-1300 -181 -147 0
-1300 -181 -204 0
-1300 -182 266 0
-1300 -182 -3 -9 0
-1300 -182 -91 0
-1300 -182 -149 0
-1300 -182 -206 0
-1300 -183 267 0
-1300 -183 -3 -10 0
-1300 -183 -93 0
-1300 -183 -151 0
-1300 -183 -208 0
-1300 -184 0
-1301 11 0
-1301 261 0
-1301 -177 0
-1301 -181 265 0
-1301 -181 -4 -8 0
-1301 -181 -97 0
-1301 -181 -155 0
-1301 -181 -212 0
-1301 -182 266 0
-1301 -182 -4 -9 0
-1301 -182 -99 0
-1301 -182 -157 0
-1301 -182 -214 0
-1301 -183 267 0
-1301 -183 -4 -10 0
-1301 -183 -101 0
-1301 -183 -159 0
-1301 -183 -216 0
-1301 -184 0
-1302 11 0
-1302 262 0
-1302 -177 0
-1302 -178 0
-1302 -181 265 0
-1302 -181 -5 -8 0
-1302 -181 -105 0
-1302 -181 -163 0
-1302 -181 -220 0
-1302 -182 266 0
-1302 -182 -5 -9 0
-1302 -182 -107 0
-1302 -182 -165 0
-1302 -182 -222 0
-1302 -183 267 0
-1302 -183 -5 -10 0
-1302 -183 -109 0
-1302 -183 -167 0
-1302 -183 -224 0
-1302 -184 0
-1303 11 0
-1303 263 0
-1303 -177 0
-1303 -178 0
-1303 -179 0
-1303 -181 265 0
-1303 -181 -6 -8 0
-1303 -181 -113 0
-1303 -181 -171 0
-1303 -181 -228 0
-1303 -182 266 0
-1303 -182 -6 -9 0
-1303 -182 -115 0
-1303 -182 -173 0
-1303 -182 -230 0
-1303 -183 267 0
-1303 -183 -6 -10 0
-1303 -183 -117 0
-1303 -183 -175 0
-1303 -183 -232 0
-1303 -184 0
-1304 11 0
-1304 258 0
-1304 264 0
-1304 -1 -7 0
-1304 -71 0
-1304 -129 0
-1304 -186 0
-1305 11 0
-1305 259 0
-1305 264 0
-1305 -2 -7 0
-1305 -79 0
-1305 -137 0
-1305 -194 0
-1306 11 0
-1306 260 0
-1306 264 0
-1306 -3 -7 0
-1306 -87 0
-1306 -145 0
-1306 -202 0
-1307 11 0
-1307 261 0
-1307 264 0
-1307 -4 -7 0
-1307 -95 0
-1307 -153 0
-1307 -210 0
-1308 11 0
-1308 262 0
-1308 264 0
-1308 -5 -7 0
-1308 -103 0
-1308 -161 0
-1308 -218 0
-1309 11 0
-1309 263 0
-1309 264 0
-1309 -6 -7 0
-1309 -111 0
-1309 -169 0
-1309 -226 0
-1310 70 0
-1310 317 0
-1310 -2 0
-1310 -3 0
-1310 -4 0
-1310 -5 0
-1310 -6 0
-1310 -7 324 0
-1310 -7 -60 -67 0
-1310 -7 -14 0
-1310 -7 -131 0
-1310 -7 -188 0
-1310 -8 325 0
-1310 -8 -60 -68 0
-1310 -8 -16 0
-1310 -8 -133 0
-1310 -8 -190 0
-1310 -9 326 0
-1310 -9 -60 -69 0
-1310 -9 -18 0
-1310 -9 -135 0
-1310 -9 -192 0
-1310 -10 0
-1311 70 0
-1311 318 0
-1311 -1 0
-1311 -3 0
-1311 -4 0
-1311 -5 0
-1311 -6 0
-1311 -7 324 0
-1311 -7 -61 -67 0
-1311 -7 -22 0
-1311 -7 -139 0
-1311 -7 -196 0
-1311 -8 325 0
-1311 -8 -61 -68 0
-1311 -8 -24 0
-1311 -8 -141 0
-1311 -8 -198 0
-1311 -9 326 0
-1311 -9 -61 -69 0
-1311 -9 -26 0
-1311 -9 -143 0
-1311 -9 -200 0
-1311 -10 0
-1312 70 0
-1312 319 0
-1312 -1 0
-1312 -2 0
-1312 -4 0
-1312 -5 0
-1312 -6 0
-1312 -7 324 0
-1312 -7 -62 -67 0
-1312 -7 -30 0
-1312 -7 -147 0
-1312 -7 -204 0
-1312 -8 325 0
-1312 -8 -62 -68 0
-1312 -8 -32 0
-1312 -8 -149 0
-1312 -8 -206 0
-1312 -9 326 0
-1312 -9 -62 -69 0
-1312 -9 -34 0
-1312 -9 -151 0
-1312 -9 -208 0
-1312 -10 0
-1313 70 0
-1313 320 0
-1313 -1 0
-1313 -2 0
-1313 -3 0
-1313 -5 0
-1313 -6 0
-1313 -7 324 0
-1313 -7 -63 -67 0
-1313 -7 -38 0
-1313 -7 -155 0
-1313 -7 -212 0
-1313 -8 325 0
-1313 -8 -63 -68 0
-1313 -8 -40 0
-1313 -8 -157 0
-1313 -8 -214 0
-1313 -9 326 0
-1313 -9 -63 -69 0
-1313 -9 -42 0
-1313 -9 -159 0
-1313 -9 -216 0
-1313 -10 0
-1314 70 0
-1314 321 0
-1314 -1 0
-1314 -2 0
-1314 -3 0
-1314 -4 0
-1314 -6 0
-1314 -7 324 0
-1314 -7 -64 -67 0
-1314 -7 -46 0
-1314 -7 -163 0
-1314 -7 -220 0
-1314 -8 325 0
-1314 -8 -64 -68 0
-1314 -8 -48 0
-1314 -8 -165 0
-1314 -8 -222 0
-1314 -9 326 0
-1314 -9 -64 -69 0
-1314 -9 -50 0
-1314 -9 -167 0
-1314 -9 -224 0
-1314 -10 0
-1315 70 0
-1315 322 0
-1315 -1 0
-1315 -2 0
-1315 -3 0
-1315 -4 0
-1315 -5 0
-1315 -7 324 0
-1315 -7 -65 -67 0
-1315 -7 -54 0
-1315 -7 -171 0
-1315 -7 -228 0
-1315 -8 325 0
-1315 -8 -65 -68 0
-1315 -8 -56 0
-1315 -8 -173 0
-1315 -8 -230 0
-1315 -9 326 0
-1315 -9 -65 -69 0
-1315 -9 -58 0
-1315 -9 -175 0
-1315 -9 -232 0
-1315 -10 0
-1316 70 0
-1316 317 0
-1316 -120 0
-1316 -121 0
-1316 -122 0
-1316 -123 0
-1316 -124 324 0
-1316 -124 -60 -67 0
-1316 -124 -14 0
-1316 -124 -131 0
-1316 -124 -188 0
-1316 -125 325 0
-1316 -125 -60 -68 0
-1316 -125 -16 0
-1316 -125 -133 0
-1316 -125 -190 0
-1316 -126 326 0
-1316 -126 -60 -69 0
-1316 -126 -18 0
-1316 -126 -135 0
-1316 -126 -192 0
-1316 -127 0
-1317 70 0
-1317 318 0
-1317 -121 0
-1317 -122 0
-1317 -123 0
-1317 -124 324 0
-1317 -124 -61 -67 0
-1317 -124 -22 0
-1317 -124 -139 0
-1317 -124 -196 0
-1317 -125 325 0
-1317 -125 -61 -68 0
-1317 -125 -24 0
-1317 -125 -141 0
-1317 -125 -198 0
-1317 -126 326 0
-1317 -126 -61 -69 0
-1317 -126 -26 0
-1317 -126 -143 0
-1317 -126 -200 0
-1317 -127 0
-1318 70 0
-1318 319 0
-1318 -119 0
-1318 -122 0
-1318 -123 0
-1318 -124 324 0
-1318 -124 -62 -67 0
-1318 -124 -30 0
-1318 -124 -147 0
-1318 -124 -204 0
-1318 -125 325 0
-1318 -125 -62 -68 0
-1318 -125 -32 0
-1318 -125 -149 0
-1318 -125 -206 0
-1318 -126 326 0
-1318 -126 -62 -69 0
-1318 -126 -34 0
-1318 -126 -151 0
-1318 -126 -208 0
-1318 -127 0
-1319 70 0
-1319 320 0
-1319 -119 0
-1319 -120 0
-1319 -123 0
-1319 -124 324 0
-1319 -124 -63 -67 0
-1319 -124 -38 0
-1319 -124 -155 0
-1319 -124 -212 0
-1319 -125 325 0
-1319 -125 -63 -68 0
-1319 -125 -40 0
-1319 -125 -157 0
-1319 -125 -214 0
-1319 -126 326 0
-1319 -126 -63 -69 0
-1319 -126 -42 0
-1319 -126 -159 0
-1319 -126 -216 0
-1319 -127 0
-1320 70 0
-1320 321 0
-1320 -119 0
-1320 -120 0
-1320 -121 0
-1320 -124 324 0
-1320 -124 -64 -67 0
-1320 -124 -46 0
-1320 -124 -163 0
-1320 -124 -220 0
-1320 -125 325 0
-1320 -125 -64 -68 0
-1320 -125 -48 0
-1320 -125 -165 0
-1320 -125 -222 0
-1320 -126 326 0
-1320 -126 -64 -69 0
-1320 -126 -50 0
-1320 -126 -167 0
-1320 -126 -224 0
-1320 -127 0
-1321 70 0
-1321 322 0
-1321 -119 0
-1321 -120 0
-1321 -121 0
-1321 -122 0
-1321 -124 324 0
-1321 -124 -65 -67 0
-1321 -124 -54 0
-1321 -124 -171 0
-1321 -124 -228 0
-1321 -125 325 0
-1321 -125 -65 -68 0
-1321 -125 -56 0
-1321 -125 -173 0
-1321 -125 -230 0
-1321 -126 326 0
-1321 -126 -65 -69 0
-1321 -126 -58 0
-1321 -126 -175 0
-1321 -126 -232 0
-1321 -127 0
-1322 70 0
-1322 317 0
-1322 -178 0
-1322 -179 0
-1322 -180 0
-1322 -181 324 0
-1322 -181 -60 -67 0
-1322 -181 -14 0
-1322 -181 -131 0
-1322 -181 -188 0
-1322 -182 325 0
-1322 -182 -60 -68 0
-1322 -182 -16 0
-1322 -182 -133 0
-1322 -182 -190 0
-1322 -183 326 0
-1322 -183 -60 -69 0
-1322 -183 -18 0
-1322 -183 -135 0
-1322 -183 -192 0
-1322 -184 0
-1323 70 0
-1323 318 0
-1323 -179 0
-1323 -180 0
-1323 -181 324 0
-1323 -181 -61 -67 0
-1323 -181 -22 0
-1323 -181 -139 0
-1323 -181 -196 0
-1323 -182 325 0
-1323 -182 -61 -68 0
-1323 -182 -24 0
-1323 -182 -141 0
-1323 -182 -198 0
-1323 -183 326 0
-1323 -183 -61 -69 0
-1323 -183 -26 0
-1323 -183 -143 0
-1323 -183 -200 0
-1323 -184 0
-1324 70 0
-1324 319 0
-1324 -180 0
-1324 -181 324 0
-1324 -181 -62 -67 0
-1324 -181 -30 0
-1324 -181 -147 0
-1324 -181 -204 0
-1324 -182 325 0
-1324 -182 -62 -68 0
-1324 -182 -32 0
-1324 -182 -149 0
-1324 -182 -206 0
-1324 -183 326 0
-1324 -183 -62 -69 0
-1324 -183 -34 0
-1324 -183 -151 0
-1324 -183 -208 0
-1324 -184 0
-1325 70 0
-1325 320 0
-1325 -177 0
-1325 -181 324 0
-1325 -181 -63 -67 0
-1325 -181 -38 0
-1325 -181 -155 0
-1325 -181 -212 0
-1325 -182 325 0
-1325 -182 -63 -68 0
-1325 -182 -40 0
-1325 -182 -157 0
-1325 -182 -214 0
-1325 -183 326 0
-1325 -183 -63 -69 0
-1325 -183 -42 0
-1325 -183 -159 0
-1325 -183 -216 0
-1325 -184 0
-1326 70 0
-1326 321 0
-1326 -177 0
-1326 -178 0
-1326 -181 324 0
-1326 -181 -64 -67 0
-1326 -181 -46 0
-1326 -181 -163 0
-1326 -181 -220 0
-1326 -182 325 0
-1326 -182 -64 -68 0
-1326 -182 -48 0
-1326 -182 -165 0
-1326 -182 -222 0
-1326 -183 326 0
-1326 -183 -64 -69 0
-1326 -183 -50 0
-1326 -183 -167 0
-1326 -183 -224 0
-1326 -184 0
-1327 70 0
-1327 322 0
-1327 -177 0
-1327 -178 0
-1327 -179 0
-1327 -181 324 0
-1327 -181 -65 -67 0
-1327 -181 -54 0
-1327 -181 -171 0
-1327 -181 -228 0
-1327 -182 325 0
-1327 -182 -65 -68 0
-1327 -182 -56 0
-1327 -182 -173 0
-1327 -182 -230 0
-1327 -183 326 0
-1327 -183 -65 -69 0
-1327 -183 -58 0
-1327 -183 -175 0
-1327 -183 -232 0
-1327 -184 0
-1328 70 0
-1328 317 0
-1328 323 0
-1328 -60 -66 0
-1328 -12 0
-1328 -129 0
-1328 -186 0
-1329 70 0
-1329 318 0
-1329 323 0
-1329 -61 -66 0
-1329 -20 0
-1329 -137 0
-1329 -194 0
-1330 70 0
-1330 319 0
-1330 323 0
-1330 -62 -66 0
-1330 -28 0
-1330 -145 0
-1330 -202 0
-1331 70 0
-1331 320 0
-1331 323 0
-1331 -63 -66 0
-1331 -36 0
-1331 -153 0
-1331 -210 0
-1332 70 0
-1332 321 0
-1332 323 0
-1332 -64 -66 0
-1332 -44 0
-1332 -161 0
-1332 -218 0
-1333 70 0
-1333 322 0
-1333 323 0
-1333 -65 -66 0
-1333 -52 0
-1333 -169 0
-1333 -226 0
-1334 128 0
-1334 376 0
-1334 -3 0
-1334 -4 0
-1334 -5 0
-1334 -6 0
-1334 -7 382 0
-1334 -7 -119 -125 0
-1334 -7 -14 0
-1334 -7 -22 0
-1334 -7 -73 0
-1334 -7 -81 0
-1334 -7 -188 0
-1334 -7 -196 0
-1334 -8 383 0
-1334 -8 -119 -126 0
-1334 -8 -16 0
-1334 -8 -24 0
-1334 -8 -75 0
-1334 -8 -83 0
-1334 -8 -190 0
-1334 -8 -198 0
-1334 -9 384 0
-1334 -9 -119 -127 0
-1334 -9 -18 0
-1334 -9 -26 0
-1334 -9 -77 0
-1334 -9 -85 0
-1334 -9 -192 0
-1334 -9 -200 0
-1334 -10 0
-1335 128 0
-1335 377 0
-1335 -1 0
-1335 -4 0
-1335 -5 0
-1335 -6 0
-1335 -7 382 0
-1335 -7 -120 -125 0
-1335 -7 -22 0
-1335 -7 -30 0
-1335 -7 -81 0
-1335 -7 -89 0
-1335 -7 -196 0
-1335 -7 -204 0
-1335 -8 383 0
-1335 -8 -120 -126 0
-1335 -8 -24 0
-1335 -8 -32 0
-1335 -8 -83 0
-1335 -8 -91 0
-1335 -8 -198 0
-1335 -8 -206 0
-1335 -9 384 0
-1335 -9 -120 -127 0
-1335 -9 -26 0
-1335 -9 -34 0
-1335 -9 -85 0
-1335 -9 -93 0
-1335 -9 -200 0
-1335 -9 -208 0
-1335 -10 0
-1336 128 0
-1336 378 0
-1336 -1 0
-1336 -2 0
-1336 -5 0
-1336 -6 0
-1336 -7 382 0
-1336 -7 -121 -125 0
-1336 -7 -30 0
-1336 -7 -38 0
-1336 -7 -89 0
-1336 -7 -97 0
-1336 -7 -204 0
-1336 -7 -212 0
-1336 -8 383 0
-1336 -8 -121 -126 0
-1336 -8 -32 0
-1336 -8 -40 0
-1336 -8 -91 0
-1336 -8 -99 0
-1336 -8 -206 0
-1336 -8 -214 0
-1336 -9 384 0
-1336 -9 -121 -127 0
-1336 -9 -34 0
-1336 -9 -42 0
-1336 -9 -93 0
-1336 -9 -101 0
-1336 -9 -208 0
-1336 -9 -216 0
-1336 -10 0
-1337 128 0
-1337 379 0
-1337 -1 0
-1337 -2 0
-1337 -3 0
-1337 -6 0
-1337 -7 382 0
-1337 -7 -122 -125 0
-1337 -7 -38 0
-1337 -7 -46 0
-1337 -7 -97 0
-1337 -7 -105 0
-1337 -7 -212 0
-1337 -7 -220 0
-1337 -8 383 0
-1337 -8 -122 -126 0
-1337 -8 -40 0
-1337 -8 -48 0
-1337 -8 -99 0
-1337 -8 -107 0
-1337 -8 -214 0
-1337 -8 -222 0
-1337 -9 384 0
-1337 -9 -122 -127 0
-1337 -9 -42 0
-1337 -9 -50 0
-1337 -9 -101 0
-1337 -9 -109 0
-1337 -9 -216 0
-1337 -9 -224 0
-1337 -10 0
-1338 128 0
-1338 380 0
-1338 -1 0
-1338 -2 0
-1338 -3 0
-1338 -4 0
-1338 -7 382 0
-1338 -7 -123 -125 0
-1338 -7 -46 0
-1338 -7 -54 0
-1338 -7 -105 0
-1338 -7 -113 0
-1338 -7 -220 0
-1338 -7 -228 0
-1338 -8 383 0
-1338 -8 -123 -126 0
-1338 -8 -48 0
-1338 -8 -56 0
-1338 -8 -107 0
-1338 -8 -115 0
-1338 -8 -222 0
-1338 -8 -230 0
-1338 -9 384 0
-1338 -9 -123 -127 0
-1338 -9 -50 0
-1338 -9 -58 0
-1338 -9 -109 0
-1338 -9 -117 0
-1338 -9 -224 0
-1338 -9 -232 0
-1338 -10 0
-1339 128 0
-1339 376 0
-1339 -62 0
-1339 -63 0
-1339 -64 0
-1339 -65 0
-1339 -66 382 0
-1339 -66 -119 -125 0
-1339 -66 -14 0
-1339 -66 -22 0
-1339 -66 -73 0
-1339 -66 -81 0
-1339 -66 -188 0
-1339 -66 -196 0
-1339 -67 383 0
-1339 -67 -119 -126 0
-1339 -67 -16 0
-1339 -67 -24 0
-1339 -67 -75 0
-1339 -67 -83 0
-1339 -67 -190 0
-1339 -67 -198 0
-1339 -68 384 0
-1339 -68 -119 -127 0
-1339 -68 -18 0
-1339 -68 -26 0
-1339 -68 -77 0
-1339 -68 -85 0
-1339 -68 -192 0
-1339 -68 -200 0
-1339 -69 0
-1340 128 0
-1340 377 0
-1340 -60 0
-1340 -63 0
-1340 -64 0
-1340 -65 0
-1340 -66 382 0
-1340 -66 -120 -125 0
-1340 -66 -22 0
-1340 -66 -30 0
-1340 -66 -81 0
-1340 -66 -89 0
-1340 -66 -196 0
-1340 -66 -204 0
-1340 -67 383 0
-1340 -67 -120 -126 0
-1340 -67 -24 0
-1340 -67 -32 0
-1340 -67 -83 0
-1340 -67 -91 0
-1340 -67 -198 0
-1340 -67 -206 0
-1340 -68 384 0
-1340 -68 -120 -127 0
-1340 -68 -26 0
-1340 -68 -34 0
-1340 -68 -85 0
-1340 -68 -93 0
-1340 -68 -200 0
-1340 -68 -208 0
-1340 -69 0
-1341 128 0
-1341 378 0
-1341 -60 0
-1341 -61 0
-1341 -64 0
-1341 -65 0
-1341 -66 382 0
-1341 -66 -121 -125 0
-1341 -66 -30 0
-1341 -66 -38 0
-1341 -66 -89 0
-1341 -66 -97 0
-1341 -66 -204 0
-1341 -66 -212 0
-1341 -67 383 0
-1341 -67 -121 -126 0
-1341 -67 -32 0
-1341 -67 -40 0
-1341 -67 -91 0
-1341 -67 -99 0
-1341 -67 -206 0
-1341 -67 -214 0
-1341 -68 384 0
-1341 -68 -121 -127 0
-1341 -68 -34 0
-1341 -68 -42 0
-1341 -68 -93 0
-1341 -68 -101 0
-1341 -68 -208 0
-1341 -68 -216 0
-1341 -69 0
-1342 128 0
-1342 379 0
-1342 -60 0
-1342 -61 0
-1342 -62 0
-1342 -65 0
-1342 -66 382 0
-1342 -66 -122 -125 0
-1342 -66 -38 0
-1342 -66 -46 0
-1342 -66 -97 0
-1342 -66 -105 0
-1342 -66 -212 0
-1342 -66 -220 0
-1342 -67 383 0
-1342 -67 -122 -126 0
-1342 -67 -40 0
-1342 -67 -48 0
-1342 -67 -99 0
-1342 -67 -107 0
-1342 -67 -214 0
-1342 -67 -222 0
-1342 -68 384 0
-1342 -68 -122 -127 0
-1342 -68 -42 0
-1342 -68 -50 0
-1342 -68 -101 0
-1342 -68 -109 0
-1342 -68 -216 0
-1342 -68 -224 0
-1342 -69 0
-1343 128 0
-1343 380 0
-1343 -60 0
-1343 -61 0
-1343 -62 0
-1343 -63 0
-1343 -66 382 0
-1343 -66 -123 -125 0
-1343 -66 -46 0
-1343 -66 -54 0
-1343 -66 -105 0
-1343 -66 -113 0
-1343 -66 -220 0
-1343 -66 -228 0
-1343 -67 383 0
-1343 -67 -123 -126 0
-1343 -67 -48 0
-1343 -67 -56 0
-1343 -67 -107 0
-1343 -67 -115 0
-1343 -67 -222 0
-1343 -67 -230 0
-1343 -68 384 0
-1343 -68 -123 -127 0
-1343 -68 -50 0
-1343 -68 -58 0
-1343 -68 -109 0
-1343 -68 -117 0
-1343 -68 -224 0
-1343 -68 -232 0
-1343 -69 0
-1344 128 0
-1344 376 0
-1344 -179 0
-1344 -180 0
-1344 -181 382 0
-1344 -181 -119 -125 0
-1344 -181 -14 0
-1344 -181 -22 0
-1344 -181 -73 0
-1344 -181 -81 0
-1344 -181 -188 0
-1344 -181 -196 0
-1344 -182 383 0
-1344 -182 -119 -126 0
-1344 -182 -16 0
-1344 -182 -24 0
-1344 -182 -75 0
-1344 -182 -83 0
-1344 -182 -190 0
-1344 -182 -198 0
-1344 -183 384 0
-1344 -183 -119 -127 0
-1344 -183 -18 0
-1344 -183 -26 0
-1344 -183 -77 0
-1344 -183 -85 0
-1344 -183 -192 0
-1344 -183 -200 0
-1344 -184 0
-1345 128 0
-1345 377 0
-1345 -180 0
-1345 -181 382 0
-1345 -181 -120 -125 0
-1345 -181 -22 0
-1345 -181 -30 0
-1345 -181 -81 0
-1345 -181 -89 0
-1345 -181 -196 0
-1345 -181 -204 0
-1345 -182 383 0
-1345 -182 -120 -126 0
-1345 -182 -24 0
-1345 -182 -32 0
-1345 -182 -83 0
-1345 -182 -91 0
-1345 -182 -198 0
-1345 -182 -206 0
-1345 -183 384 0
-1345 -183 -120 -127 0
-1345 -183 -26 0
-1345 -183 -34 0
-1345 -183 -85 0
-1345 -183 -93 0
-1345 -183 -200 0
-1345 -183 -208 0
-1345 -184 0
-1346 128 0
-1346 378 0
-1346 -181 382 0
-1346 -181 -121 -125 0
-1346 -181 -30 0
-1346 -181 -38 0
-1346 -181 -89 0
-1346 -181 -97 0
-1346 -181 -204 0
-1346 -181 -212 0
-1346 -182 383 0
-1346 -182 -121 -126 0
-1346 -182 -32 0
-1346 -182 -40 0
-1346 -182 -91 0
-1346 -182 -99 0
-1346 -182 -206 0
-1346 -182 -214 0
-1346 -183 384 0
-1346 -183 -121 -127 0
-1346 -183 -34 0
-1346 -183 -42 0
-1346 -183 -93 0
-1346 -183 -101 0
-1346 -183 -208 0
-1346 -183 -216 0
-1346 -184 0
-1347 128 0
-1347 379 0
-1347 -177 0
-1347 -181 382 0
-1347 -181 -122 -125 0
-1347 -181 -38 0
-1347 -181 -46 0
-1347 -181 -97 0
-1347 -181 -105 0
-1347 -181 -212 0
-1347 -181 -220 0
-1347 -182 383 0
-1347 -182 -122 -126 0
-1347 -182 -40 0
-1347 -182 -48 0
-1347 -182 -99 0
-1347 -182 -107 0
-1347 -182 -214 0
-1347 -182 -222 0
-1347 -183 384 0
-1347 -183 -122 -127 0
-1347 -183 -42 0
-1347 -183 -50 0
-1347 -183 -101 0
-1347 -183 -109 0
-1347 -183 -216 0
-1347 -183 -224 0
-1347 -184 0
-1348 128 0
-1348 380 0
-1348 -177 0
-1348 -178 0
-1348 -181 382 0
-1348 -181 -123 -125 0
-1348 -181 -46 0
-1348 -181 -54 0
-1348 -181 -105 0
-1348 -181 -113 0
-1348 -181 -220 0
-1348 -181 -228 0
-1348 -182 383 0
-1348 -182 -123 -126 0
-1348 -182 -48 0
-1348 -182 -56 0
-1348 -182 -107 0
-1348 -182 -115 0
-1348 -182 -222 0
-1348 -182 -230 0
-1348 -183 384 0
-1348 -183 -123 -127 0
-1348 -183 -50 0
-1348 -183 -58 0
-1348 -183 -109 0
-1348 -183 -117 0
-1348 -183 -224 0
-1348 -183 -232 0
-1348 -184 0
-1349 128 0
-1349 376 0
-1349 381 0
-1349 -119 -124 0
-1349 -12 0
-1349 -20 0
-1349 -71 0
-1349 -79 0
-1349 -186 0
-1349 -194 0
-1350 128 0
-1350 377 0
-1350 381 0
-1350 -120 -124 0
-1350 -20 0
-1350 -28 0
-1350 -79 0
-1350 -87 0
-1350 -194 0
-1350 -202 0
-1351 128 0
-1351 378 0
-1351 381 0
-1351 -121 -124 0
-1351 -28 0
-1351 -36 0
-1351 -87 0
-1351 -95 0
-1351 -202 0
-1351 -210 0
-1352 128 0
-1352 379 0
-1352 381 0
-1352 -122 -124 0
-1352 -36 0
-1352 -44 0
-1352 -95 0
-1352 -103 0
-1352 -210 0
-1352 -218 0
-1353 128 0
-1353 380 0
-1353 381 0
-1353 -123 -124 0
-1353 -44 0
-1353 -52 0
-1353 -103 0
-1353 -111 0
-1353 -218 0
-1353 -226 0
-1354 185 0
-1354 434 0
-1354 -4 0
-1354 -5 0
-1354 -6 0
-1354 -7 439 0
-1354 -7 -177 -182 0
-1354 -7 -14 0
-1354 -7 -22 0
-1354 -7 -30 0
-1354 -7 -73 0
-1354 -7 -81 0
-1354 -7 -89 0
-1354 -7 -131 0
-1354 -7 -139 0
-1354 -7 -147 0
-1354 -8 440 0
-1354 -8 -177 -183 0
-1354 -8 -16 0
-1354 -8 -24 0
-1354 -8 -32 0
-1354 -8 -75 0
-1354 -8 -83 0
-1354 -8 -91 0
-1354 -8 -133 0
-1354 -8 -141 0
-1354 -8 -149 0
-1354 -9 441 0
-1354 -9 -177 -184 0
-1354 -9 -18 0
-1354 -9 -26 0
-1354 -9 -34 0
-1354 -9 -77 0
-1354 -9 -85 0
-1354 -9 -93 0
-1354 -9 -135 0
-1354 -9 -143 0
-1354 -9 -151 0
-1354 -10 0
-1355 185 0
-1355 435 0
-1355 -1 0
-1355 -5 0
-1355 -6 0
-1355 -7 439 0
-1355 -7 -178 -182 0
-1355 -7 -22 0
-1355 -7 -30 0
-1355 -7 -38 0
-1355 -7 -81 0
-1355 -7 -89 0
-1355 -7 -97 0
-1355 -7 -139 0
-1355 -7 -147 0
-1355 -7 -155 0
-1355 -8 440 0
-1355 -8 -178 -183 0
-1355 -8 -24 0
-1355 -8 -32 0
-1355 -8 -40 0
-1355 -8 -83 0
-1355 -8 -91 0
-1355 -8 -99 0
-1355 -8 -141 0
-1355 -8 -149 0
-1355 -8 -157 0
-1355 -9 441 0
-1355 -9 -178 -184 0
-1355 -9 -26 0
-1355 -9 -34 0
-1355 -9 -42 0
-1355 -9 -85 0
-1355 -9 -93 0
-1355 -9 -101 0
-1355 -9 -143 0
-1355 -9 -151 0
-1355 -9 -159 0
-1355 -10 0
-1356 185 0
-1356 436 0
-1356 -1 0
-1356 -2 0
-1356 -6 0
-1356 -7 439 0
-1356 -7 -179 -182 0
-1356 -7 -30 0
-1356 -7 -38 0
-1356 -7 -46 0
-1356 -7 -89 0
-1356 -7 -97 0
-1356 -7 -105 0
-1356 -7 -147 0
-1356 -7 -155 0
-1356 -7 -163 0
-1356 -8 440 0
-1356 -8 -179 -183 0
-1356 -8 -32 0
-1356 -8 -40 0
-1356 -8 -48 0
-1356 -8 -91 0
-1356 -8 -99 0
-1356 -8 -107 0
-1356 -8 -149 0
-1356 -8 -157 0
-1356 -8 -165 0
-1356 -9 441 0
-1356 -9 -179 -184 0
-1356 -9 -34 0
-1356 -9 -42 0
-1356 -9 -50 0
-1356 -9 -93 0
-1356 -9 -101 0
-1356 -9 -109 0
-1356 -9 -151 0
-1356 -9 -159 0
-1356 -9 -167 0
-1356 -10 0
-1357 185 0
-1357 437 0
-1357 -1 0
-1357 -2 0
-1357 -3 0
-1357 -7 439 0
-1357 -7 -180 -182 0
-1357 -7 -38 0
-1357 -7 -46 0
-1357 -7 -54 0
-1357 -7 -97 0
-1357 -7 -105 0
-1357 -7 -113 0
-1357 -7 -155 0
-1357 -7 -163 0
-1357 -7 -171 0
-1357 -8 440 0
-1357 -8 -180 -183 0
-1357 -8 -40 0
-1357 -8 -48 0
-1357 -8 -56 0
-1357 -8 -99 0
-1357 -8 -107 0
-1357 -8 -115 0
-1357 -8 -157 0
-1357 -8 -165 0
-1357 -8 -173 0
-1357 -9 441 0
-1357 -9 -180 -184 0
-1357 -9 -42 0
-1357 -9 -50 0
-1357 -9 -58 0
-1357 -9 -101 0
-1357 -9 -109 0
-1357 -9 -117 0
-1357 -9 -159 0
-1357 -9 -167 0
-1357 -9 -175 0
-1357 -10 0
-1358 185 0
-1358 434 0
-1358 -63 0
-1358 -64 0
-1358 -65 0
-1358 -66 439 0
-1358 -66 -177 -182 0
-1358 -66 -14 0
-1358 -66 -22 0
-1358 -66 -30 0
-1358 -66 -73 0
-1358 -66 -81 0
-1358 -66 -89 0
-1358 -66 -131 0
-1358 -66 -139 0
-1358 -66 -147 0
-1358 -67 440 0
-1358 -67 -177 -183 0
-1358 -67 -16 0
-1358 -67 -24 0
-1358 -67 -32 0
-1358 -67 -75 0
-1358 -67 -83 0
-1358 -67 -91 0
-1358 -67 -133 0
-1358 -67 -141 0
-1358 -67 -149 0
-1358 -68 441 0
-1358 -68 -177 -184 0
-1358 -68 -18 0
-1358 -68 -26 0
-1358 -68 -34 0
-1358 -68 -77 0
-1358 -68 -85 0
-1358 -68 -93 0
-1358 -68 -135 0
-1358 -68 -143 0
-1358 -68 -151 0
-1358 -69 0
-1359 185 0
-1359 435 0
-1359 -60 0
-1359 -64 0
-1359 -65 0
-1359 -66 439 0
-1359 -66 -178 -182 0
-1359 -66 -22 0
-1359 -66 -30 0
-1359 -66 -38 0
-1359 -66 -81 0
-1359 -66 -89 0
-1359 -66 -97 0
-1359 -66 -139 0
-1359 -66 -147 0
-1359 -66 -155 0
-1359 -67 440 0
-1359 -67 -178 -183 0
-1359 -67 -24 0
-1359 -67 -32 0
-1359 -67 -40 0
-1359 -67 -83 0
-1359 -67 -91 0
-1359 -67 -99 0
-1359 -67 -141 0
-1359 -67 -149 0
-1359 -67 -157 0
-1359 -68 441 0
-1359 -68 -178 -184 0
-1359 -68 -26 0
-1359 -68 -34 0
-1359 -68 -42 0
-1359 -68 -85 0
-1359 -68 -93 0
-1359 -68 -101 0
-1359 -68 -143 0
-1359 -68 -151 0
-1359 -68 -159 0
-1359 -69 0
-1360 185 0
-1360 436 0
-1360 -60 0
-1360 -61 0
-1360 -65 0
-1360 -66 439 0
-1360 -66 -179 -182 0
-1360 -66 -30 0
-1360 -66 -38 0
-1360 -66 -46 0
-1360 -66 -89 0
-1360 -66 -97 0
-1360 -66 -105 0
-1360 -66 -147 0
-1360 -66 -155 0
-1360 -66 -163 0
-1360 -67 440 0
-1360 -67 -179 -183 0
-1360 -67 -32 0
-1360 -67 -40 0
-1360 -67 -48 0
-1360 -67 -91 0
-1360 -67 -99 0
-1360 -67 -107 0
-1360 -67 -149 0
-1360 -67 -157 0
-1360 -67 -165 0
-1360 -68 441 0
-1360 -68 -179 -184 0
-1360 -68 -34 0
-1360 -68 -42 0
-1360 -68 -50 0
-1360 -68 -93 0
-1360 -68 -101 0
-1360 -68 -109 0
-1360 -68 -151 0
-1360 -68 -159 0
-1360 -68 -167 0
-1360 -69 0
-1361 185 0
-1361 437 0
-1361 -60 0
-1361 -61 0
-1361 -62 0
-1361 -66 439 0
-1361 -66 -180 -182 0
-1361 -66 -38 0
-1361 -66 -46 0
-1361 -66 -54 0
-1361 -66 -97 0
-1361 -66 -105 0
-1361 -66 -113 0
-1361 -66 -155 0
-1361 -66 -163 0
-1361 -66 -171 0
-1361 -67 440 0
-1361 -67 -180 -183 0
-1361 -67 -40 0
-1361 -67 -48 0
-1361 -67 -56 0
-1361 -67 -99 0
-1361 -67 -107 0
-1361 -67 -115 0
-1361 -67 -157 0
-1361 -67 -165 0
-1361 -67 -173 0
-1361 -68 441 0
-1361 -68 -180 -184 0
-1361 -68 -42 0
-1361 -68 -50 0
-1361 -68 -58 0
-1361 -68 -101 0
-1361 -68 -109 0
-1361 -68 -117 0
-1361 -68 -159 0
-1361 -68 -167 0
-1361 -68 -175 0
-1361 -69 0
-1362 185 0
-1362 434 0
-1362 -122 0
-1362 -123 0
-1362 -124 439 0
-1362 -124 -177 -182 0
-1362 -124 -14 0
-1362 -124 -22 0
-1362 -124 -30 0
-1362 -124 -73 0
-1362 -124 -81 0
-1362 -124 -89 0
-1362 -124 -131 0
-1362 -124 -139 0
-1362 -124 -147 0
-1362 -125 440 0
-1362 -125 -177 -183 0
-1362 -125 -16 0
-1362 -125 -24 0
-1362 -125 -32 0
-1362 -125 -75 0
-1362 -125 -83 0
-1362 -125 -91 0
-1362 -125 -133 0
-1362 -125 -141 0
-1362 -125 -149 0
-1362 -126 441 0
-1362 -126 -177 -184 0
-1362 -126 -18 0
-1362 -126 -26 0
-1362 -126 -34 0
-1362 -126 -77 0
-1362 -126 -85 0
-1362 -126 -93 0
-1362 -126 -135 0
-1362 -126 -143 0
-1362 -126 -151 0
-1362 -127 0
-1363 185 0
-1363 435 0
-1363 -123 0
-1363 -124 439 0
-1363 -124 -178 -182 0
-1363 -124 -22 0
-1363 -124 -30 0
-1363 -124 -38 0
-1363 -124 -81 0
-1363 -124 -89 0
-1363 -124 -97 0
-1363 -124 -139 0
-1363 -124 -147 0
-1363 -124 -155 0
-1363 -125 440 0
-1363 -125 -178 -183 0
-1363 -125 -24 0
-1363 -125 -32 0
-1363 -125 -40 0
-1363 -125 -83 0
-1363 -125 -91 0
-1363 -125 -99 0
-1363 -125 -141 0
-1363 -125 -149 0
-1363 -125 -157 0
-1363 -126 441 0
-1363 -126 -178 -184 0
-1363 -126 -26 0
-1363 -126 -34 0
-1363 -126 -42 0
-1363 -126 -85 0
-1363 -126 -93 0
-1363 -126 -101 0
-1363 -126 -143 0
-1363 -126 -151 0
-1363 -126 -159 0
-1363 -127 0
-1364 185 0
-1364 436 0
-1364 -119 0
-1364 -124 439 0
-1364 -124 -179 -182 0
-1364 -124 -30 0
-1364 -124 -38 0
-1364 -124 -46 0
-1364 -124 -89 0
-1364 -124 -97 0
-1364 -124 -105 0
-1364 -124 -147 0
-1364 -124 -155 0
-1364 -124 -163 0
-1364 -125 440 0
-1364 -125 -179 -183 0
-1364 -125 -32 0
-1364 -125 -40 0
-1364 -125 -48 0
-1364 -125 -91 0
-1364 -125 -99 0
-1364 -125 -107 0
-1364 -125 -149 0
-1364 -125 -157 0
-1364 -125 -165 0
-1364 -126 441 0
-1364 -126 -179 -184 0
-1364 -126 -34 0
-1364 -126 -42 0
-1364 -126 -50 0
-1364 -126 -93 0
-1364 -126 -101 0
-1364 -126 -109 0
-1364 -126 -151 0
-1364 -126 -159 0
-1364 -126 -167 0
-1364 -127 0
-1365 185 0
-1365 437 0
-1365 -119 0
-1365 -120 0
-1365 -124 439 0
-1365 -124 -180 -182 0
-1365 -124 -38 0
-1365 -124 -46 0
-1365 -124 -54 0
-1365 -124 -97 0
-1365 -124 -105 0
-1365 -124 -113 0
-1365 -124 -155 0
-1365 -124 -163 0
-1365 -124 -171 0
-1365 -125 440 0
-1365 -125 -180 -183 0
-1365 -125 -40 0
-1365 -125 -48 0
-1365 -125 -56 0
-1365 -125 -99 0
-1365 -125 -107 0
-1365 -125 -115 0
-1365 -125 -157 0
-1365 -125 -165 0
-1365 -125 -173 0
-1365 -126 441 0
-1365 -126 -180 -184 0
-1365 -126 -42 0
-1365 -126 -50 0
-1365 -126 -58 0
-1365 -126 -101 0
-1365 -126 -109 0
-1365 -126 -117 0
-1365 -126 -159 0
-1365 -126 -167 0
-1365 -126 -175 0
-1365 -127 0
-1366 185 0
-1366 434 0
-1366 438 0
-1366 -177 -181 0
-1366 -12 0
-1366 -20 0
-1366 -28 0
-1366 -71 0
-1366 -79 0
-1366 -87 0
-1366 -129 0
-1366 -137 0
-1366 -145 0
-1367 185 0
-1367 435 0
-1367 438 0
-1367 -178 -181 0
-1367 -20 0
-1367 -28 0
-1367 -36 0
-1367 -79 0
-1367 -87 0
-1367 -95 0
-1367 -137 0
-1367 -145 0
-1367 -153 0
-1368 185 0
-1368 436 0
-1368 438 0
-1368 -179 -181 0
-1368 -28 0
-1368 -36 0
-1368 -44 0
-1368 -87 0
-1368 -95 0
-1368 -103 0
-1368 -145 0
-1368 -153 0
-1368 -161 0
-1369 185 0
-1369 437 0
-1369 438 0
-1369 -180 -181 0
-1369 -36 0
-1369 -44 0
-1369 -52 0
-1369 -95 0
-1369 -103 0
-1369 -111 0
-1369 -153 0
-1369 -161 0
-1369 -169 0
-1 258 1286 1287 1288 1289 1290 1291 1292 1293 1294 1295 1296 1297 1298 1299 1300 1301 1302 1303 1304 1305 1306 1307 1308 1309 0
-2 259 1286 1287 1288 1289 1290 1291 1292 1293 1294 1295 1296 1297 1298 1299 1300 1301 1302 1303 1304 1305 1306 1307 1308 1309 0
-3 260 1286 1287 1288 1289 1290 1291 1292 1293 1294 1295 1296 1297 1298 1299 1300 1301 1302 1303 1304 1305 1306 1307 1308 1309 0
-4 261 1286 1287 1288 1289 1290 1291 1292 1293 1294 1295 1296 1297 1298 1299 1300 1301 1302 1303 1304 1305 1306 1307 1308 1309 0
-5 262 1286 1287 1288 1289 1290 1291 1292 1293 1294 1295 1296 1297 1298 1299 1300 1301 1302 1303 1304 1305 1306 1307 1308 1309 0
-6 263 1286 1287 1288 1289 1290 1291 1292 1293 1294 1295 1296 1297 1298 1299 1300 1301 1302 1303 1304 1305 1306 1307 1308 1309 0
-7 264 1286 1287 1288 1289 1290 1291 1292 1293 1294 1295 1296 1297 1298 1299 1300 1301 1302 1303 1304 1305 1306 1307 1308 1309 0
-8 265 1286 1287 1288 1289 1290 1291 1292 1293 1294 1295 1296 1297 1298 1299 1300 1301 1302 1303 1304 1305 1306 1307 1308 1309 0
-9 266 1286 1287 1288 1289 1290 1291 1292 1293 1294 1295 1296 1297 1298 1299 1300 1301 1302 1303 1304 1305 1306 1307 1308 1309 0
-10 267 1286 1287 1288 1289 1290 1291 1292 1293 1294 1295 1296 1297 1298 1299 1300 1301 1302 1303 1304 1305 1306 1307 1308 1309 0
-60 317 1310 1311 1312 1313 1314 1315 1316 1317 1318 1319 1320 1321 1322 1323 1324 1325 1326 1327 1328 1329 1330 1331 1332 1333 0
-61 318 1310 1311 1312 1313 1314 1315 1316 1317 1318 1319 1320 1321 1322 1323 1324 1325 1326 1327 1328 1329 1330 1331 1332 1333 0
-62 319 1310 1311 1312 1313 1314 1315 1316 1317 1318 1319 1320 1321 1322 1323 1324 1325 1326 1327 1328 1329 1330 1331 1332 1333 0
-63 320 1310 1311 1312 1313 1314 1315 1316 1317 1318 1319 1320 1321 1322 1323 1324 1325 1326 1327 1328 1329 1330 1331 1332 1333 0
-64 321 1310 1311 1312 1313 1314 1315 1316 1317 1318 1319 1320 1321 1322 1323 1324 1325 1326 1327 1328 1329 1330 1331 1332 1333 0
-65 322 1310 1311 1312 1313 1314 1315 1316 1317 1318 1319 1320 1321 1322 1323 1324 1325 1326 1327 1328 1329 1330 1331 1332 1333 0
-66 323 1310 1311 1312 1313 1314 1315 1316 1317 1318 1319 1320 1321 1322 1323 1324 1325 1326 1327 1328 1329 1330 1331 1332 1333 0
-67 324 1310 1311 1312 1313 1314 1315 1316 1317 1318 1319 1320 1321 1322 1323 1324 1325 1326 1327 1328 1329 1330 1331 1332 1333 0
-68 325 1310 1311 1312 1313 1314 1315 1316 1317 1318 1319 1320 1321 1322 1323 1324 1325 1326 1327 1328 1329 1330 1331 1332 1333 0
-69 326 1310 1311 1312 1313 1314 1315 1316 1317 1318 1319 1320 1321 1322 1323 1324 1325 1326 1327 1328 1329 1330 1331 1332 1333 0
-119 376 1334 1335 1336 1337 1338 1339 1340 1341 1342 1343 1344 1345 1346 1347 1348 1349 1350 1351 1352 1353 0
-120 377 1334 1335 1336 1337 1338 1339 1340 1341 1342 1343 1344 1345 1346 1347 1348 1349 1350 1351 1352 1353 0
-121 378 1334 1335 1336 1337 1338 1339 1340 1341 1342 1343 1344 1345 1346 1347 1348 1349 1350 1351 1352 1353 0
-122 379 1334 1335 1336 1337 1338 1339 1340 1341 1342 1343 1344 1345 1346 1347 1348 1349 1350 1351 1352 1353 0
-123 380 1334 1335 1336 1337 1338 1339 1340 1341 1342 1343 1344 1345 1346 1347 1348 1349 1350 1351 1352 1353 0
-124 381 1334 1335 1336 1337 1338 1339 1340 1341 1342 1343 1344 1345 1346 1347 1348 1349 1350 1351 1352 1353 0
-125 382 1334 1335 1336 1337 1338 1339 1340 1341 1342 1343 1344 1345 1346 1347 1348 1349 1350 1351 1352 1353 0
-126 383 1334 1335 1336 1337 1338 1339 1340 1341 1342 1343 1344 1345 1346 1347 1348 1349 1350 1351 1352 1353 0
-127 384 1334 1335 1336 1337 1338 1339 1340 1341 1342 1343 1344 1345 1346 1347 1348 1349 1350 1351 1352 1353 0
-177 434 1354 1355 1356 1357 1358 1359 1360 1361 1362 1363 1364 1365 1366 1367 1368 1369 0
-178 435 1354 1355 1356 1357 1358 1359 1360 1361 1362 1363 1364 1365 1366 1367 1368 1369 0
-179 436 1354 1355 1356 1357 1358 1359 1360 1361 1362 1363 1364 1365 1366 1367 1368 1369 0
-180 437 1354 1355 1356 1357 1358 1359 1360 1361 1362 1363 1364 1365 1366 1367 1368 1369 0
-181 438 1354 1355 1356 1357 1358 1359 1360 1361 1362 1363 1364 1365 1366 1367 1368 1369 0
-182 439 1354 1355 1356 1357 1358 1359 1360 1361 1362 1363 1364 1365 1366 1367 1368 1369 0
-183 440 1354 1355 1356 1357 1358 1359 1360 1361 1362 1363 1364 1365 1366 1367 1368 1369 0
-184 441 1354 1355 1356 1357 1358 1359 1360 1361 1362 1363 1364 1365 1366 1367 1368 1369 0
-1370 -1371 0
-1370 -1372 0
-1370 -1373 0
-1370 -1374 0
-1370 -1375 0
-1370 -1376 0
-1370 -1377 0
-1370 -1378 0
-1370 -1379 0
-1370 -1380 0
-1370 -1381 0
-1370 -1382 0
-1370 -1383 0
-1370 -1384 0
-1370 -1385 0
-1370 -1386 0
-1370 -1387 0
-1370 -1388 0
-1370 -1389 0
-1370 -1390 0
-1370 -1391 0
-1370 -1392 0
-1370 -1393 0
-1370 -1394 0
-1370 -1395 0
-1370 -1396 0
-1370 -1397 0
-1370 -1398 0
-1370 -1399 0
-1370 -1400 0
-1370 -1401 0
-1370 -1402 0
-1370 -1403 0
-1370 -1404 0
-1370 -1405 0
-1370 -1406 0
-1370 -1407 0
-1370 -1408 0
-1370 -1409 0
-1370 -1410 0
-1370 -1411 0
-1370 -1412 0
-1370 -1413 0
-1370 -1414 0
-1370 -1415 0
-1370 -1416 0
-1370 -1417 0
-1370 -1418 0
-1370 -1419 0
-1370 -1420 0
-1370 -1421 0
-1370 -1422 0
-1370 -1423 0
-1370 -1424 0
-1370 -1425 0
-1370 -1426 0
-1370 -1427 0
-1370 -1428 0
-1370 -1429 0
-1370 -1430 0
-1370 -1431 0
-1370 -1432 0
-1370 -1433 0
-1370 -1434 0
-1370 -1435 0
-1370 -1436 0
-1370 -1437 0
-1370 -1438 0
-1370 -1439 0
-1370 -1440 0
-1370 -1441 0
-1370 -1442 0
-1370 -1443 0
-1370 -1444 0
-1370 -1445 0
-1370 -1446 0
-1370 -1447 0
-1370 -1448 0
-1370 -1449 0
-1370 -1450 0
-1370 -1451 0
-1370 -1452 0
-1370 -1453 0
-1371 -1372 0
-1371 -1373 0
-1371 -1374 0
-1371 -1375 0
-1371 -1376 0
-1371 -1377 0
-1371 -1378 0
-1371 -1379 0
-1371 -1380 0
-1371 -1381 0
-1371 -1382 0
-1371 -1383 0
-1371 -1384 0
-1371 -1385 0
-1371 -1386 0
-1371 -1387 0
-1371 -1388 0
-1371 -1389 0
-1371 -1390 0
-1371 -1391 0
-1371 -1392 0
-1371 -1393 0
-1371 -1394 0
-1371 -1395 0
-1371 -1396 0
-1371 -1397 0
-1371 -1398 0
-1371 -1399 0
-1371 -1400 0
-1371 -1401 0
-1371 -1402 0
-1371 -1403 0
-1371 -1404 0
-1371 -1405 0
-1371 -1406 0
-1371 -1407 0
-1371 -1408 0
-1371 -1409 0
-1371 -1410 0
-1371 -1411 0
-1371 -1412 0
-1371 -1413 0
-1371 -1414 0
-1371 -1415 0
-1371 -1416 0
-1371 -1417 0
-1371 -1418 0
-1371 -1419 0
-1371 -1420 0
-1371 -1421 0
-1371 -1422 0
-1371 -1423 0
-1371 -1424 0
-1371 -1425 0
-1371 -1426 0
-1371 -1427 0
-1371 -1428 0
-1371 -1429 0
-1371 -1430 0
-1371 -1431 0
-1371 -1432 0
-1371 -1433 0
-1371 -1434 0
-1371 -1435 0
-1371 -1436 0
-1371 -1437 0
-1371 -1438 0
-1371 -1439 0
-1371 -1440 0
-1371 -1441 0
-1371 -1442 0
-1371 -1443 0
-1371 -1444 0
-1371 -1445 0
-1371 -1446 0
-1371 -1447 0
-1371 -1448 0
-1371 -1449 0
-1371 -1450 0
-1371 -1451 0
-1371 -1452 0
-1371 -1453 0
-1372 -1373 0
-1372 -1374 0
-1372 -1375 0
-1372 -1376 0
-1372 -1377 0
-1372 -1378 0
-1372 -1379 0
-1372 -1380 0
-1372 -1381 0
-1372 -1382 0
-1372 -1383 0
-1372 -1384 0
-1372 -1385 0
-1372 -1386 0
-1372 -1387 0
-1372 -1388 0
-1372 -1389 0
-1372 -1390 0
-1372 -1391 0
-1372 -1392 0
-1372 -1393 0
-1372 -1394 0
-1372 -1395 0
-1372 -1396 0
-1372 -1397 0
-1372 -1398 0
-1372 -1399 0
-1372 -1400 0
-1372 -1401 0
-1372 -1402 0
-1372 -1403 0
-1372 -1404 0
-1372 -1405 0
-1372 -1406 0
-1372 -1407 0
-1372 -1408 0
-1372 -1409 0
-1372 -1410 0
-1372 -1411 0
-1372 -1412 0
-1372 -1413 0
-1372 -1414 0
-1372 -1415 0
-1372 -1416 0
-1372 -1417 0
-1372 -1418 0
-1372 -1419 0
-1372 -1420 0
-1372 -1421 0
-1372 -1422 0
-1372 -1423 0
-1372 -1424 0
-1372 -1425 0
-1372 -1426 0
-1372 -1427 0
-1372 -1428 0
-1372 -1429 0
-1372 -1430 0
-1372 -1431 0
-1372 -1432 0
-1372 -1433 0
-1372 -1434 0
-1372 -1435 0
-1372 -1436 0
-1372 -1437 0
-1372 -1438 0
-1372 -1439 0
-1372 -1440 0
-1372 -1441 0
-1372 -1442 0
-1372 -1443 0
-1372 -1444 0
-1372 -1445 0
-1372 -1446 0
-1372 -1447 0
-1372 -1448 0
-1372 -1449 0
-1372 -1450 0
-1372 -1451 0
-1372 -1452 0
-1372 -1453 0
-1373 -1374 0
-1373 -1375 0
-1373 -1376 0
-1373 -1377 0
-1373 -1378 0
-1373 -1379 0
-1373 -1380 0
-1373 -1381 0
-1373 -1382 0
-1373 -1383 0
-1373 -1384 0
-1373 -1385 0
-1373 -1386 0
-1373 -1387 0
-1373 -1388 0
-1373 -1389 0
-1373 -1390 0
-1373 -1391 0
-1373 -1392 0
-1373 -1393 0
-1373 -1394 0
-1373 -1395 0
-1373 -1396 0
-1373 -1397 0
-1373 -1398 0
-1373 -1399 0
-1373 -1400 0
-1373 -1401 0
-1373 -1402 0
-1373 -1403 0
-1373 -1404 0
-1373 -1405 0
-1373 -1406 0
-1373 -1407 0
-1373 -1408 0
-1373 -1409 0
-1373 -1410 0
-1373 -1411 0
-1373 -1412 0
-1373 -1413 0
-1373 -1414 0
-1373 -1415 0
-1373 -1416 0
-1373 -1417 0
-1373 -1418 0
-1373 -1419 0
-1373 -1420 0
-1373 -1421 0
-1373 -1422 0
-1373 -1423 0
-1373 -1424 0
-1373 -1425 0
-1373 -1426 0
-1373 -1427 0
-1373 -1428 0
-1373 -1429 0
-1373 -1430 0
-1373 -1431 0
-1373 -1432 0
-1373 -1433 0
-1373 -1434 0
-1373 -1435 0
-1373 -1436 0
-1373 -1437 0
-1373 -1438 0
-1373 -1439 0
-1373 -1440 0
-1373 -1441 0
-1373 -1442 0
-1373 -1443 0
-1373 -1444 0
-1373 -1445 0
-1373 -1446 0
-1373 -1447 0
-1373 -1448 0
-1373 -1449 0
-1373 -1450 0
-1373 -1451 0
-1373 -1452 0
-1373 -1453 0
-1374 -1375 0
-1374 -1376 0
-1374 -1377 0
-1374 -1378 0
-1374 -1379 0
-1374 -1380 0
-1374 -1381 0
-1374 -1382 0
-1374 -1383 0
-1374 -1384 0
-1374 -1385 0
-1374 -1386 0
-1374 -1387 0
-1374 -1388 0
-1374 -1389 0
-1374 -1390 0
-1374 -1391 0
-1374 -1392 0
-1374 -1393 0
-1374 -1394 0
-1374 -1395 0
-1374 -1396 0
-1374 -1397 0
-1374 -1398 0
-1374 -1399 0
-1374 -1400 0
-1374 -1401 0
-1374 -1402 0
-1374 -1403 0
-1374 -1404 0
-1374 -1405 0
-1374 -1406 0
-1374 -1407 0
-1374 -1408 0
-1374 -1409 0
-1374 -1410 0
-1374 -1411 0
-1374 -1412 0
-1374 -1413 0
-1374 -1414 0
-1374 -1415 0
-1374 -1416 0
-1374 -1417 0
-1374 -1418 0
-1374 -1419 0
-1374 -1420 0
-1374 -1421 0
-1374 -1422 0
-1374 -1423 0
-1374 -1424 0
-1374 -1425 0
-1374 -1426 0
-1374 -1427 0
-1374 -1428 0
-1374 -1429 0
-1374 -1430 0
-1374 -1431 0
-1374 -1432 0
-1374 -1433 0
-1374 -1434 0
-1374 -1435 0
-1374 -1436 0
-1374 -1437 0
-1374 -1438 0
-1374 -1439 0
-1374 -1440 0
-1374 -1441 0
-1374 -1442 0
-1374 -1443 0
-1374 -1444 0
-1374 -1445 0
-1374 -1446 0
-1374 -1447 0
-1374 -1448 0
-1374 -1449 0
-1374 -1450 0
-1374 -1451 0
-1374 -1452 0
-1374 -1453 0
-1375 -1376 0
-1375 -1377 0
-1375 -1378 0
-1375 -1379 0
-1375 -1380 0
-1375 -1381 0
-1375 -1382 0
-1375 -1383 0
-1375 -1384 0
-1375 -1385 0
-1375 -1386 0
-1375 -1387 0
-1375 -1388 0
-1375 -1389 0
-1375 -1390 0
-1375 -1391 0
-1375 -1392 0
-1375 -1393 0
-1375 -1394 0
-1375 -1395 0
-1375 -1396 0
-1375 -1397 0
-1375 -1398 0
-1375 -1399 0
-1375 -1400 0
-1375 -1401 0
-1375 -1402 0
-1375 -1403 0
-1375 -1404 0
-1375 -1405 0
-1375 -1406 0
-1375 -1407 0
-1375 -1408 0
-1375 -1409 0
-1375 -1410 0
-1375 -1411 0
-1375 -1412 0
-1375 -1413 0
-1375 -1414 0
-1375 -1415 0
-1375 -1416 0
-1375 -1417 0
-1375 -1418 0
-1375 -1419 0
-1375 -1420 0
-1375 -1421 0
-1375 -1422 0
-1375 -1423 0
-1375 -1424 0
-1375 -1425 0
-1375 -1426 0
-1375 -1427 0
-1375 -1428 0
-1375 -1429 0
-1375 -1430 0
-1375 -1431 0
-1375 -1432 0
-1375 -1433 0
-1375 -1434 0
-1375 -1435 0
-1375 -1436 0
-1375 -1437 0
-1375 -1438 0
-1375 -1439 0
-1375 -1440 0
-1375 -1441 0
-1375 -1442 0
-1375 -1443 0
-1375 -1444 0
-1375 -1445 0
-1375 -1446 0
-1375 -1447 0
-1375 -1448 0
-1375 -1449 0
-1375 -1450 0
-1375 -1451 0
-1375 -1452 0
-1375 -1453 0
-1376 -1377 0
-1376 -1378 0
-1376 -1379 0
-1376 -1380 0
-1376 -1381 0
-1376 -1382 0
-1376 -1383 0
-1376 -1384 0
-1376 -1385 0
-1376 -1386 0
-1376 -1387 0
-1376 -1388 0
-1376 -1389 0
-1376 -1390 0
-1376 -1391 0
-1376 -1392 0
-1376 -1393 0
-1376 -1394 0
-1376 -1395 0
-1376 -1396 0
-1376 -1397 0
-1376 -1398 0
-1376 -1399 0
-1376 -1400 0
-1376 -1401 0
-1376 -1402 0
-1376 -1403 0
-1376 -1404 0
-1376 -1405 0
-1376 -1406 0
-1376 -1407 0
-1376 -1408 0
-1376 -1409 0
-1376 -1410 0
-1376 -1411 0
-1376 -1412 0
-1376 -1413 0
-1376 -1414 0
-1376 -1415 0
-1376 -1416 0
-1376 -1417 0
-1376 -1418 0
-1376 -1419 0
-1376 -1420 0
-1376 -1421 0
-1376 -1422 0
-1376 -1423 0
-1376 -1424 0
-1376 -1425 0
-1376 -1426 0
-1376 -1427 0
-1376 -1428 0
-1376 -1429 0
-1376 -1430 0
-1376 -1431 0
-1376 -1432 0
-1376 -1433 0
-1376 -1434 0
-1376 -1435 0
-1376 -1436 0
-1376 -1437 0
-1376 -1438 0
-1376 -1439 0
-1376 -1440 0
-1376 -1441 0
-1376 -1442 0
-1376 -1443 0
-1376 -1444 0
-1376 -1445 0
-1376 -1446 0
-1376 -1447 0
-1376 -1448 0
-1376 -1449 0
-1376 -1450 0
-1376 -1451 0
-1376 -1452 0
-1376 -1453 0
-1377 -1378 0
-1377 -1379 0
-1377 -1380 0
-1377 -1381 0
-1377 -1382 0
-1377 -1383 0
-1377 -1384 0
-1377 -1385 0
-1377 -1386 0
-1377 -1387 0
-1377 -1388 0
-1377 -1389 0
-1377 -1390 0
-1377 -1391 0
-1377 -1392 0
-1377 -1393 0
-1377 -1394 0
-1377 -1395 0
-1377 -1396 0
-1377 -1397 0
-1377 -1398 0
-1377 -1399 0
-1377 -1400 0
-1377 -1401 0
-1377 -1402 0
-1377 -1403 0
-1377 -1404 0
-1377 -1405 0
-1377 -1406 0
-1377 -1407 0
-1377 -1408 0
-1377 -1409 0
-1377 -1410 0
-1377 -1411 0
-1377 -1412 0
-1377 -1413 0
-1377 -1414 0
-1377 -1415 0
-1377 -1416 0
-1377 -1417 0
-1377 -1418 0
-1377 -1419 0
-1377 -1420 0
-1377 -1421 0
-1377 -1422 0
-1377 -1423 0
-1377 -1424 0
-1377 -1425 0
-1377 -1426 0
-1377 -1427 0
-1377 -1428 0
-1377 -1429 0
-1377 -1430 0
-1377 -1431 0
-1377 -1432 0
-1377 -1433 0
-1377 -1434 0
-1377 -1435 0
-1377 -1436 0
-1377 -1437 0
-1377 -1438 0
-1377 -1439 0
-1377 -1440 0
-1377 -1441 0
-1377 -1442 0
-1377 -1443 0
-1377 -1444 0
-1377 -1445 0
-1377 -1446 0
-1377 -1447 0
-1377 -1448 0
-1377 -1449 0
-1377 -1450 0
-1377 -1451 0
-1377 -1452 0
-1377 -1453 0
-1378 -1379 0
-1378 -1380 0
-1378 -1381 0
-1378 -1382 0
-1378 -1383 0
-1378 -1384 0
-1378 -1385 0
-1378 -1386 0
-1378 -1387 0
-1378 -1388 0
-1378 -1389 0
-1378 -1390 0
-1378 -1391 0
-1378 -1392 0
-1378 -1393 0
-1378 -1394 0
-1378 -1395 0
-1378 -1396 0
-1378 -1397 0
-1378 -1398 0
-1378 -1399 0
-1378 -1400 0
-1378 -1401 0
-1378 -1402 0
-1378 -1403 0
-1378 -1404 0
-1378 -1405 0
-1378 -1406 0
-1378 -1407 0
-1378 -1408 0
-1378 -1409 0
-1378 -1410 0
-1378 -1411 0
-1378 -1412 0
-1378 -1413 0
-1378 -1414 0
-1378 -1415 0
-1378 -1416 0
-1378 -1417 0
-1378 -1418 0
-1378 -1419 0
-1378 -1420 0
-1378 -1421 0
-1378 -1422 0
-1378 -1423 0
-1378 -1424 0
-1378 -1425 0
-1378 -1426 0
-1378 -1427 0
-1378 -1428 0
-1378 -1429 0
-1378 -1430 0
-1378 -1431 0
-1378 -1432 0
-1378 -1433 0
-1378 -1434 0
-1378 -1435 0
-1378 -1436 0
-1378 -1437 0
-1378 -1438 0
-1378 -1439 0
-1378 -1440 0
-1378 -1441 0
-1378 -1442 0
-1378 -1443 0
-1378 -1444 0
-1378 -1445 0
-1378 -1446 0
-1378 -1447 0
-1378 -1448 0
-1378 -1449 0
-1378 -1450 0
-1378 -1451 0
-1378 -1452 0
-1378 -1453 0
-1379 -1380 0
-1379 -1381 0
-1379 -1382 0
-1379 -1383 0
-1379 -1384 0
-1379 -1385 0
-1379 -1386 0
-1379 -1387 0
-1379 -1388 0
-1379 -1389 0
-1379 -1390 0
-1379 -1391 0
-1379 -1392 0
-1379 -1393 0
-1379 -1394 0
-1379 -1395 0
-1379 -1396 0
-1379 -1397 0
-1379 -1398 0
-1379 -1399 0
-1379 -1400 0
-1379 -1401 0
-1379 -1402 0
-1379 -1403 0
-1379 -1404 0
-1379 -1405 0
-1379 -1406 0
-1379 -1407 0
-1379 -1408 0
-1379 -1409 0
-1379 -1410 0
-1379 -1411 0
-1379 -1412 0
-1379 -1413 0
-1379 -1414 0
-1379 -1415 0
-1379 -1416 0
-1379 -1417 0
-1379 -1418 0
-1379 -1419 0
-1379 -1420 0
-1379 -1421 0
-1379 -1422 0
-1379 -1423 0
-1379 -1424 0
-1379 -1425 0
-1379 -1426 0
-1379 -1427 0
-1379 -1428 0
-1379 -1429 0
-1379 -1430 0
-1379 -1431 0
-1379 -1432 0
-1379 -1433 0
-1379 -1434 0
-1379 -1435 0
-1379 -1436 0
-1379 -1437 0
-1379 -1438 0
-1379 -1439 0
-1379 -1440 0
-1379 -1441 0
-1379 -1442 0
-1379 -1443 0
-1379 -1444 0
-1379 -1445 0
-1379 -1446 0
-1379 -1447 0
-1379 -1448 0
-1379 -1449 0
-1379 -1450 0
-1379 -1451 0
-1379 -1452 0
-1379 -1453 0
-1380 -1381 0
-1380 -1382 0
-1380 -1383 0
-1380 -1384 0
-1380 -1385 0
-1380 -1386 0
-1380 -1387 0
-1380 -1388 0
-1380 -1389 0
-1380 -1390 0
-1380 -1391 0
-1380 -1392 0
-1380 -1393 0
-1380 -1394 0
-1380 -1395 0
-1380 -1396 0
-1380 -1397 0
-1380 -1398 0
-1380 -1399 0
-1380 -1400 0
-1380 -1401 0
-1380 -1402 0
-1380 -1403 0
-1380 -1404 0
-1380 -1405 0
-1380 -1406 0
-1380 -1407 0
-1380 -1408 0
-1380 -1409 0
-1380 -1410 0
-1380 -1411 0
-1380 -1412 0
-1380 -1413 0
-1380 -1414 0
-1380 -1415 0
-1380 -1416 0
-1380 -1417 0
-1380 -1418 0
-1380 -1419 0
-1380 -1420 0
-1380 -1421 0
-1380 -1422 0
-1380 -1423 0
-1380 -1424 0
-1380 -1425 0
-1380 -1426 0
-1380 -1427 0
-1380 -1428 0
-1380 -1429 0
-1380 -1430 0
-1380 -1431 0
-1380 -1432 0
-1380 -1433 0
-1380 -1434 0
-1380 -1435 0
-1380 -1436 0
-1380 -1437 0
-1380 -1438 0
-1380 -1439 0
-1380 -1440 0
-1380 -1441 0
-1380 -1442 0
-1380 -1443 0
-1380 -1444 0
-1380 -1445 0
-1380 -1446 0
-1380 -1447 0
-1380 -1448 0
-1380 -1449 0
-1380 -1450 0
-1380 -1451 0
-1380 -1452 0
-1380 -1453 0
-1381 -1382 0
-1381 -1383 0
-1381 -1384 0
-1381 -1385 0
-1381 -1386 0
-1381 -1387 0
-1381 -1388 0
-1381 -1389 0
-1381 -1390 0
-1381 -1391 0
-1381 -1392 0
-1381 -1393 0
-1381 -1394 0
-1381 -1395 0
-1381 -1396 0
-1381 -1397 0
-1381 -1398 0
-1381 -1399 0
-1381 -1400 0
-1381 -1401 0
-1381 -1402 0
-1381 -1403 0
-1381 -1404 0
-1381 -1405 0
-1381 -1406 0
-1381 -1407 0
-1381 -1408 0
-1381 -1409 0
-1381 -1410 0
-1381 -1411 0
-1381 -1412 0
-1381 -1413 0
-1381 -1414 0
-1381 -1415 0
-1381 -1416 0
-1381 -1417 0
-1381 -1418 0
-1381 -1419 0
-1381 -1420 0
-1381 -1421 0
-1381 -1422 0
-1381 -1423 0
-1381 -1424 0
-1381 -1425 0
-1381 -1426 0
-1381 -1427 0
-1381 -1428 0
-1381 -1429 0
-1381 -1430 0
-1381 -1431 0
-1381 -1432 0
-1381 -1433 0
-1381 -1434 0
-1381 -1435 0
-1381 -1436 0
-1381 -1437 0
-1381 -1438 0
-1381 -1439 0
-1381 -1440 0
-1381 -1441 0
-1381 -1442 0
-1381 -1443 0
-1381 -1444 0
-1381 -1445 0
-1381 -1446 0
-1381 -1447 0
-1381 -1448 0
-1381 -1449 0
-1381 -1450 0
-1381 -1451 0
-1381 -1452 0
-1381 -1453 0
-1382 -1383 0
-1382 -1384 0
-1382 -1385 0
-1382 -1386 0
-1382 -1387 0
-1382 -1388 0
-1382 -1389 0
-1382 -1390 0
-1382 -1391 0
-1382 -1392 0
-1382 -1393 0
-1382 -1394 0
-1382 -1395 0
-1382 -1396 0
-1382 -1397 0
-1382 -1398 0
-1382 -1399 0
-1382 -1400 0
-1382 -1401 0
-1382 -1402 0
-1382 -1403 0
-1382 -1404 0
-1382 -1405 0
-1382 -1406 0
-1382 -1407 0
-1382 -1408 0
-1382 -1409 0
-1382 -1410 0
-1382 -1411 0
-1382 -1412 0
-1382 -1413 0
-1382 -1414 0
-1382 -1415 0
-1382 -1416 0
-1382 -1417 0
-1382 -1418 0
-1382 -1419 0
-1382 -1420 0
-1382 -1421 0
-1382 -1422 0
-1382 -1423 0
-1382 -1424 0
-1382 -1425 0
-1382 -1426 0
-1382 -1427 0
-1382 -1428 0
-1382 -1429 0
-1382 -1430 0
-1382 -1431 0
-1382 -1432 0
-1382 -1433 0
-1382 -1434 0
-1382 -1435 0
-1382 -1436 0
-1382 -1437 0
-1382 -1438 0
-1382 -1439 0
-1382 -1440 0
-1382 -1441 0
-1382 -1442 0
-1382 -1443 0
-1382 -1444 0
-1382 -1445 0
-1382 -1446 0
-1382 -1447 0
-1382 -1448 0
-1382 -1449 0
-1382 -1450 0
-1382 -1451 0
-1382 -1452 0
-1382 -1453 0
-1383 -1384 0
-1383 -1385 0
-1383 -1386 0
-1383 -1387 0
-1383 -1388 0
-1383 -1389 0
-1383 -1390 0
-1383 -1391 0
-1383 -1392 0
-1383 -1393 0
-1383 -1394 0
-1383 -1395 0
-1383 -1396 0
-1383 -1397 0
-1383 -1398 0
-1383 -1399 0
-1383 -1400 0
-1383 -1401 0
-1383 -1402 0
-1383 -1403 0
-1383 -1404 0
-1383 -1405 0
-1383 -1406 0
-1383 -1407 0
-1383 -1408 0
-1383 -1409 0
-1383 -1410 0
-1383 -1411 0
-1383 -1412 0
-1383 -1413 0
-1383 -1414 0
-1383 -1415 0
-1383 -1416 0
-1383 -1417 0
-1383 -1418 0
-1383 -1419 0
-1383 -1420 0
-1383 -1421 0
-1383 -1422 0
-1383 -1423 0
-1383 -1424 0
-1383 -1425 0
-1383 -1426 0
-1383 -1427 0
-1383 -1428 0
-1383 -1429 0
-1383 -1430 0
-1383 -1431 0
-1383 -1432 0
-1383 -1433 0
-1383 -1434 0
-1383 -1435 0
-1383 -1436 0
-1383 -1437 0
-1383 -1438 0
-1383 -1439 0
-1383 -1440 0
-1383 -1441 0
-1383 -1442 0
-1383 -1443 0
-1383 -1444 0
-1383 -1445 0
-1383 -1446 0
-1383 -1447 0
-1383 -1448 0
-1383 -1449 0
-1383 -1450 0
-1383 -1451 0
-1383 -1452 0
-1383 -1453 0
-1384 -1385 0
-1384 -1386 0
-1384 -1387 0
-1384 -1388 0
-1384 -1389 0
-1384 -1390 0
-1384 -1391 0
-1384 -1392 0
-1384 -1393 0
-1384 -1394 0
-1384 -1395 0
-1384 -1396 0
-1384 -1397 0
-1384 -1398 0
-1384 -1399 0
-1384 -1400 0
-1384 -1401 0
-1384 -1402 0
-1384 -1403 0
-1384 -1404 0
-1384 -1405 0
-1384 -1406 0
-1384 -1407 0
-1384 -1408 0
-1384 -1409 0
-1384 -1410 0
-1384 -1411 0
-1384 -1412 0
-1384 -1413 0
-1384 -1414 0
-1384 -1415 0
-1384 -1416 0
-1384 -1417 0
-1384 -1418 0
-1384 -1419 0
-1384 -1420 0
-1384 -1421 0
-1384 -1422 0
-1384 -1423 0
-1384 -1424 0
-1384 -1425 0
-1384 -1426 0
-1384 -1427 0
-1384 -1428 0
-1384 -1429 0
-1384 -1430 0
-1384 -1431 0
-1384 -1432 0
-1384 -1433 0
-1384 -1434 0
-1384 -1435 0
-1384 -1436 0
-1384 -1437 0
-1384 -1438 0
-1384 -1439 0
-1384 -1440 0
-1384 -1441 0
-1384 -1442 0
-1384 -1443 0
-1384 -1444 0
-1384 -1445 0
-1384 -1446 0
-1384 -1447 0
-1384 -1448 0
-1384 -1449 0
-1384 -1450 0
-1384 -1451 0
-1384 -1452 0
-1384 -1453 0
-1385 -1386 0
-1385 -1387 0
-1385 -1388 0
-1385 -1389 0
-1385 -1390 0
-1385 -1391 0
-1385 -1392 0
-1385 -1393 0
-1385 -1394 0
-1385 -1395 0
-1385 -1396 0
-1385 -1397 0
-1385 -1398 0
-1385 -1399 0
-1385 -1400 0
-1385 -1401 0
-1385 -1402 0
-1385 -1403 0
-1385 -1404 0
-1385 -1405 0
-1385 -1406 0
-1385 -1407 0
-1385 -1408 0
-1385 -1409 0
-1385 -1410 0
-1385 -1411 0
-1385 -1412 0
-1385 -1413 0
-1385 -1414 0
-1385 -1415 0
-1385 -1416 0
-1385 -1417 0
-1385 -1418 0
-1385 -1419 0
-1385 -1420 0
-1385 -1421 0
-1385 -1422 0
-1385 -1423 0
-1385 -1424 0
-1385 -1425 0
-1385 -1426 0
-1385 -1427 0
-1385 -1428 0
-1385 -1429 0
-1385 -1430 0
-1385 -1431 0
-1385 -1432 0
-1385 -1433 0
-1385 -1434 0
-1385 -1435 0
-1385 -1436 0
-1385 -1437 0
-1385 -1438 0
-1385 -1439 0
-1385 -1440 0
-1385 -1441 0
-1385 -1442 0
-1385 -1443 0
-1385 -1444 0
-1385 -1445 0
-1385 -1446 0
-1385 -1447 0
-1385 -1448 0
-1385 -1449 0
-1385 -1450 0
-1385 -1451 0
-1385 -1452 0
-1385 -1453 0
-1386 -1387 0
-1386 -1388 0
-1386 -1389 0
-1386 -1390 0
-1386 -1391 0
-1386 -1392 0
-1386 -1393 0
-1386 -1394 0
-1386 -1395 0
-1386 -1396 0
-1386 -1397 0
-1386 -1398 0
-1386 -1399 0
-1386 -1400 0
-1386 -1401 0
-1386 -1402 0
-1386 -1403 0
-1386 -1404 0
-1386 -1405 0
-1386 -1406 0
-1386 -1407 0
-1386 -1408 0
-1386 -1409 0
-1386 -1410 0
-1386 -1411 0
-1386 -1412 0
-1386 -1413 0
-1386 -1414 0
-1386 -1415 0
-1386 -1416 0
-1386 -1417 0
-1386 -1418 0
-1386 -1419 0
-1386 -1420 0
-1386 -1421 0
-1386 -1422 0
-1386 -1423 0
-1386 -1424 0
-1386 -1425 0
-1386 -1426 0
-1386 -1427 0
-1386 -1428 0
-1386 -1429 0
-1386 -1430 0
-1386 -1431 0
-1386 -1432 0
-1386 -1433 0
-1386 -1434 0
-1386 -1435 0
-1386 -1436 0
-1386 -1437 0
-1386 -1438 0
-1386 -1439 0
-1386 -1440 0
-1386 -1441 0
-1386 -1442 0
-1386 -1443 0
-1386 -1444 0
-1386 -1445 0
-1386 -1446 0
-1386 -1447 0
-1386 -1448 0
-1386 -1449 0
-1386 -1450 0
-1386 -1451 0
-1386 -1452 0
-1386 -1453 0
-1387 -1388 0
-1387 -1389 0
-1387 -1390 0
-1387 -1391 0
-1387 -1392 0
-1387 -1393 0
-1387 -1394 0
-1387 -1395 0
-1387 -1396 0
-1387 -1397 0
-1387 -1398 0
-1387 -1399 0
-1387 -1400 0
-1387 -1401 0
-1387 -1402 0
-1387 -1403 0
-1387 -1404 0
-1387 -1405 0
-1387 -1406 0
-1387 -1407 0
-1387 -1408 0
-1387 -1409 0
-1387 -1410 0
-1387 -1411 0
-1387 -1412 0
-1387 -1413 0
-1387 -1414 0
-1387 -1415 0
-1387 -1416 0
-1387 -1417 0
-1387 -1418 0
-1387 -1419 0
-1387 -1420 0
-1387 -1421 0
-1387 -1422 0
-1387 -1423 0
-1387 -1424 0
-1387 -1425 0
-1387 -1426 0
-1387 -1427 0
-1387 -1428 0
-1387 -1429 0
-1387 -1430 0
-1387 -1431 0
-1387 -1432 0
-1387 -1433 0
-1387 -1434 0
-1387 -1435 0
-1387 -1436 0
-1387 -1437 0
-1387 -1438 0
-1387 -1439 0
-1387 -1440 0
-1387 -1441 0
-1387 -1442 0
-1387 -1443 0
-1387 -1444 0
-1387 -1445 0
-1387 -1446 0
-1387 -1447 0
-1387 -1448 0
-1387 -1449 0
-1387 -1450 0
-1387 -1451 0
-1387 -1452 0
-1387 -1453 0
-1388 -1389 0
-1388 -1390 0
-1388 -1391 0
-1388 -1392 0
-1388 -1393 0
-1388 -1394 0
-1388 -1395 0
-1388 -1396 0
-1388 -1397 0
-1388 -1398 0
-1388 -1399 0
-1388 -1400 0
-1388 -1401 0
-1388 -1402 0
-1388 -1403 0
-1388 -1404 0
-1388 -1405 0
-1388 -1406 0
-1388 -1407 0
-1388 -1408 0
-1388 -1409 0
-1388 -1410 0
-1388 -1411 0
-1388 -1412 0
-1388 -1413 0
-1388 -1414 0
-1388 -1415 0
-1388 -1416 0
-1388 -1417 0
-1388 -1418 0
-1388 -1419 0
-1388 -1420 0
-1388 -1421 0
-1388 -1422 0
-1388 -1423 0
-1388 -1424 0
-1388 -1425 0
-1388 -1426 0
-1388 -1427 0
-1388 -1428 0
-1388 -1429 0
-1388 -1430 0
-1388 -1431 0
-1388 -1432 0
-1388 -1433 0
-1388 -1434 0
-1388 -1435 0
-1388 -1436 0
-1388 -1437 0
-1388 -1438 0
-1388 -1439 0
-1388 -1440 0
-1388 -1441 0
-1388 -1442 0
-1388 -1443 0
-1388 -1444 0
-1388 -1445 0
-1388 -1446 0
-1388 -1447 0
-1388 -1448 0
-1388 -1449 0
-1388 -1450 0
-1388 -1451 0
-1388 -1452 0
-1388 -1453 0
-1389 -1390 0
-1389 -1391 0
-1389 -1392 0
-1389 -1393 0
-1389 -1394 0
-1389 -1395 0
-1389 -1396 0
-1389 -1397 0
-1389 -1398 0
-1389 -1399 0
-1389 -1400 0
-1389 -1401 0
-1389 -1402 0
-1389 -1403 0
-1389 -1404 0
-1389 -1405 0
-1389 -1406 0
-1389 -1407 0
-1389 -1408 0
-1389 -1409 0
-1389 -1410 0
-1389 -1411 0
-1389 -1412 0
-1389 -1413 0
-1389 -1414 0
-1389 -1415 0
-1389 -1416 0
-1389 -1417 0
-1389 -1418 0
-1389 -1419 0
-1389 -1420 0
-1389 -1421 0
-1389 -1422 0
-1389 -1423 0
-1389 -1424 0
-1389 -1425 0
-1389 -1426 0
-1389 -1427 0
-1389 -1428 0
-1389 -1429 0
-1389 -1430 0
-1389 -1431 0
-1389 -1432 0
-1389 -1433 0
-1389 -1434 0
-1389 -1435 0
-1389 -1436 0
-1389 -1437 0
-1389 -1438 0
-1389 -1439 0
-1389 -1440 0
-1389 -1441 0
-1389 -1442 0
-1389 -1443 0
-1389 -1444 0
-1389 -1445 0
-1389 -1446 0
-1389 -1447 0
-1389 -1448 0
-1389 -1449 0
-1389 -1450 0
-1389 -1451 0
-1389 -1452 0
-1389 -1453 0
-1390 -1391 0
-1390 -1392 0
-1390 -1393 0
-1390 -1394 0
-1390 -1395 0
-1390 -1396 0
-1390 -1397 0
-1390 -1398 0
-1390 -1399 0
-1390 -1400 0
-1390 -1401 0
-1390 -1402 0
-1390 -1403 0
-1390 -1404 0
-1390 -1405 0
-1390 -1406 0
-1390 -1407 0
-1390 -1408 0
-1390 -1409 0
-1390 -1410 0
-1390 -1411 0
-1390 -1412 0
-1390 -1413 0
-1390 -1414 0
-1390 -1415 0
-1390 -1416 0
-1390 -1417 0
-1390 -1418 0
-1390 -1419 0
-1390 -1420 0
-1390 -1421 0
-1390 -1422 0
-1390 -1423 0
-1390 -1424 0
-1390 -1425 0
-1390 -1426 0
-1390 -1427 0
-1390 -1428 0
-1390 -1429 0
-1390 -1430 0
-1390 -1431 0
-1390 -1432 0
-1390 -1433 0
-1390 -1434 0
-1390 -1435 0
-1390 -1436 0
-1390 -1437 0
-1390 -1438 0
-1390 -1439 0
-1390 -1440 0
-1390 -1441 0
-1390 -1442 0
-1390 -1443 0
-1390 -1444 0
-1390 -1445 0
-1390 -1446 0
-1390 -1447 0
-1390 -1448 0
-1390 -1449 0
-1390 -1450 0
-1390 -1451 0
-1390 -1452 0
-1390 -1453 0
-1391 -1392 0
-1391 -1393 0
-1391 -1394 0
-1391 -1395 0
-1391 -1396 0
-1391 -1397 0
-1391 -1398 0
-1391 -1399 0
-1391 -1400 0
-1391 -1401 0
-1391 -1402 0
-1391 -1403 0
-1391 -1404 0
-1391 -1405 0
-1391 -1406 0
-1391 -1407 0
-1391 -1408 0
-1391 -1409 0
-1391 -1410 0
-1391 -1411 0
-1391 -1412 0
-1391 -1413 0
-1391 -1414 0
-1391 -1415 0
-1391 -1416 0
-1391 -1417 0
-1391 -1418 0
-1391 -1419 0
-1391 -1420 0
-1391 -1421 0
-1391 -1422 0
-1391 -1423 0
-1391 -1424 0
-1391 -1425 0
-1391 -1426 0
-1391 -1427 0
-1391 -1428 0
-1391 -1429 0
-1391 -1430 0
-1391 -1431 0
-1391 -1432 0
-1391 -1433 0
-1391 -1434 0
-1391 -1435 0
-1391 -1436 0
-1391 -1437 0
-1391 -1438 0
-1391 -1439 0
-1391 -1440 0
-1391 -1441 0
-1391 -1442 0
-1391 -1443 0
-1391 -1444 0
-1391 -1445 0
-1391 -1446 0
-1391 -1447 0
-1391 -1448 0
-1391 -1449 0
-1391 -1450 0
-1391 -1451 0
-1391 -1452 0
-1391 -1453 0
-1392 -1393 0
-1392 -1394 0
-1392 -1395 0
-1392 -1396 0
-1392 -1397 0
-1392 -1398 0
-1392 -1399 0
-1392 -1400 0
-1392 -1401 0
-1392 -1402 0
-1392 -1403 0
-1392 -1404 0
-1392 -1405 0
-1392 -1406 0
-1392 -1407 0
-1392 -1408 0
-1392 -1409 0
-1392 -1410 0
-1392 -1411 0
-1392 -1412 0
-1392 -1413 0
-1392 -1414 0
-1392 -1415 0
-1392 -1416 0
-1392 -1417 0
-1392 -1418 0
-1392 -1419 0
-1392 -1420 0
-1392 -1421 0
-1392 -1422 0
-1392 -1423 0
-1392 -1424 0
-1392 -1425 0
-1392 -1426 0
-1392 -1427 0
-1392 -1428 0
-1392 -1429 0
-1392 -1430 0
-1392 -1431 0
-1392 -1432 0
-1392 -1433 0
-1392 -1434 0
-1392 -1435 0
-1392 -1436 0
-1392 -1437 0
-1392 -1438 0
-1392 -1439 0
-1392 -1440 0
-1392 -1441 0
-1392 -1442 0
-1392 -1443 0
-1392 -1444 0
-1392 -1445 0
-1392 -1446 0
-1392 -1447 0
-1392 -1448 0
-1392 -1449 0
-1392 -1450 0
-1392 -1451 0
-1392 -1452 0
-1392 -1453 0
-1393 -1394 0
-1393 -1395 0
-1393 -1396 0
-1393 -1397 0
-1393 -1398 0
-1393 -1399 0
-1393 -1400 0
-1393 -1401 0
-1393 -1402 0
-1393 -1403 0
-1393 -1404 0
-1393 -1405 0
-1393 -1406 0
-1393 -1407 0
-1393 -1408 0
-1393 -1409 0
-1393 -1410 0
-1393 -1411 0
-1393 -1412 0
-1393 -1413 0
-1393 -1414 0
-1393 -1415 0
-1393 -1416 0
-1393 -1417 0
-1393 -1418 0
-1393 -1419 0
-1393 -1420 0
-1393 -1421 0
-1393 -1422 0
-1393 -1423 0
-1393 -1424 0
-1393 -1425 0
-1393 -1426 0
-1393 -1427 0
-1393 -1428 0
-1393 -1429 0
-1393 -1430 0
-1393 -1431 0
-1393 -1432 0
-1393 -1433 0
-1393 -1434 0
-1393 -1435 0
-1393 -1436 0
-1393 -1437 0
-1393 -1438 0
-1393 -1439 0
-1393 -1440 0
-1393 -1441 0
-1393 -1442 0
-1393 -1443 0
-1393 -1444 0
-1393 -1445 0
-1393 -1446 0
-1393 -1447 0
-1393 -1448 0
-1393 -1449 0
-1393 -1450 0
-1393 -1451 0
-1393 -1452 0
-1393 -1453 0
-1394 -1395 0
-1394 -1396 0
-1394 -1397 0
-1394 -1398 0
-1394 -1399 0
-1394 -1400 0
-1394 -1401 0
-1394 -1402 0
-1394 -1403 0
-1394 -1404 0
-1394 -1405 0
-1394 -1406 0
-1394 -1407 0
-1394 -1408 0
-1394 -1409 0
-1394 -1410 0
-1394 -1411 0
-1394 -1412 0
-1394 -1413 0
-1394 -1414 0
-1394 -1415 0
-1394 -1416 0
-1394 -1417 0
-1394 -1418 0
-1394 -1419 0
-1394 -1420 0
-1394 -1421 0
-1394 -1422 0
-1394 -1423 0
-1394 -1424 0
-1394 -1425 0
-1394 -1426 0
-1394 -1427 0
-1394 -1428 0
-1394 -1429 0
-1394 -1430 0
-1394 -1431 0
-1394 -1432 0
-1394 -1433 0
-1394 -1434 0
-1394 -1435 0
-1394 -1436 0
-1394 -1437 0
-1394 -1438 0
-1394 -1439 0
-1394 -1440 0
-1394 -1441 0
-1394 -1442 0
-1394 -1443 0
-1394 -1444 0
-1394 -1445 0
-1394 -1446 0
-1394 -1447 0
-1394 -1448 0
-1394 -1449 0
-1394 -1450 0
-1394 -1451 0
-1394 -1452 0
-1394 -1453 0
-1395 -1396 0
-1395 -1397 0
-1395 -1398 0
-1395 -1399 0
-1395 -1400 0
-1395 -1401 0
-1395 -1402 0
-1395 -1403 0
-1395 -1404 0
-1395 -1405 0
-1395 -1406 0
-1395 -1407 0
-1395 -1408 0
-1395 -1409 0
-1395 -1410 0
-1395 -1411 0
-1395 -1412 0
-1395 -1413 0
-1395 -1414 0
-1395 -1415 0
-1395 -1416 0
-1395 -1417 0
-1395 -1418 0
-1395 -1419 0
-1395 -1420 0
-1395 -1421 0
-1395 -1422 0
-1395 -1423 0
-1395 -1424 0
-1395 -1425 0
-1395 -1426 0
-1395 -1427 0
-1395 -1428 0
-1395 -1429 0
-1395 -1430 0
-1395 -1431 0
-1395 -1432 0
-1395 -1433 0
-1395 -1434 0
-1395 -1435 0
-1395 -1436 0
-1395 -1437 0
-1395 -1438 0
-1395 -1439 0
-1395 -1440 0
-1395 -1441 0
-1395 -1442 0
-1395 -1443 0
-1395 -1444 0
-1395 -1445 0
-1395 -1446 0
-1395 -1447 0
-1395 -1448 0
-1395 -1449 0
-1395 -1450 0
-1395 -1451 0
-1395 -1452 0
-1395 -1453 0
-1396 -1397 0
-1396 -1398 0
-1396 -1399 0
-1396 -1400 0
-1396 -1401 0
-1396 -1402 0
-1396 -1403 0
-1396 -1404 0
-1396 -1405 0
-1396 -1406 0
-1396 -1407 0
-1396 -1408 0
-1396 -1409 0
-1396 -1410 0
-1396 -1411 0
-1396 -1412 0
-1396 -1413 0
-1396 -1414 0
-1396 -1415 0
-1396 -1416 0
-1396 -1417 0
-1396 -1418 0
-1396 -1419 0
-1396 -1420 0
-1396 -1421 0
-1396 -1422 0
-1396 -1423 0
-1396 -1424 0
-1396 -1425 0
-1396 -1426 0
-1396 -1427 0
-1396 -1428 0
-1396 -1429 0
-1396 -1430 0
-1396 -1431 0
-1396 -1432 0
-1396 -1433 0
-1396 -1434 0
-1396 -1435 0
-1396 -1436 0
-1396 -1437 0
-1396 -1438 0
-1396 -1439 0
-1396 -1440 0
-1396 -1441 0
-1396 -1442 0
-1396 -1443 0
-1396 -1444 0
-1396 -1445 0
-1396 -1446 0
-1396 -1447 0
-1396 -1448 0
-1396 -1449 0
-1396 -1450 0
-1396 -1451 0
-1396 -1452 0
-1396 -1453 0
-1397 -1398 0
-1397 -1399 0
-1397 -1400 0
-1397 -1401 0
-1397 -1402 0
-1397 -1403 0
-1397 -1404 0
-1397 -1405 0
-1397 -1406 0
-1397 -1407 0
-1397 -1408 0
-1397 -1409 0
-1397 -1410 0
-1397 -1411 0
-1397 -1412 0
-1397 -1413 0
-1397 -1414 0
-1397 -1415 0
-1397 -1416 0
-1397 -1417 0
-1397 -1418 0
-1397 -1419 0
-1397 -1420 0
-1397 -1421 0
-1397 -1422 0
-1397 -1423 0
-1397 -1424 0
-1397 -1425 0
-1397 -1426 0
-1397 -1427 0
-1397 -1428 0
-1397 -1429 0
-1397 -1430 0
-1397 -1431 0
-1397 -1432 0
-1397 -1433 0
-1397 -1434 0
-1397 -1435 0
-1397 -1436 0
-1397 -1437 0
-1397 -1438 0
-1397 -1439 0
-1397 -1440 0
-1397 -1441 0
-1397 -1442 0
-1397 -1443 0
-1397 -1444 0
-1397 -1445 0
-1397 -1446 0
-1397 -1447 0
-1397 -1448 0
-1397 -1449 0
-1397 -1450 0
-1397 -1451 0
-1397 -1452 0
-1397 -1453 0
-1398 -1399 0
-1398 -1400 0
-1398 -1401 0
-1398 -1402 0
-1398 -1403 0
-1398 -1404 0
-1398 -1405 0
-1398 -1406 0
-1398 -1407 0
-1398 -1408 0
-1398 -1409 0
-1398 -1410 0
-1398 -1411 0
-1398 -1412 0
-1398 -1413 0
-1398 -1414 0
-1398 -1415 0
-1398 -1416 0
-1398 -1417 0
-1398 -1418 0
-1398 -1419 0
-1398 -1420 0
-1398 -1421 0
-1398 -1422 0
-1398 -1423 0
-1398 -1424 0
-1398 -1425 0
-1398 -1426 0
-1398 -1427 0
-1398 -1428 0
-1398 -1429 0
-1398 -1430 0
-1398 -1431 0
-1398 -1432 0
-1398 -1433 0
-1398 -1434 0
-1398 -1435 0
-1398 -1436 0
-1398 -1437 0
-1398 -1438 0
-1398 -1439 0
-1398 -1440 0
-1398 -1441 0
-1398 -1442 0
-1398 -1443 0
-1398 -1444 0
-1398 -1445 0
-1398 -1446 0
-1398 -1447 0
-1398 -1448 0
-1398 -1449 0
-1398 -1450 0
-1398 -1451 0
-1398 -1452 0
-1398 -1453 0
-1399 -1400 0
-1399 -1401 0
-1399 -1402 0
-1399 -1403 0
-1399 -1404 0
-1399 -1405 0
-1399 -1406 0
-1399 -1407 0
-1399 -1408 0
-1399 -1409 0
-1399 -1410 0
-1399 -1411 0
-1399 -1412 0
-1399 -1413 0
-1399 -1414 0
-1399 -1415 0
-1399 -1416 0
-1399 -1417 0
-1399 -1418 0
-1399 -1419 0
-1399 -1420 0
-1399 -1421 0
-1399 -1422 0
-1399 -1423 0
-1399 -1424 0
-1399 -1425 0
-1399 -1426 0
-1399 -1427 0
-1399 -1428 0
-1399 -1429 0
-1399 -1430 0
-1399 -1431 0
-1399 -1432 0
-1399 -1433 0
-1399 -1434 0
-1399 -1435 0
-1399 -1436 0
-1399 -1437 0
-1399 -1438 0
-1399 -1439 0
-1399 -1440 0
-1399 -1441 0
-1399 -1442 0
-1399 -1443 0
-1399 -1444 0
-1399 -1445 0
-1399 -1446 0
-1399 -1447 0
-1399 -1448 0
-1399 -1449 0
-1399 -1450 0
-1399 -1451 0
-1399 -1452 0
-1399 -1453 0
-1400 -1401 0
-1400 -1402 0
-1400 -1403 0
-1400 -1404 0
-1400 -1405 0
-1400 -1406 0
-1400 -1407 0
-1400 -1408 0
-1400 -1409 0
-1400 -1410 0
-1400 -1411 0
-1400 -1412 0
-1400 -1413 0
-1400 -1414 0
-1400 -1415 0
-1400 -1416 0
-1400 -1417 0
-1400 -1418 0
-1400 -1419 0
-1400 -1420 0
-1400 -1421 0
-1400 -1422 0
-1400 -1423 0
-1400 -1424 0
-1400 -1425 0
-1400 -1426 0
-1400 -1427 0
-1400 -1428 0
-1400 -1429 0
-1400 -1430 0
-1400 -1431 0
-1400 -1432 0
-1400 -1433 0
-1400 -1434 0
-1400 -1435 0
-1400 -1436 0
-1400 -1437 0
-1400 -1438 0
-1400 -1439 0
-1400 -1440 0
-1400 -1441 0
-1400 -1442 0
-1400 -1443 0
-1400 -1444 0
-1400 -1445 0
-1400 -1446 0
-1400 -1447 0
-1400 -1448 0
-1400 -1449 0
-1400 -1450 0
-1400 -1451 0
-1400 -1452 0
-1400 -1453 0
-1401 -1402 0
-1401 -1403 0
-1401 -1404 0
-1401 -1405 0
-1401 -1406 0
-1401 -1407 0
-1401 -1408 0
-1401 -1409 0
-1401 -1410 0
-1401 -1411 0
-1401 -1412 0
-1401 -1413 0
-1401 -1414 0
-1401 -1415 0
-1401 -1416 0
-1401 -1417 0
-1401 -1418 0
-1401 -1419 0
-1401 -1420 0
-1401 -1421 0
-1401 -1422 0
-1401 -1423 0
-1401 -1424 0
-1401 -1425 0
-1401 -1426 0
-1401 -1427 0
-1401 -1428 0
-1401 -1429 0
-1401 -1430 0
-1401 -1431 0
-1401 -1432 0
-1401 -1433 0
-1401 -1434 0
-1401 -1435 0
-1401 -1436 0
-1401 -1437 0
-1401 -1438 0
-1401 -1439 0
-1401 -1440 0
-1401 -1441 0
-1401 -1442 0
-1401 -1443 0
-1401 -1444 0
-1401 -1445 0
-1401 -1446 0
-1401 -1447 0
-1401 -1448 0
-1401 -1449 0
-1401 -1450 0
-1401 -1451 0
-1401 -1452 0
-1401 -1453 0
-1402 -1403 0
-1402 -1404 0
-1402 -1405 0
-1402 -1406 0
-1402 -1407 0
-1402 -1408 0
-1402 -1409 0
-1402 -1410 0
-1402 -1411 0
-1402 -1412 0
-1402 -1413 0
-1402 -1414 0
-1402 -1415 0
-1402 -1416 0
-1402 -1417 0
-1402 -1418 0
-1402 -1419 0
-1402 -1420 0
-1402 -1421 0
-1402 -1422 0
-1402 -1423 0
-1402 -1424 0
-1402 -1425 0
-1402 -1426 0
-1402 -1427 0
-1402 -1428 0
-1402 -1429 0
-1402 -1430 0
-1402 -1431 0
-1402 -1432 0
-1402 -1433 0
-1402 -1434 0
-1402 -1435 0
-1402 -1436 0
-1402 -1437 0
-1402 -1438 0
-1402 -1439 0
-1402 -1440 0
-1402 -1441 0
-1402 -1442 0
-1402 -1443 0
-1402 -1444 0
-1402 -1445 0
-1402 -1446 0
-1402 -1447 0
-1402 -1448 0
-1402 -1449 0
-1402 -1450 0
-1402 -1451 0
-1402 -1452 0
-1402 -1453 0
-1403 -1404 0
-1403 -1405 0
-1403 -1406 0
-1403 -1407 0
-1403 -1408 0
-1403 -1409 0
-1403 -1410 0
-1403 -1411 0
-1403 -1412 0
-1403 -1413 0
-1403 -1414 0
-1403 -1415 0
-1403 -1416 0
-1403 -1417 0
-1403 -1418 0
-1403 -1419 0
-1403 -1420 0
-1403 -1421 0
-1403 -1422 0
-1403 -1423 0
-1403 -1424 0
-1403 -1425 0
-1403 -1426 0
-1403 -1427 0
-1403 -1428 0
-1403 -1429 0
-1403 -1430 0
-1403 -1431 0
-1403 -1432 0
-1403 -1433 0
-1403 -1434 0
-1403 -1435 0
-1403 -1436 0
-1403 -1437 0
-1403 -1438 0
-1403 -1439 0
-1403 -1440 0
-1403 -1441 0
-1403 -1442 0
-1403 -1443 0
-1403 -1444 0
-1403 -1445 0
-1403 -1446 0
-1403 -1447 0
-1403 -1448 0
-1403 -1449 0
-1403 -1450 0
-1403 -1451 0
-1403 -1452 0
-1403 -1453 0
-1404 -1405 0
-1404 -1406 0
-1404 -1407 0
-1404 -1408 0
-1404 -1409 0
-1404 -1410 0
-1404 -1411 0
-1404 -1412 0
-1404 -1413 0
-1404 -1414 0
-1404 -1415 0
-1404 -1416 0
-1404 -1417 0
-1404 -1418 0
-1404 -1419 0
-1404 -1420 0
-1404 -1421 0
-1404 -1422 0
-1404 -1423 0
-1404 -1424 0
-1404 -1425 0
-1404 -1426 0
-1404 -1427 0
-1404 -1428 0
-1404 -1429 0
-1404 -1430 0
-1404 -1431 0
-1404 -1432 0
-1404 -1433 0
-1404 -1434 0
-1404 -1435 0
-1404 -1436 0
-1404 -1437 0
-1404 -1438 0
-1404 -1439 0
-1404 -1440 0
-1404 -1441 0
-1404 -1442 0
-1404 -1443 0
-1404 -1444 0
-1404 -1445 0
-1404 -1446 0
-1404 -1447 0
-1404 -1448 0
-1404 -1449 0
-1404 -1450 0
-1404 -1451 0
-1404 -1452 0
-1404 -1453 0
-1405 -1406 0
-1405 -1407 0
-1405 -1408 0
-1405 -1409 0
-1405 -1410 0
-1405 -1411 0
-1405 -1412 0
-1405 -1413 0
-1405 -1414 0
-1405 -1415 0
-1405 -1416 0
-1405 -1417 0
-1405 -1418 0
-1405 -1419 0
-1405 -1420 0
-1405 -1421 0
-1405 -1422 0
-1405 -1423 0
-1405 -1424 0
-1405 -1425 0
-1405 -1426 0
-1405 -1427 0
-1405 -1428 0
-1405 -1429 0
-1405 -1430 0
-1405 -1431 0
-1405 -1432 0
-1405 -1433 0
-1405 -1434 0
-1405 -1435 0
-1405 -1436 0
-1405 -1437 0
-1405 -1438 0
-1405 -1439 0
-1405 -1440 0
-1405 -1441 0
-1405 -1442 0
-1405 -1443 0
-1405 -1444 0
-1405 -1445 0
-1405 -1446 0
-1405 -1447 0
-1405 -1448 0
-1405 -1449 0
-1405 -1450 0
-1405 -1451 0
-1405 -1452 0
-1405 -1453 0
-1406 -1407 0
-1406 -1408 0
-1406 -1409 0
-1406 -1410 0
-1406 -1411 0
-1406 -1412 0
-1406 -1413 0
-1406 -1414 0
-1406 -1415 0
-1406 -1416 0
-1406 -1417 0
-1406 -1418 0
-1406 -1419 0
-1406 -1420 0
-1406 -1421 0
-1406 -1422 0
-1406 -1423 0
-1406 -1424 0
-1406 -1425 0
-1406 -1426 0
-1406 -1427 0
-1406 -1428 0
-1406 -1429 0
-1406 -1430 0
-1406 -1431 0
-1406 -1432 0
-1406 -1433 0
-1406 -1434 0
-1406 -1435 0
-1406 -1436 0
-1406 -1437 0
-1406 -1438 0
-1406 -1439 0
-1406 -1440 0
-1406 -1441 0
-1406 -1442 0
-1406 -1443 0
-1406 -1444 0
-1406 -1445 0
-1406 -1446 0
-1406 -1447 0
-1406 -1448 0
-1406 -1449 0
-1406 -1450 0
-1406 -1451 0
-1406 -1452 0
-1406 -1453 0
-1407 -1408 0
-1407 -1409 0
-1407 -1410 0
-1407 -1411 0
-1407 -1412 0
-1407 -1413 0
-1407 -1414 0
-1407 -1415 0
-1407 -1416 0
-1407 -1417 0
-1407 -1418 0
-1407 -1419 0
-1407 -1420 0
-1407 -1421 0
-1407 -1422 0
-1407 -1423 0
-1407 -1424 0
-1407 -1425 0
-1407 -1426 0
-1407 -1427 0
-1407 -1428 0
-1407 -1429 0
-1407 -1430 0
-1407 -1431 0
-1407 -1432 0
-1407 -1433 0
-1407 -1434 0
-1407 -1435 0
-1407 -1436 0
-1407 -1437 0
-1407 -1438 0
-1407 -1439 0
-1407 -1440 0
-1407 -1441 0
-1407 -1442 0
-1407 -1443 0
-1407 -1444 0
-1407 -1445 0
-1407 -1446 0
-1407 -1447 0
-1407 -1448 0
-1407 -1449 0
-1407 -1450 0
-1407 -1451 0
-1407 -1452 0
-1407 -1453 0
-1408 -1409 0
-1408 -1410 0
-1408 -1411 0
-1408 -1412 0
-1408 -1413 0
-1408 -1414 0
-1408 -1415 0
-1408 -1416 0
-1408 -1417 0
-1408 -1418 0
-1408 -1419 0
-1408 -1420 0
-1408 -1421 0
-1408 -1422 0
-1408 -1423 0
-1408 -1424 0
-1408 -1425 0
-1408 -1426 0
-1408 -1427 0
-1408 -1428 0
-1408 -1429 0
-1408 -1430 0
-1408 -1431 0
-1408 -1432 0
-1408 -1433 0
-1408 -1434 0
-1408 -1435 0
-1408 -1436 0
-1408 -1437 0
-1408 -1438 0
-1408 -1439 0
-1408 -1440 0
-1408 -1441 0
-1408 -1442 0
-1408 -1443 0
-1408 -1444 0
-1408 -1445 0
-1408 -1446 0
-1408 -1447 0
-1408 -1448 0
-1408 -1449 0
-1408 -1450 0
-1408 -1451 0
-1408 -1452 0
-1408 -1453 0
-1409 -1410 0
-1409 -1411 0
-1409 -1412 0
-1409 -1413 0
-1409 -1414 0
-1409 -1415 0
-1409 -1416 0
-1409 -1417 0
-1409 -1418 0
-1409 -1419 0
-1409 -1420 0
-1409 -1421 0
-1409 -1422 0
-1409 -1423 0
-1409 -1424 0
-1409 -1425 0
-1409 -1426 0
-1409 -1427 0
-1409 -1428 0
-1409 -1429 0
-1409 -1430 0
-1409 -1431 0
-1409 -1432 0
-1409 -1433 0
-1409 -1434 0
-1409 -1435 0
-1409 -1436 0
-1409 -1437 0
-1409 -1438 0
-1409 -1439 0
-1409 -1440 0
-1409 -1441 0
-1409 -1442 0
-1409 -1443 0
-1409 -1444 0
-1409 -1445 0
-1409 -1446 0
-1409 -1447 0
-1409 -1448 0
-1409 -1449 0
-1409 -1450 0
-1409 -1451 0
-1409 -1452 0
-1409 -1453 0
-1410 -1411 0
-1410 -1412 0
-1410 -1413 0
-1410 -1414 0
-1410 -1415 0
-1410 -1416 0
-1410 -1417 0
-1410 -1418 0
-1410 -1419 0
-1410 -1420 0
-1410 -1421 0
-1410 -1422 0
-1410 -1423 0
-1410 -1424 0
-1410 -1425 0
-1410 -1426 0
-1410 -1427 0
-1410 -1428 0
-1410 -1429 0
-1410 -1430 0
-1410 -1431 0
-1410 -1432 0
-1410 -1433 0
-1410 -1434 0
-1410 -1435 0
-1410 -1436 0
-1410 -1437 0
-1410 -1438 0
-1410 -1439 0
-1410 -1440 0
-1410 -1441 0
-1410 -1442 0
-1410 -1443 0
-1410 -1444 0
-1410 -1445 0
-1410 -1446 0
-1410 -1447 0
-1410 -1448 0
-1410 -1449 0
-1410 -1450 0
-1410 -1451 0
-1410 -1452 0
-1410 -1453 0
-1411 -1412 0
-1411 -1413 0
-1411 -1414 0
-1411 -1415 0
-1411 -1416 0
-1411 -1417 0
-1411 -1418 0
-1411 -1419 0
-1411 -1420 0
-1411 -1421 0
-1411 -1422 0
-1411 -1423 0
-1411 -1424 0
-1411 -1425 0
-1411 -1426 0
-1411 -1427 0
-1411 -1428 0
-1411 -1429 0
-1411 -1430 0
-1411 -1431 0
-1411 -1432 0
-1411 -1433 0
-1411 -1434 0
-1411 -1435 0
-1411 -1436 0
-1411 -1437 0
-1411 -1438 0
-1411 -1439 0
-1411 -1440 0
-1411 -1441 0
-1411 -1442 0
-1411 -1443 0
-1411 -1444 0
-1411 -1445 0
-1411 -1446 0
-1411 -1447 0
-1411 -1448 0
-1411 -1449 0
-1411 -1450 0
-1411 -1451 0
-1411 -1452 0
-1411 -1453 0
-1412 -1413 0
-1412 -1414 0
-1412 -1415 0
-1412 -1416 0
-1412 -1417 0
-1412 -1418 0
-1412 -1419 0
-1412 -1420 0
-1412 -1421 0
-1412 -1422 0
-1412 -1423 0
-1412 -1424 0
-1412 -1425 0
-1412 -1426 0
-1412 -1427 0
-1412 -1428 0
-1412 -1429 0
-1412 -1430 0
-1412 -1431 0
-1412 -1432 0
-1412 -1433 0
-1412 -1434 0
-1412 -1435 0
-1412 -1436 0
-1412 -1437 0
-1412 -1438 0
-1412 -1439 0
-1412 -1440 0
-1412 -1441 0
-1412 -1442 0
-1412 -1443 0
-1412 -1444 0
-1412 -1445 0
-1412 -1446 0
-1412 -1447 0
-1412 -1448 0
-1412 -1449 0
-1412 -1450 0
-1412 -1451 0
-1412 -1452 0
-1412 -1453 0
-1413 -1414 0
-1413 -1415 0
-1413 -1416 0
-1413 -1417 0
-1413 -1418 0
-1413 -1419 0
-1413 -1420 0
-1413 -1421 0
-1413 -1422 0
-1413 -1423 0
-1413 -1424 0
-1413 -1425 0
-1413 -1426 0
-1413 -1427 0
-1413 -1428 0
-1413 -1429 0
-1413 -1430 0
-1413 -1431 0
-1413 -1432 0
-1413 -1433 0
-1413 -1434 0
-1413 -1435 0
-1413 -1436 0
-1413 -1437 0
-1413 -1438 0
-1413 -1439 0
-1413 -1440 0
-1413 -1441 0
-1413 -1442 0
-1413 -1443 0
-1413 -1444 0
-1413 -1445 0
-1413 -1446 0
-1413 -1447 0
-1413 -1448 0
-1413 -1449 0
-1413 -1450 0
-1413 -1451 0
-1413 -1452 0
-1413 -1453 0
-1414 -1415 0
-1414 -1416 0
-1414 -1417 0
-1414 -1418 0
-1414 -1419 0
-1414 -1420 0
-1414 -1421 0
-1414 -1422 0
-1414 -1423 0
-1414 -1424 0
-1414 -1425 0
-1414 -1426 0
-1414 -1427 0
-1414 -1428 0
-1414 -1429 0
-1414 -1430 0
-1414 -1431 0
-1414 -1432 0
-1414 -1433 0
-1414 -1434 0
-1414 -1435 0
-1414 -1436 0
-1414 -1437 0
-1414 -1438 0
-1414 -1439 0
-1414 -1440 0
-1414 -1441 0
-1414 -1442 0
-1414 -1443 0
-1414 -1444 0
-1414 -1445 0
-1414 -1446 0
-1414 -1447 0
-1414 -1448 0
-1414 -1449 0
-1414 -1450 0
-1414 -1451 0
-1414 -1452 0
-1414 -1453 0
-1415 -1416 0
-1415 -1417 0
-1415 -1418 0
-1415 -1419 0
-1415 -1420 0
-1415 -1421 0
-1415 -1422 0
-1415 -1423 0
-1415 -1424 0
-1415 -1425 0
-1415 -1426 0
-1415 -1427 0
-1415 -1428 0
-1415 -1429 0
-1415 -1430 0
-1415 -1431 0
-1415 -1432 0
-1415 -1433 0
-1415 -1434 0
-1415 -1435 0
-1415 -1436 0
-1415 -1437 0
-1415 -1438 0
-1415 -1439 0
-1415 -1440 0
-1415 -1441 0
-1415 -1442 0
-1415 -1443 0
-1415 -1444 0
-1415 -1445 0
-1415 -1446 0
-1415 -1447 0
-1415 -1448 0
-1415 -1449 0
-1415 -1450 0
-1415 -1451 0
-1415 -1452 0
-1415 -1453 0
-1416 -1417 0
-1416 -1418 0
-1416 -1419 0
-1416 -1420 0
-1416 -1421 0
-1416 -1422 0
-1416 -1423 0
-1416 -1424 0
-1416 -1425 0
-1416 -1426 0
-1416 -1427 0
-1416 -1428 0
-1416 -1429 0
-1416 -1430 0
-1416 -1431 0
-1416 -1432 0
-1416 -1433 0
-1416 -1434 0
-1416 -1435 0
-1416 -1436 0
-1416 -1437 0
-1416 -1438 0
-1416 -1439 0
-1416 -1440 0
-1416 -1441 0
-1416 -1442 0
-1416 -1443 0
-1416 -1444 0
-1416 -1445 0
-1416 -1446 0
-1416 -1447 0
-1416 -1448 0
-1416 -1449 0
-1416 -1450 0
-1416 -1451 0
-1416 -1452 0
-1416 -1453 0
-1417 -1418 0
-1417 -1419 0
-1417 -1420 0
-1417 -1421 0
-1417 -1422 0
-1417 -1423 0
-1417 -1424 0
-1417 -1425 0
-1417 -1426 0
-1417 -1427 0
-1417 -1428 0
-1417 -1429 0
-1417 -1430 0
-1417 -1431 0
-1417 -1432 0
-1417 -1433 0
-1417 -1434 0
-1417 -1435 0
-1417 -1436 0
-1417 -1437 0
-1417 -1438 0
-1417 -1439 0
-1417 -1440 0
-1417 -1441 0
-1417 -1442 0
-1417 -1443 0
-1417 -1444 0
-1417 -1445 0
-1417 -1446 0
-1417 -1447 0
-1417 -1448 0
-1417 -1449 0
-1417 -1450 0
-1417 -1451 0
-1417 -1452 0
-1417 -1453 0
-1418 -1419 0
-1418 -1420 0
-1418 -1421 0
-1418 -1422 0
-1418 -1423 0
-1418 -1424 0
-1418 -1425 0
-1418 -1426 0
-1418 -1427 0
-1418 -1428 0
-1418 -1429 0
-1418 -1430 0
-1418 -1431 0
-1418 -1432 0
-1418 -1433 0
-1418 -1434 0
-1418 -1435 0
-1418 -1436 0
-1418 -1437 0
-1418 -1438 0
-1418 -1439 0
-1418 -1440 0
-1418 -1441 0
-1418 -1442 0
-1418 -1443 0
-1418 -1444 0
-1418 -1445 0
-1418 -1446 0
-1418 -1447 0
-1418 -1448 0
-1418 -1449 0
-1418 -1450 0
-1418 -1451 0
-1418 -1452 0
-1418 -1453 0
-1419 -1420 0
-1419 -1421 0
-1419 -1422 0
-1419 -1423 0
-1419 -1424 0
-1419 -1425 0
-1419 -1426 0
-1419 -1427 0
-1419 -1428 0
-1419 -1429 0
-1419 -1430 0
-1419 -1431 0
-1419 -1432 0
-1419 -1433 0
-1419 -1434 0
-1419 -1435 0
-1419 -1436 0
-1419 -1437 0
-1419 -1438 0
-1419 -1439 0
-1419 -1440 0
-1419 -1441 0
-1419 -1442 0
-1419 -1443 0
-1419 -1444 0
-1419 -1445 0
-1419 -1446 0
-1419 -1447 0
-1419 -1448 0
-1419 -1449 0
-1419 -1450 0
-1419 -1451 0
-1419 -1452 0
-1419 -1453 0
-1420 -1421 0
-1420 -1422 0
-1420 -1423 0
-1420 -1424 0
-1420 -1425 0
-1420 -1426 0
-1420 -1427 0
-1420 -1428 0
-1420 -1429 0
-1420 -1430 0
-1420 -1431 0
-1420 -1432 0
-1420 -1433 0
-1420 -1434 0
-1420 -1435 0
-1420 -1436 0
-1420 -1437 0
-1420 -1438 0
-1420 -1439 0
-1420 -1440 0
-1420 -1441 0
-1420 -1442 0
-1420 -1443 0
-1420 -1444 0
-1420 -1445 0
-1420 -1446 0
-1420 -1447 0
-1420 -1448 0
-1420 -1449 0
-1420 -1450 0
-1420 -1451 0
-1420 -1452 0
-1420 -1453 0
-1421 -1422 0
-1421 -1423 0
-1421 -1424 0
-1421 -1425 0
-1421 -1426 0
-1421 -1427 0
-1421 -1428 0
-1421 -1429 0
-1421 -1430 0
-1421 -1431 0
-1421 -1432 0
-1421 -1433 0
-1421 -1434 0
-1421 -1435 0
-1421 -1436 0
-1421 -1437 0
-1421 -1438 0
-1421 -1439 0
-1421 -1440 0
-1421 -1441 0
-1421 -1442 0
-1421 -1443 0
-1421 -1444 0
-1421 -1445 0
-1421 -1446 0
-1421 -1447 0
-1421 -1448 0
-1421 -1449 0
-1421 -1450 0
-1421 -1451 0
-1421 -1452 0
-1421 -1453 0
-1422 -1423 0
-1422 -1424 0
-1422 -1425 0
-1422 -1426 0
-1422 -1427 0
-1422 -1428 0
-1422 -1429 0
-1422 -1430 0
-1422 -1431 0
-1422 -1432 0
-1422 -1433 0
-1422 -1434 0
-1422 -1435 0
-1422 -1436 0
-1422 -1437 0
-1422 -1438 0
-1422 -1439 0
-1422 -1440 0
-1422 -1441 0
-1422 -1442 0
-1422 -1443 0
-1422 -1444 0
-1422 -1445 0
-1422 -1446 0
-1422 -1447 0
-1422 -1448 0
-1422 -1449 0
-1422 -1450 0
-1422 -1451 0
-1422 -1452 0
-1422 -1453 0
-1423 -1424 0
-1423 -1425 0
-1423 -1426 0
-1423 -1427 0
-1423 -1428 0
-1423 -1429 0
-1423 -1430 0
-1423 -1431 0
-1423 -1432 0
-1423 -1433 0
-1423 -1434 0
-1423 -1435 0
-1423 -1436 0
-1423 -1437 0
-1423 -1438 0
-1423 -1439 0
-1423 -1440 0
-1423 -1441 0
-1423 -1442 0
-1423 -1443 0
-1423 -1444 0
-1423 -1445 0
-1423 -1446 0
-1423 -1447 0
-1423 -1448 0
-1423 -1449 0
-1423 -1450 0
-1423 -1451 0
-1423 -1452 0
-1423 -1453 0
-1424 -1425 0
-1424 -1426 0
-1424 -1427 0
-1424 -1428 0
-1424 -1429 0
-1424 -1430 0
-1424 -1431 0
-1424 -1432 0
-1424 -1433 0
-1424 -1434 0
-1424 -1435 0
-1424 -1436 0
-1424 -1437 0
-1424 -1438 0
-1424 -1439 0
-1424 -1440 0
-1424 -1441 0
-1424 -1442 0
-1424 -1443 0
-1424 -1444 0
-1424 -1445 0
-1424 -1446 0
-1424 -1447 0
-1424 -1448 0
-1424 -1449 0
-1424 -1450 0
-1424 -1451 0
-1424 -1452 0
-1424 -1453 0
-1425 -1426 0
-1425 -1427 0
-1425 -1428 0
-1425 -1429 0
-1425 -1430 0
-1425 -1431 0
-1425 -1432 0
-1425 -1433 0
-1425 -1434 0
-1425 -1435 0
-1425 -1436 0
-1425 -1437 0
-1425 -1438 0
-1425 -1439 0
-1425 -1440 0
-1425 -1441 0
-1425 -1442 0
-1425 -1443 0
-1425 -1444 0
-1425 -1445 0
-1425 -1446 0
-1425 -1447 0
-1425 -1448 0
-1425 -1449 0
-1425 -1450 0
-1425 -1451 0
-1425 -1452 0
-1425 -1453 0
-1426 -1427 0
-1426 -1428 0
-1426 -1429 0
-1426 -1430 0
-1426 -1431 0
-1426 -1432 0
-1426 -1433 0
-1426 -1434 0
-1426 -1435 0
-1426 -1436 0
-1426 -1437 0
-1426 -1438 0
-1426 -1439 0
-1426 -1440 0
-1426 -1441 0
-1426 -1442 0
-1426 -1443 0
-1426 -1444 0
-1426 -1445 0
-1426 -1446 0
-1426 -1447 0
-1426 -1448 0
-1426 -1449 0
-1426 -1450 0
-1426 -1451 0
-1426 -1452 0
-1426 -1453 0
-1427 -1428 0
-1427 -1429 0
-1427 -1430 0
-1427 -1431 0
-1427 -1432 0
-1427 -1433 0
-1427 -1434 0
-1427 -1435 0
-1427 -1436 0
-1427 -1437 0
-1427 -1438 0
-1427 -1439 0
-1427 -1440 0
-1427 -1441 0
-1427 -1442 0
-1427 -1443 0
-1427 -1444 0
-1427 -1445 0
-1427 -1446 0
-1427 -1447 0
-1427 -1448 0
-1427 -1449 0
-1427 -1450 0
-1427 -1451 0
-1427 -1452 0
-1427 -1453 0
-1428 -1429 0
-1428 -1430 0
-1428 -1431 0
-1428 -1432 0
-1428 -1433 0
-1428 -1434 0
-1428 -1435 0
-1428 -1436 0
-1428 -1437 0
-1428 -1438 0
-1428 -1439 0
-1428 -1440 0
-1428 -1441 0
-1428 -1442 0
-1428 -1443 0
-1428 -1444 0
-1428 -1445 0
-1428 -1446 0
-1428 -1447 0
-1428 -1448 0
-1428 -1449 0
-1428 -1450 0
-1428 -1451 0
-1428 -1452 0
-1428 -1453 0
-1429 -1430 0
-1429 -1431 0
-1429 -1432 0
-1429 -1433 0
-1429 -1434 0
-1429 -1435 0
-1429 -1436 0
-1429 -1437 0
-1429 -1438 0
-1429 -1439 0
-1429 -1440 0
-1429 -1441 0
-1429 -1442 0
-1429 -1443 0
-1429 -1444 0
-1429 -1445 0
-1429 -1446 0
-1429 -1447 0
-1429 -1448 0
-1429 -1449 0
-1429 -1450 0
-1429 -1451 0
-1429 -1452 0
-1429 -1453 0
-1430 -1431 0
-1430 -1432 0
-1430 -1433 0
-1430 -1434 0
-1430 -1435 0
-1430 -1436 0
-1430 -1437 0
-1430 -1438 0
-1430 -1439 0
-1430 -1440 0
-1430 -1441 0
-1430 -1442 0
-1430 -1443 0
-1430 -1444 0
-1430 -1445 0
-1430 -1446 0
-1430 -1447 0
-1430 -1448 0
-1430 -1449 0
-1430 -1450 0
-1430 -1451 0
-1430 -1452 0
-1430 -1453 0
-1431 -1432 0
-1431 -1433 0
-1431 -1434 0
-1431 -1435 0
-1431 -1436 0
-1431 -1437 0
-1431 -1438 0
-1431 -1439 0
-1431 -1440 0
-1431 -1441 0
-1431 -1442 0
-1431 -1443 0
-1431 -1444 0
-1431 -1445 0
-1431 -1446 0
-1431 -1447 0
-1431 -1448 0
-1431 -1449 0
-1431 -1450 0
-1431 -1451 0
-1431 -1452 0
-1431 -1453 0
-1432 -1433 0
-1432 -1434 0
-1432 -1435 0
-1432 -1436 0
-1432 -1437 0
-1432 -1438 0
-1432 -1439 0
-1432 -1440 0
-1432 -1441 0
-1432 -1442 0
-1432 -1443 0
-1432 -1444 0
-1432 -1445 0
-1432 -1446 0
-1432 -1447 0
-1432 -1448 0
-1432 -1449 0
-1432 -1450 0
-1432 -1451 0
-1432 -1452 0
-1432 -1453 0
-1433 -1434 0
-1433 -1435 0
-1433 -1436 0
-1433 -1437 0
-1433 -1438 0
-1433 -1439 0
-1433 -1440 0
-1433 -1441 0
-1433 -1442 0
-1433 -1443 0
-1433 -1444 0
-1433 -1445 0
-1433 -1446 0
-1433 -1447 0
-1433 -1448 0
-1433 -1449 0
-1433 -1450 0
-1433 -1451 0
-1433 -1452 0
-1433 -1453 0
-1434 -1435 0
-1434 -1436 0
-1434 -1437 0
-1434 -1438 0
-1434 -1439 0
-1434 -1440 0
-1434 -1441 0
-1434 -1442 0
-1434 -1443 0
-1434 -1444 0
-1434 -1445 0
-1434 -1446 0
-1434 -1447 0
-1434 -1448 0
-1434 -1449 0
-1434 -1450 0
-1434 -1451 0
-1434 -1452 0
-1434 -1453 0
-1435 -1436 0
-1435 -1437 0
-1435 -1438 0
-1435 -1439 0
-1435 -1440 0
-1435 -1441 0
-1435 -1442 0
-1435 -1443 0
-1435 -1444 0
-1435 -1445 0
-1435 -1446 0
-1435 -1447 0
-1435 -1448 0
-1435 -1449 0
-1435 -1450 0
-1435 -1451 0
-1435 -1452 0
-1435 -1453 0
-1436 -1437 0
-1436 -1438 0
-1436 -1439 0
-1436 -1440 0
-1436 -1441 0
-1436 -1442 0
-1436 -1443 0
-1436 -1444 0
-1436 -1445 0
-1436 -1446 0
-1436 -1447 0
-1436 -1448 0
-1436 -1449 0
-1436 -1450 0
-1436 -1451 0
-1436 -1452 0
-1436 -1453 0
-1437 -1438 0
-1437 -1439 0
-1437 -1440 0
-1437 -1441 0
-1437 -1442 0
-1437 -1443 0
-1437 -1444 0
-1437 -1445 0
-1437 -1446 0
-1437 -1447 0
-1437 -1448 0
-1437 -1449 0
-1437 -1450 0
-1437 -1451 0
-1437 -1452 0
-1437 -1453 0
-1438 -1439 0
-1438 -1440 0
-1438 -1441 0
-1438 -1442 0
-1438 -1443 0
-1438 -1444 0
-1438 -1445 0
-1438 -1446 0
-1438 -1447 0
-1438 -1448 0
-1438 -1449 0
-1438 -1450 0
-1438 -1451 0
-1438 -1452 0
-1438 -1453 0
-1439 -1440 0
-1439 -1441 0
-1439 -1442 0
-1439 -1443 0
-1439 -1444 0
-1439 -1445 0
-1439 -1446 0
-1439 -1447 0
-1439 -1448 0
-1439 -1449 0
-1439 -1450 0
-1439 -1451 0
-1439 -1452 0
-1439 -1453 0
-1440 -1441 0
-1440 -1442 0
-1440 -1443 0
-1440 -1444 0
-1440 -1445 0
-1440 -1446 0
-1440 -1447 0
-1440 -1448 0
-1440 -1449 0
-1440 -1450 0
-1440 -1451 0
-1440 -1452 0
-1440 -1453 0
-1441 -1442 0
-1441 -1443 0
-1441 -1444 0
-1441 -1445 0
-1441 -1446 0
-1441 -1447 0
-1441 -1448 0
-1441 -1449 0
-1441 -1450 0
-1441 -1451 0
-1441 -1452 0
-1441 -1453 0
-1442 -1443 0
-1442 -1444 0
-1442 -1445 0
-1442 -1446 0
-1442 -1447 0
-1442 -1448 0
-1442 -1449 0
-1442 -1450 0
-1442 -1451 0
-1442 -1452 0
-1442 -1453 0
-1443 -1444 0
-1443 -1445 0
-1443 -1446 0
-1443 -1447 0
-1443 -1448 0
-1443 -1449 0
-1443 -1450 0
-1443 -1451 0
-1443 -1452 0
-1443 -1453 0
-1444 -1445 0
-1444 -1446 0
-1444 -1447 0
-1444 -1448 0
-1444 -1449 0
-1444 -1450 0
-1444 -1451 0
-1444 -1452 0
-1444 -1453 0
-1445 -1446 0
-1445 -1447 0
-1445 -1448 0
-1445 -1449 0
-1445 -1450 0
-1445 -1451 0
-1445 -1452 0
-1445 -1453 0
-1446 -1447 0
-1446 -1448 0
-1446 -1449 0
-1446 -1450 0
-1446 -1451 0
-1446 -1452 0
-1446 -1453 0
-1447 -1448 0
-1447 -1449 0
-1447 -1450 0
-1447 -1451 0
-1447 -1452 0
-1447 -1453 0
-1448 -1449 0
-1448 -1450 0
-1448 -1451 0
-1448 -1452 0
-1448 -1453 0
-1449 -1450 0
-1449 -1451 0
-1449 -1452 0
-1449 -1453 0
-1450 -1451 0
-1450 -1452 0
-1450 -1453 0
-1451 -1452 0
-1451 -1453 0
-1452 -1453 0
-1370 268 0
-1370 515 0
-1370 -318 0
-1370 -319 0
-1370 -320 0
-1370 -321 0
-1370 -322 0
-1370 -323 522 0
-1370 -323 -258 -265 0
-1370 -323 -330 0
-1370 -323 -388 0
-1370 -323 -445 0
-1370 -324 523 0
-1370 -324 -258 -266 0
-1370 -324 -332 0
-1370 -324 -390 0
-1370 -324 -447 0
-1370 -325 524 0
-1370 -325 -258 -267 0
-1370 -325 -334 0
-1370 -325 -392 0
-1370 -325 -449 0
-1370 -326 0
-1371 268 0
-1371 516 0
-1371 -317 0
-1371 -319 0
-1371 -320 0
-1371 -321 0
-1371 -322 0
-1371 -323 522 0
-1371 -323 -259 -265 0
-1371 -323 -338 0
-1371 -323 -396 0
-1371 -323 -453 0
-1371 -324 523 0
-1371 -324 -259 -266 0
-1371 -324 -340 0
-1371 -324 -398 0
-1371 -324 -455 0
-1371 -325 524 0
-1371 -325 -259 -267 0
-1371 -325 -342 0
-1371 -325 -400 0
-1371 -325 -457 0
-1371 -326 0
-1372 268 0
-1372 517 0
-1372 -317 0
-1372 -318 0
-1372 -320 0
-1372 -321 0
-1372 -322 0
-1372 -323 522 0
-1372 -323 -260 -265 0
-1372 -323 -346 0
-1372 -323 -404 0
-1372 -323 -461 0
-1372 -324 523 0
-1372 -324 -260 -266 0
-1372 -324 -348 0
-1372 -324 -406 0
-1372 -324 -463 0
-1372 -325 524 0
-1372 -325 -260 -267 0
-1372 -325 -350 0
-1372 -325 -408 0
-1372 -325 -465 0
-1372 -326 0
-1373 268 0
-1373 518 0
-1373 -317 0
-1373 -318 0
-1373 -319 0
-1373 -321 0
-1373 -322 0
-1373 -323 522 0
-1373 -323 -261 -265 0
-1373 -323 -354 0
-1373 -323 -412 0
-1373 -323 -469 0
-1373 -324 523 0
-1373 -324 -261 -266 0
-1373 -324 -356 0
-1373 -324 -414 0
-1373 -324 -471 0
-1373 -325 524 0
-1373 -325 -261 -267 0
-1373 -325 -358 0
-1373 -325 -416 0
-1373 -325 -473 0
-1373 -326 0
-1374 268 0
-1374 519 0
-1374 -317 0
-1374 -318 0
-1374 -319 0
-1374 -320 0
-1374 -322 0
-1374 -323 522 0
-1374 -323 -262 -265 0
-1374 -323 -362 0
-1374 -323 -420 0
-1374 -323 -477 0
-1374 -324 523 0
-1374 -324 -262 -266 0
-1374 -324 -364 0
-1374 -324 -422 0
-1374 -324 -479 0
-1374 -325 524 0
-1374 -325 -262 -267 0
-1374 -325 -366 0
-1374 -325 -424 0
-1374 -325 -481 0
-1374 -326 0
-1375 268 0
-1375 520 0
-1375 -317 0
-1375 -318 0
-1375 -319 0
-1375 -320 0
-1375 -321 0
-1375 -323 522 0
-1375 -323 -263 -265 0
-1375 -323 -370 0
-1375 -323 -428 0
-1375 -323 -485 0
-1375 -324 523 0
-1375 -324 -263 -266 0
-1375 -324 -372 0
-1375 -324 -430 0
-1375 -324 -487 0
-1375 -325 524 0
-1375 -325 -263 -267 0
-1375 -325 -374 0
-1375 -325 -432 0
-1375 -325 -489 0
-1375 -326 0
-1376 268 0
-1376 515 0
-1376 -377 0
-1376 -378 0
-1376 -379 0
-1376 -380 0
-1376 -381 522 0
-1376 -381 -258 -265 0
-1376 -381 -330 0
-1376 -381 -388 0
-1376 -381 -445 0
-1376 -382 523 0
-1376 -382 -258 -266 0
-1376 -382 -332 0
-1376 -382 -390 0
-1376 -382 -447 0
-1376 -383 524 0
-1376 -383 -258 -267 0
-1376 -383 -334 0
-1376 -383 -392 0
-1376 -383 -449 0
-1376 -384 0
-1377 268 0
-1377 516 0
-1377 -378 0
-1377 -379 0
-1377 -380 0
-1377 -381 522 0
-1377 -381 -259 -265 0
-1377 -381 -338 0
-1377 -381 -396 0
-1377 -381 -453 0
-1377 -382 523 0
-1377 -382 -259 -266 0
-1377 -382 -340 0
-1377 -382 -398 0
-1377 -382 -455 0
-1377 -383 524 0
-1377 -383 -259 -267 0
-1377 -383 -342 0
-1377 -383 -400 0
-1377 -383 -457 0
-1377 -384 0
-1378 268 0
-1378 517 0
-1378 -376 0
-1378 -379 0
-1378 -380 0
-1378 -381 522 0
-1378 -381 -260 -265 0
-1378 -381 -346 0
-1378 -381 -404 0
-1378 -381 -461 0
-1378 -382 523 0
-1378 -382 -260 -266 0
-1378 -382 -348 0
-1378 -382 -406 0
-1378 -382 -463 0
-1378 -383 524 0
-1378 -383 -260 -267 0
-1378 -383 -350 0
-1378 -383 -408 0
-1378 -383 -465 0
-1378 -384 0
-1379 268 0
-1379 518 0
-1379 -376 0
-1379 -377 0
-1379 -380 0
-1379 -381 522 0
-1379 -381 -261 -265 0
-1379 -381 -354 0
-1379 -381 -412 0
-1379 -381 -469 0
-1379 -382 523 0
-1379 -382 -261 -266 0
-1379 -382 -356 0
-1379 -382 -414 0
-1379 -382 -471 0
-1379 -383 524 0
-1379 -383 -261 -267 0
-1379 -383 -358 0
-1379 -383 -416 0
-1379 -383 -473 0
-1379 -384 0
-1380 268 0
-1380 519 0
-1380 -376 0
-1380 -377 0
-1380 -378 0
-1380 -381 522 0
-1380 -381 -262 -265 0
-1380 -381 -362 0
-1380 -381 -420 0
-1380 -381 -477 0
-1380 -382 523 0
-1380 -382 -262 -266 0
-1380 -382 -364 0
-1380 -382 -422 0
-1380 -382 -479 0
-1380 -383 524 0
-1380 -383 -262 -267 0
-1380 -383 -366 0
-1380 -383 -424 0
-1380 -383 -481 0
-1380 -384 0
-1381 268 0
-1381 520 0
-1381 -376 0
-1381 -377 0
-1381 -378 0
-1381 -379 0
-1381 -381 522 0
-1381 -381 -263 -265 0
-1381 -381 -370 0
-1381 -381 -428 0
-1381 -381 -485 0
-1381 -382 523 0
-1381 -382 -263 -266 0
-1381 -382 -372 0
-1381 -382 -430 0
-1381 -382 -487 0
-1381 -383 524 0
-1381 -383 -263 -267 0
-1381 -383 -374 0
-1381 -383 -432 0
-1381 -383 -489 0
-1381 -384 0
-1382 268 0
-1382 515 0
-1382 -435 0
-1382 -436 0
-1382 -437 0
-1382 -438 522 0
-1382 -438 -258 -265 0
-1382 -438 -330 0
-1382 -438 -388 0
-1382 -438 -445 0
-1382 -439 523 0
-1382 -439 -258 -266 0
-1382 -439 -332 0
-1382 -439 -390 0
-1382 -439 -447 0
-1382 -440 524 0
-1382 -440 -258 -267 0
-1382 -440 -334 0
-1382 -440 -392 0
-1382 -440 -449 0
-1382 -441 0
-1383 268 0
-1383 516 0
-1383 -436 0
-1383 -437 0
-1383 -438 522 0
-1383 -438 -259 -265 0
-1383 -438 -338 0
-1383 -438 -396 0
-1383 -438 -453 0
-1383 -439 523 0
-1383 -439 -259 -266 0
-1383 -439 -340 0
-1383 -439 -398 0
-1383 -439 -455 0
-1383 -440 524 0
-1383 -440 -259 -267 0
-1383 -440 -342 0
-1383 -440 -400 0
-1383 -440 -457 0
-1383 -441 0
-1384 268 0
-1384 517 0
-1384 -437 0
-1384 -438 522 0
-1384 -438 -260 -265 0
-1384 -438 -346 0
-1384 -438 -404 0
-1384 -438 -461 0
-1384 -439 523 0
-1384 -439 -260 -266 0
-1384 -439 -348 0
-1384 -439 -406 0
-1384 -439 -463 0
-1384 -440 524 0
-1384 -440 -260 -267 0
-1384 -440 -350 0
-1384 -440 -408 0
-1384 -440 -465 0
-1384 -441 0
-1385 268 0
-1385 518 0
-1385 -434 0
-1385 -438 522 0
-1385 -438 -261 -265 0
-1385 -438 -354 0
-1385 -438 -412 0
-1385 -438 -469 0
-1385 -439 523 0
-1385 -439 -261 -266 0
-1385 -439 -356 0
-1385 -439 -414 0
-1385 -439 -471 0
-1385 -440 524 0
-1385 -440 -261 -267 0
-1385 -440 -358 0
-1385 -440 -416 0
-1385 -440 -473 0
-1385 -441 0
-1386 268 0
-1386 519 0
-1386 -434 0
-1386 -435 0
-1386 -438 522 0
-1386 -438 -262 -265 0
-1386 -438 -362 0
-1386 -438 -420 0
-1386 -438 -477 0
-1386 -439 523 0
-1386 -439 -262 -266 0
-1386 -439 -364 0
-1386 -439 -422 0
-1386 -439 -479 0
-1386 -440 524 0
-1386 -440 -262 -267 0
-1386 -440 -366 0
-1386 -440 -424 0
-1386 -440 -481 0
-1386 -441 0
-1387 268 0
-1387 520 0
-1387 -434 0
-1387 -435 0
-1387 -436 0
-1387 -438 522 0
-1387 -438 -263 -265 0
-1387 -438 -370 0
-1387 -438 -428 0
-1387 -438 -485 0
-1387 -439 523 0
-1387 -439 -263 -266 0
-1387 -439 -372 0
-1387 -439 -430 0
-1387 -439 -487 0
-1387 -440 524 0
-1387 -440 -263 -267 0
-1387 -440 -374 0
-1387 -440 -432 0
-1387 -440 -489 0
-1387 -441 0
-1388 268 0
-1388 515 0
-1388 521 0
-1388 -258 -264 0
-1388 -328 0
-1388 -386 0
-1388 -443 0
-1389 268 0
-1389 516 0
-1389 521 0
-1389 -259 -264 0
-1389 -336 0
-1389 -394 0
-1389 -451 0
-1390 268 0
-1390 517 0
-1390 521 0
-1390 -260 -264 0
-1390 -344 0
-1390 -402 0
-1390 -459 0
-1391 268 0
-1391 518 0
-1391 521 0
-1391 -261 -264 0
-1391 -352 0
-1391 -410 0
-1391 -467 0
-1392 268 0
-1392 519 0
-1392 521 0
-1392 -262 -264 0
-1392 -360 0
-1392 -418 0
-1392 -475 0
-1393 268 0
-1393 520 0
-1393 521 0
-1393 -263 -264 0
-1393 -368 0
-1393 -426 0
-1393 -483 0
-1394 327 0
-1394 574 0
-1394 -259 0
-1394 -260 0
-1394 -261 0
-1394 -262 0
-1394 -263 0
-1394 -264 581 0
-1394 -264 -317 -324 0
-1394 -264 -271 0
-1394 -264 -388 0
-1394 -264 -445 0
-1394 -265 582 0
-1394 -265 -317 -325 0
-1394 -265 -273 0
-1394 -265 -390 0
-1394 -265 -447 0
-1394 -266 583 0
-1394 -266 -317 -326 0
-1394 -266 -275 0
-1394 -266 -392 0
-1394 -266 -449 0
-1394 -267 0
-1395 327 0
-1395 575 0
-1395 -258 0
-1395 -260 0
-1395 -261 0
-1395 -262 0
-1395 -263 0
-1395 -264 581 0
-1395 -264 -318 -324 0
-1395 -264 -279 0
-1395 -264 -396 0
-1395 -264 -453 0
-1395 -265 582 0
-1395 -265 -318 -325 0
-1395 -265 -281 0
-1395 -265 -398 0
-1395 -265 -455 0
-1395 -266 583 0
-1395 -266 -318 -326 0
-1395 -266 -283 0
-1395 -266 -400 0
-1395 -266 -457 0
-1395 -267 0
-1396 327 0
-1396 576 0
-1396 -258 0
-1396 -259 0
-1396 -261 0
-1396 -262 0
-1396 -263 0
-1396 -264 581 0
-1396 -264 -319 -324 0
-1396 -264 -287 0
-1396 -264 -404 0
-1396 -264 -461 0
-1396 -265 582 0
-1396 -265 -319 -325 0
-1396 -265 -289 0
-1396 -265 -406 0
-1396 -265 -463 0
-1396 -266 583 0
-1396 -266 -319 -326 0
-1396 -266 -291 0
-1396 -266 -408 0
-1396 -266 -465 0
-1396 -267 0
-1397 327 0
-1397 577 0
-1397 -258 0
-1397 -259 0
-1397 -260 0
-1397 -262 0
-1397 -263 0
-1397 -264 581 0
-1397 -264 -320 -324 0
-1397 -264 -295 0
-1397 -264 -412 0
-1397 -264 -469 0
-1397 -265 582 0
-1397 -265 -320 -325 0
-1397 -265 -297 0
-1397 -265 -414 0
-1397 -265 -471 0
-1397 -266 583 0
-1397 -266 -320 -326 0
-1397 -266 -299 0
-1397 -266 -416 0
-1397 -266 -473 0
-1397 -267 0
-1398 327 0
-1398 578 0
-1398 -258 0
-1398 -259 0
-1398 -260 0
-1398 -261 0
-1398 -263 0
-1398 -264 581 0
-1398 -264 -321 -324 0
-1398 -264 -303 0
-1398 -264 -420 0
-1398 -264 -477 0
-1398 -265 582 0
-1398 -265 -321 -325 0
-1398 -265 -305 0
-1398 -265 -422 0
-1398 -265 -479 0
-1398 -266 583 0
-1398 -266 -321 -326 0
-1398 -266 -307 0
-1398 -266 -424 0
-1398 -266 -481 0
-1398 -267 0
-1399 327 0
-1399 579 0
-1399 -258 0
-1399 -259 0
-1399 -260 0
-1399 -261 0
-1399 -262 0
-1399 -264 581 0
-1399 -264 -322 -324 0
-1399 -264 -311 0
-1399 -264 -428 0
-1399 -264 -485 0
-1399 -265 582 0
-1399 -265 -322 -325 0
-1399 -265 -313 0
-1399 -265 -430 0
-1399 -265 -487 0
-1399 -266 583 0
-1399 -266 -322 -326 0
-1399 -266 -315 0
-1399 -266 -432 0
-1399 -266 -489 0
-1399 -267 0
-1400 327 0
-1400 574 0
-1400 -377 0
-1400 -378 0
-1400 -379 0
-1400 -380 0
-1400 -381 581 0
-1400 -381 -317 -324 0
-1400 -381 -271 0
-1400 -381 -388 0
-1400 -381 -445 0
-1400 -382 582 0
-1400 -382 -317 -325 0
-1400 -382 -273 0
-1400 -382 -390 0
-1400 -382 -447 0
-1400 -383 583 0
-1400 -383 -317 -326 0
-1400 -383 -275 0
-1400 -383 -392 0
-1400 -383 -449 0
-1400 -384 0
-1401 327 0
-1401 575 0
-1401 -378 0
-1401 -379 0
-1401 -380 0
-1401 -381 581 0
-1401 -381 -318 -324 0
-1401 -381 -279 0
-1401 -381 -396 0
-1401 -381 -453 0
-1401 -382 582 0
-1401 -382 -318 -325 0
-1401 -382 -281 0
-1401 -382 -398 0
-1401 -382 -455 0
-1401 -383 583 0
-1401 -383 -318 -326 0
-1401 -383 -283 0
-1401 -383 -400 0
-1401 -383 -457 0
-1401 -384 0
-1402 327 0
-1402 576 0
-1402 -376 0
-1402 -379 0
-1402 -380 0
-1402 -381 581 0
-1402 -381 -319 -324 0
-1402 -381 -287 0
-1402 -381 -404 0
-1402 -381 -461 0
-1402 -382 582 0
-1402 -382 -319 -325 0
-1402 -382 -289 0
-1402 -382 -406 0
-1402 -382 -463 0
-1402 -383 583 0
-1402 -383 -319 -326 0
-1402 -383 -291 0
-1402 -383 -408 0
-1402 -383 -465 0
-1402 -384 0
-1403 327 0
-1403 577 0
-1403 -376 0
-1403 -377 0
-1403 -380 0
-1403 -381 581 0
-1403 -381 -320 -324 0
-1403 -381 -295 0
-1403 -381 -412 0
-1403 -381 -469 0
-1403 -382 582 0
-1403 -382 -320 -325 0
-1403 -382 -297 0
-1403 -382 -414 0
-1403 -382 -471 0
-1403 -383 583 0
-1403 -383 -320 -326 0
-1403 -383 -299 0
-1403 -383 -416 0
-1403 -383 -473 0
-1403 -384 0
-1404 327 0
-1404 578 0
-1404 -376 0
-1404 -377 0
-1404 -378 0
-1404 -381 581 0
-1404 -381 -321 -324 0
-1404 -381 -303 0
-1404 -381 -420 0
-1404 -381 -477 0
-1404 -382 582 0
-1404 -382 -321 -325 0
-1404 -382 -305 0
-1404 -382 -422 0
-1404 -382 -479 0
-1404 -383 583 0
-1404 -383 -321 -326 0
-1404 -383 -307 0
-1404 -383 -424 0
-1404 -383 -481 0
-1404 -384 0
-1405 327 0
-1405 579 0
-1405 -376 0
-1405 -377 0
-1405 -378 0
-1405 -379 0
-1405 -381 581 0
-1405 -381 -322 -324 0
-1405 -381 -311 0
-1405 -381 -428 0
-1405 -381 -485 0
-1405 -382 582 0
-1405 -382 -322 -325 0
-1405 -382 -313 0
-1405 -382 -430 0
-1405 -382 -487 0
-1405 -383 583 0
-1405 -383 -322 -326 0
-1405 -383 -315 0
-1405 -383 -432 0
-1405 -383 -489 0
-1405 -384 0
-1406 327 0
-1406 574 0
-1406 -435 0
-1406 -436 0
-1406 -437 0
-1406 -438 581 0
-1406 -438 -317 -324 0
-1406 -438 -271 0
-1406 -438 -388 0
-1406 -438 -445 0
-1406 -439 582 0
-1406 -439 -317 -325 0
-1406 -439 -273 0
-1406 -439 -390 0
-1406 -439 -447 0
-1406 -440 583 0
-1406 -440 -317 -326 0
-1406 -440 -275 0
-1406 -440 -392 0
-1406 -440 -449 0
-1406 -441 0
-1407 327 0
-1407 575 0
-1407 -436 0
-1407 -437 0
-1407 -438 581 0
-1407 -438 -318 -324 0
-1407 -438 -279 0
-1407 -438 -396 0
-1407 -438 -453 0
-1407 -439 582 0
-1407 -439 -318 -325 0
-1407 -439 -281 0
-1407 -439 -398 0
-1407 -439 -455 0
-1407 -440 583 0
-1407 -440 -318 -326 0
-1407 -440 -283 0
-1407 -440 -400 0
-1407 -440 -457 0
-1407 -441 0
-1408 327 0
-1408 576 0
-1408 -437 0
-1408 -438 581 0
-1408 -438 -319 -324 0
-1408 -438 -287 0
-1408 -438 -404 0
-1408 -438 -461 0
-1408 -439 582 0
-1408 -439 -319 -325 0
-1408 -439 -289 0
-1408 -439 -406 0
-1408 -439 -463 0
-1408 -440 583 0
-1408 -440 -319 -326 0
-1408 -440 -291 0
-1408 -440 -408 0
-1408 -440 -465 0
-1408 -441 0
-1409 327 0
-1409 577 0
-1409 -434 0
-1409 -438 581 0
-1409 -438 -320 -324 0
-1409 -438 -295 0
-1409 -438 -412 0
-1409 -438 -469 0
-1409 -439 582 0
-1409 -439 -320 -325 0
-1409 -439 -297 0
-1409 -439 -414 0
-1409 -439 -471 0
-1409 -440 583 0
-1409 -440 -320 -326 0
-1409 -440 -299 0
-1409 -440 -416 0
-1409 -440 -473 0
-1409 -441 0
-1410 327 0
-1410 578 0
-1410 -434 0
-1410 -435 0
-1410 -438 581 0
-1410 -438 -321 -324 0
-1410 -438 -303 0
-1410 -438 -420 0
-1410 -438 -477 0
-1410 -439 582 0
-1410 -439 -321 -325 0
-1410 -439 -305 0
-1410 -439 -422 0
-1410 -439 -479 0
-1410 -440 583 0
-1410 -440 -321 -326 0
-1410 -440 -307 0
-1410 -440 -424 0
-1410 -440 -481 0
-1410 -441 0
-1411 327 0
-1411 579 0
-1411 -434 0
-1411 -435 0
-1411 -436 0
-1411 -438 581 0
-1411 -438 -322 -324 0
-1411 -438 -311 0
-1411 -438 -428 0
-1411 -438 -485 0
-1411 -439 582 0
-1411 -439 -322 -325 0
-1411 -439 -313 0
-1411 -439 -430 0
-1411 -439 -487 0
-1411 -440 583 0
-1411 -440 -322 -326 0
-1411 -440 -315 0
-1411 -440 -432 0
-1411 -440 -489 0
-1411 -441 0
-1412 327 0
-1412 574 0
-1412 580 0
-1412 -317 -323 0
-1412 -269 0
-1412 -386 0
-1412 -443 0
-1413 327 0
-1413 575 0
-1413 580 0
-1413 -318 -323 0
-1413 -277 0
-1413 -394 0
-1413 -451 0
-1414 327 0
-1414 576 0
-1414 580 0
-1414 -319 -323 0
-1414 -285 0
-1414 -402 0
-1414 -459 0
-1415 327 0
-1415 577 0
-1415 580 0
-1415 -320 -323 0
-1415 -293 0
-1415 -410 0
-1415 -467 0
-1416 327 0
-1416 578 0
-1416 580 0
-1416 -321 -323 0
-1416 -301 0
-1416 -418 0
-1416 -475 0
-1417 327 0
-1417 579 0
-1417 580 0
-1417 -322 -323 0
-1417 -309 0
-1417 -426 0
-1417 -483 0
-1418 385 0
-1418 633 0
-1418 -260 0
-1418 -261 0
-1418 -262 0
-1418 -263 0
-1418 -264 639 0
-1418 -264 -376 -382 0
-1418 -264 -271 0
-1418 -264 -279 0
-1418 -264 -330 0
-1418 -264 -338 0
-1418 -264 -445 0
-1418 -264 -453 0
-1418 -265 640 0
-1418 -265 -376 -383 0
-1418 -265 -273 0
-1418 -265 -281 0
-1418 -265 -332 0
-1418 -265 -340 0
-1418 -265 -447 0
-1418 -265 -455 0
-1418 -266 641 0
-1418 -266 -376 -384 0
-1418 -266 -275 0
-1418 -266 -283 0
-1418 -266 -334 0
-1418 -266 -342 0
-1418 -266 -449 0
-1418 -266 -457 0
-1418 -267 0
-1419 385 0
-1419 634 0
-1419 -258 0
-1419 -261 0
-1419 -262 0
-1419 -263 0
-1419 -264 639 0
-1419 -264 -377 -382 0
-1419 -264 -279 0
-1419 -264 -287 0
-1419 -264 -338 0
-1419 -264 -346 0
-1419 -264 -453 0
-1419 -264 -461 0
-1419 -265 640 0
-1419 -265 -377 -383 0
-1419 -265 -281 0
-1419 -265 -289 0
-1419 -265 -340 0
-1419 -265 -348 0
-1419 -265 -455 0
-1419 -265 -463 0
-1419 -266 641 0
-1419 -266 -377 -384 0
-1419 -266 -283 0
-1419 -266 -291 0
-1419 -266 -342 0
-1419 -266 -350 0
-1419 -266 -457 0
-1419 -266 -465 0
-1419 -267 0
-1420 385 0
-1420 635 0
-1420 -258 0
-1420 -259 0
-1420 -262 0
-1420 -263 0
-1420 -264 639 0
-1420 -264 -378 -382 0
-1420 -264 -287 0
-1420 -264 -295 0
-1420 -264 -346 0
-1420 -264 -354 0
-1420 -264 -461 0
-1420 -264 -469 0
-1420 -265 640 0
-1420 -265 -378 -383 0
-1420 -265 -289 0
-1420 -265 -297 0
-1420 -265 -348 0
-1420 -265 -356 0
-1420 -265 -463 0
-1420 -265 -471 0
-1420 -266 641 0
-1420 -266 -378 -384 0
-1420 -266 -291 0
-1420 -266 -299 0
-1420 -266 -350 0
-1420 -266 -358 0
-1420 -266 -465 0
-1420 -266 -473 0
-1420 -267 0
-1421 385 0
-1421 636 0
-1421 -258 0
-1421 -259 0
-1421 -260 0
-1421 -263 0
-1421 -264 639 0
-1421 -264 -379 -382 0
-1421 -264 -295 0
-1421 -264 -303 0
-1421 -264 -354 0
-1421 -264 -362 0
-1421 -264 -469 0
-1421 -264 -477 0
-1421 -265 640 0
-1421 -265 -379 -383 0
-1421 -265 -297 0
-1421 -265 -305 0
-1421 -265 -356 0
-1421 -265 -364 0
-1421 -265 -471 0
-1421 -265 -479 0
-1421 -266 641 0
-1421 -266 -379 -384 0
-1421 -266 -299 0
-1421 -266 -307 0
-1421 -266 -358 0
-1421 -266 -366 0
-1421 -266 -473 0
-1421 -266 -481 0
-1421 -267 0
-1422 385 0
-1422 637 0
-1422 -258 0
-1422 -259 0
-1422 -260 0
-1422 -261 0
-1422 -264 639 0
-1422 -264 -380 -382 0
-1422 -264 -303 0
-1422 -264 -311 0
-1422 -264 -362 0
-1422 -264 -370 0
-1422 -264 -477 0
-1422 -264 -485 0
-1422 -265 640 0
-1422 -265 -380 -383 0
-1422 -265 -305 0
-1422 -265 -313 0
-1422 -265 -364 0
-1422 -265 -372 0
-1422 -265 -479 0
-1422 -265 -487 0
-1422 -266 641 0
-1422 -266 -380 -384 0
-1422 -266 -307 0
-1422 -266 -315 0
-1422 -266 -366 0
-1422 -266 -374 0
-1422 -266 -481 0
-1422 -266 -489 0
-1422 -267 0
-1423 385 0
-1423 633 0
-1423 -319 0
-1423 -320 0
-1423 -321 0
-1423 -322 0
-1423 -323 639 0
-1423 -323 -376 -382 0
-1423 -323 -271 0
-1423 -323 -279 0
-1423 -323 -330 0
-1423 -323 -338 0
-1423 -323 -445 0
-1423 -323 -453 0
-1423 -324 640 0
-1423 -324 -376 -383 0
-1423 -324 -273 0
-1423 -324 -281 0
-1423 -324 -332 0
-1423 -324 -340 0
-1423 -324 -447 0
-1423 -324 -455 0
-1423 -325 641 0
-1423 -325 -376 -384 0
-1423 -325 -275 0
-1423 -325 -283 0
-1423 -325 -334 0
-1423 -325 -342 0
-1423 -325 -449 0
-1423 -325 -457 0
-1423 -326 0
-1424 385 0
-1424 634 0
-1424 -317 0
-1424 -320 0
-1424 -321 0
-1424 -322 0
-1424 -323 639 0
-1424 -323 -377 -382 0
-1424 -323 -279 0
-1424 -323 -287 0
-1424 -323 -338 0
-1424 -323 -346 0
-1424 -323 -453 0
-1424 -323 -461 0
-1424 -324 640 0
-1424 -324 -377 -383 0
-1424 -324 -281 0
-1424 -324 -289 0
-1424 -324 -340 0
-1424 -324 -348 0
-1424 -324 -455 0
-1424 -324 -463 0
-1424 -325 641 0
-1424 -325 -377 -384 0
-1424 -325 -283 0
-1424 -325 -291 0
-1424 -325 -342 0
-1424 -325 -350 0
-1424 -325 -457 0
-1424 -325 -465 0
-1424 -326 0
-1425 385 0
-1425 635 0
-1425 -317 0
-1425 -318 0
-1425 -321 0
-1425 -322 0
-1425 -323 639 0
-1425 -323 -378 -382 0
-1425 -323 -287 0
-1425 -323 -295 0
-1425 -323 -346 0
-1425 -323 -354 0
-1425 -323 -461 0
-1425 -323 -469 0
-1425 -324 640 0
-1425 -324 -378 -383 0
-1425 -324 -289 0
-1425 -324 -297 0
-1425 -324 -348 0
-1425 -324 -356 0
-1425 -324 -463 0
-1425 -324 -471 0
-1425 -325 641 0
-1425 -325 -378 -384 0
-1425 -325 -291 0
-1425 -325 -299 0
-1425 -325 -350 0
-1425 -325 -358 0
-1425 -325 -465 0
-1425 -325 -473 0
-1425 -326 0
-1426 385 0
-1426 636 0
-1426 -317 0
-1426 -318 0
-1426 -319 0
-1426 -322 0
-1426 -323 639 0
-1426 -323 -379 -382 0
-1426 -323 -295 0
-1426 -323 -303 0
-1426 -323 -354 0
-1426 -323 -362 0
-1426 -323 -469 0
-1426 -323 -477 0
-1426 -324 640 0
-1426 -324 -379 -383 0
-1426 -324 -297 0
-1426 -324 -305 0
-1426 -324 -356 0
-1426 -324 -364 0
-1426 -324 -471 0
-1426 -324 -479 0
-1426 -325 641 0
-1426 -325 -379 -384 0
-1426 -325 -299 0
-1426 -325 -307 0
-1426 -325 -358 0
-1426 -325 -366 0
-1426 -325 -473 0
-1426 -325 -481 0
-1426 -326 0
-1427 385 0
-1427 637 0
-1427 -317 0
-1427 -318 0
-1427 -319 0
-1427 -320 0
-1427 -323 639 0
-1427 -323 -380 -382 0
-1427 -323 -303 0
-1427 -323 -311 0
-1427 -323 -362 0
-1427 -323 -370 0
-1427 -323 -477 0
-1427 -323 -485 0
-1427 -324 640 0
-1427 -324 -380 -383 0
-1427 -324 -305 0
-1427 -324 -313 0
-1427 -324 -364 0
-1427 -324 -372 0
-1427 -324 -479 0
-1427 -324 -487 0
-1427 -325 641 0
-1427 -325 -380 -384 0
-1427 -325 -307 0
-1427 -325 -315 0
-1427 -325 -366 0
-1427 -325 -374 0
-1427 -325 -481 0
-1427 -325 -489 0
-1427 -326 0
-1428 385 0
-1428 633 0
-1428 -436 0
-1428 -437 0
-1428 -438 639 0
-1428 -438 -376 -382 0
-1428 -438 -271 0
-1428 -438 -279 0
-1428 -438 -330 0
-1428 -438 -338 0
-1428 -438 -445 0
-1428 -438 -453 0
-1428 -439 640 0
-1428 -439 -376 -383 0
-1428 -439 -273 0
-1428 -439 -281 0
-1428 -439 -332 0
-1428 -439 -340 0
-1428 -439 -447 0
-1428 -439 -455 0
-1428 -440 641 0
-1428 -440 -376 -384 0
-1428 -440 -275 0
-1428 -440 -283 0
-1428 -440 -334 0
-1428 -440 -342 0
-1428 -440 -449 0
-1428 -440 -457 0
-1428 -441 0
-1429 385 0
-1429 634 0
-1429 -437 0
-1429 -438 639 0
-1429 -438 -377 -382 0
-1429 -438 -279 0
-1429 -438 -287 0
-1429 -438 -338 0
-1429 -438 -346 0
-1429 -438 -453 0
-1429 -438 -461 0
-1429 -439 640 0
-1429 -439 -377 -383 0
-1429 -439 -281 0
-1429 -439 -289 0
-1429 -439 -340 0
-1429 -439 -348 0
-1429 -439 -455 0
-1429 -439 -463 0
-1429 -440 641 0
-1429 -440 -377 -384 0
-1429 -440 -283 0
-1429 -440 -291 0
-1429 -440 -342 0
-1429 -440 -350 0
-1429 -440 -457 0
-1429 -440 -465 0
-1429 -441 0
-1430 385 0
-1430 635 0
-1430 -438 639 0
-1430 -438 -378 -382 0
-1430 -438 -287 0
-1430 -438 -295 0
-1430 -438 -346 0
-1430 -438 -354 0
-1430 -438 -461 0
-1430 -438 -469 0
-1430 -439 640 0
-1430 -439 -378 -383 0
-1430 -439 -289 0
-1430 -439 -297 0
-1430 -439 -348 0
-1430 -439 -356 0
-1430 -439 -463 0
-1430 -439 -471 0
-1430 -440 641 0
-1430 -440 -378 -384 0
-1430 -440 -291 0
-1430 -440 -299 0
-1430 -440 -350 0
-1430 -440 -358 0
-1430 -440 -465 0
-1430 -440 -473 0
-1430 -441 0
-1431 385 0
-1431 636 0
-1431 -434 0
-1431 -438 639 0
-1431 -438 -379 -382 0
-1431 -438 -295 0
-1431 -438 -303 0
-1431 -438 -354 0
-1431 -438 -362 0
-1431 -438 -469 0
-1431 -438 -477 0
-1431 -439 640 0
-1431 -439 -379 -383 0
-1431 -439 -297 0
-1431 -439 -305 0
-1431 -439 -356 0
-1431 -439 -364 0
-1431 -439 -471 0
-1431 -439 -479 0
-1431 -440 641 0
-1431 -440 -379 -384 0
-1431 -440 -299 0
-1431 -440 -307 0
-1431 -440 -358 0
-1431 -440 -366 0
-1431 -440 -473 0
-1431 -440 -481 0
-1431 -441 0
-1432 385 0
-1432 637 0
-1432 -434 0
-1432 -435 0
-1432 -438 639 0
-1432 -438 -380 -382 0
-1432 -438 -303 0
-1432 -438 -311 0
-1432 -438 -362 0
-1432 -438 -370 0
-1432 -438 -477 0
-1432 -438 -485 0
-1432 -439 640 0
-1432 -439 -380 -383 0
-1432 -439 -305 0
-1432 -439 -313 0
-1432 -439 -364 0
-1432 -439 -372 0
-1432 -439 -479 0
-1432 -439 -487 0
-1432 -440 641 0
-1432 -440 -380 -384 0
-1432 -440 -307 0
-1432 -440 -315 0
-1432 -440 -366 0
-1432 -440 -374 0
-1432 -440 -481 0
-1432 -440 -489 0
-1432 -441 0
-1433 385 0
-1433 633 0
-1433 638 0
-1433 -376 -381 0
-1433 -269 0
-1433 -277 0
-1433 -328 0
-1433 -336 0
-1433 -443 0
-1433 -451 0
-1434 385 0
-1434 634 0
-1434 638 0
-1434 -377 -381 0
-1434 -277 0
-1434 -285 0
-1434 -336 0
-1434 -344 0
-1434 -451 0
-1434 -459 0
-1435 385 0
-1435 635 0
-1435 638 0
-1435 -378 -381 0
-1435 -285 0
-1435 -293 0
-1435 -344 0
-1435 -352 0
-1435 -459 0
-1435 -467 0
-1436 385 0
-1436 636 0
-1436 638 0
-1436 -379 -381 0
-1436 -293 0
-1436 -301 0
-1436 -352 0
-1436 -360 0
-1436 -467 0
-1436 -475 0
-1437 385 0
-1437 637 0
-1437 638 0
-1437 -380 -381 0
-1437 -301 0
-1437 -309 0
-1437 -360 0
-1437 -368 0
-1437 -475 0
-1437 -483 0
-1438 442 0
-1438 691 0
-1438 -261 0
-1438 -262 0
-1438 -263 0
-1438 -264 696 0
-1438 -264 -434 -439 0
-1438 -264 -271 0
-1438 -264 -279 0
-1438 -264 -287 0
-1438 -264 -330 0
-1438 -264 -338 0
-1438 -264 -346 0
-1438 -264 -388 0
-1438 -264 -396 0
-1438 -264 -404 0
-1438 -265 697 0
-1438 -265 -434 -440 0
-1438 -265 -273 0
-1438 -265 -281 0
-1438 -265 -289 0
-1438 -265 -332 0
-1438 -265 -340 0
-1438 -265 -348 0
-1438 -265 -390 0
-1438 -265 -398 0
-1438 -265 -406 0
-1438 -266 698 0
-1438 -266 -434 -441 0
-1438 -266 -275 0
-1438 -266 -283 0
-1438 -266 -291 0
-1438 -266 -334 0
-1438 -266 -342 0
-1438 -266 -350 0
-1438 -266 -392 0
-1438 -266 -400 0
-1438 -266 -408 0
-1438 -267 0
-1439 442 0
-1439 692 0
-1439 -258 0
-1439 -262 0
-1439 -263 0
-1439 -264 696 0
-1439 -264 -435 -439 0
-1439 -264 -279 0
-1439 -264 -287 0
-1439 -264 -295 0
-1439 -264 -338 0
-1439 -264 -346 0
-1439 -264 -354 0
-1439 -264 -396 0
-1439 -264 -404 0
-1439 -264 -412 0
-1439 -265 697 0
-1439 -265 -435 -440 0
-1439 -265 -281 0
-1439 -265 -289 0
-1439 -265 -297 0
-1439 -265 -340 0
-1439 -265 -348 0
-1439 -265 -356 0
-1439 -265 -398 0
-1439 -265 -406 0
-1439 -265 -414 0
-1439 -266 698 0
-1439 -266 -435 -441 0
-1439 -266 -283 0
-1439 -266 -291 0
-1439 -266 -299 0
-1439 -266 -342 0
-1439 -266 -350 0
-1439 -266 -358 0
-1439 -266 -400 0
-1439 -266 -408 0
-1439 -266 -416 0
-1439 -267 0
-1440 442 0
-1440 693 0
-1440 -258 0
-1440 -259 0
-1440 -263 0
-1440 -264 696 0
-1440 -264 -436 -439 0
-1440 -264 -287 0
-1440 -264 -295 0
-1440 -264 -303 0
-1440 -264 -346 0
-1440 -264 -354 0
-1440 -264 -362 0
-1440 -264 -404 0
-1440 -264 -412 0
-1440 -264 -420 0
-1440 -265 697 0
-1440 -265 -436 -440 0
-1440 -265 -289 0
-1440 -265 -297 0
-1440 -265 -305 0
-1440 -265 -348 0
-1440 -265 -356 0
-1440 -265 -364 0
-1440 -265 -406 0
-1440 -265 -414 0
-1440 -265 -422 0
-1440 -266 698 0
-1440 -266 -436 -441 0
-1440 -266 -291 0
-1440 -266 -299 0
-1440 -266 -307 0
-1440 -266 -350 0
-1440 -266 -358 0
-1440 -266 -366 0
-1440 -266 -408 0
-1440 -266 -416 0
-1440 -266 -424 0
-1440 -267 0
-1441 442 0
-1441 694 0
-1441 -258 0
-1441 -259 0
-1441 -260 0
-1441 -264 696 0
-1441 -264 -437 -439 0
-1441 -264 -295 0
-1441 -264 -303 0
-1441 -264 -311 0
-1441 -264 -354 0
-1441 -264 -362 0
-1441 -264 -370 0
-1441 -264 -412 0
-1441 -264 -420 0
-1441 -264 -428 0
-1441 -265 697 0
-1441 -265 -437 -440 0
-1441 -265 -297 0
-1441 -265 -305 0
-1441 -265 -313 0
-1441 -265 -356 0
-1441 -265 -364 0
-1441 -265 -372 0
-1441 -265 -414 0
-1441 -265 -422 0
-1441 -265 -430 0
-1441 -266 698 0
-1441 -266 -437 -441 0
-1441 -266 -299 0
-1441 -266 -307 0
-1441 -266 -315 0
-1441 -266 -358 0
-1441 -266 -366 0
-1441 -266 -374 0
-1441 -266 -416 0
-1441 -266 -424 0
-1441 -266 -432 0
-1441 -267 0
-1442 442 0
-1442 691 0
-1442 -320 0
-1442 -321 0
-1442 -322 0
-1442 -323 696 0
-1442 -323 -434 -439 0
-1442 -323 -271 0
-1442 -323 -279 0
-1442 -323 -287 0
-1442 -323 -330 0
-1442 -323 -338 0
-1442 -323 -346 0
-1442 -323 -388 0
-1442 -323 -396 0
-1442 -323 -404 0
-1442 -324 697 0
-1442 -324 -434 -440 0
-1442 -324 -273 0
-1442 -324 -281 0
-1442 -324 -289 0
-1442 -324 -332 0
-1442 -324 -340 0
-1442 -324 -348 0
-1442 -324 -390 0
-1442 -324 -398 0
-1442 -324 -406 0
-1442 -325 698 0
-1442 -325 -434 -441 0
-1442 -325 -275 0
-1442 -325 -283 0
-1442 -325 -291 0
-1442 -325 -334 0
-1442 -325 -342 0
-1442 -325 -350 0
-1442 -325 -392 0
-1442 -325 -400 0
-1442 -325 -408 0
-1442 -326 0
-1443 442 0
-1443 692 0
-1443 -317 0
-1443 -321 0
-1443 -322 0
-1443 -323 696 0
-1443 -323 -435 -439 0
-1443 -323 -279 0
-1443 -323 -287 0
-1443 -323 -295 0
-1443 -323 -338 0
-1443 -323 -346 0
-1443 -323 -354 0
-1443 -323 -396 0
-1443 -323 -404 0
-1443 -323 -412 0
-1443 -324 697 0
-1443 -324 -435 -440 0
-1443 -324 -281 0
-1443 -324 -289 0
-1443 -324 -297 0
-1443 -324 -340 0
-1443 -324 -348 0
-1443 -324 -356 0
-1443 -324 -398 0
-1443 -324 -406 0
-1443 -324 -414 0
-1443 -325 698 0
-1443 -325 -435 -441 0
-1443 -325 -283 0
-1443 -325 -291 0
-1443 -325 -299 0
-1443 -325 -342 0
-1443 -325 -350 0
-1443 -325 -358 0
-1443 -325 -400 0
-1443 -325 -408 0
-1443 -325 -416 0
-1443 -326 0
-1444 442 0
-1444 693 0
-1444 -317 0
-1444 -318 0
-1444 -322 0
-1444 -323 696 0
-1444 -323 -436 -439 0
-1444 -323 -287 0
-1444 -323 -295 0
-1444 -323 -303 0
-1444 -323 -346 0
-1444 -323 -354 0
-1444 -323 -362 0
-1444 -323 -404 0
-1444 -323 -412 0
-1444 -323 -420 0
-1444 -324 697 0
-1444 -324 -436 -440 0
-1444 -324 -289 0
-1444 -324 -297 0
-1444 -324 -305 0
-1444 -324 -348 0
-1444 -324 -356 0
-1444 -324 -364 0
-1444 -324 -406 0
-1444 -324 -414 0
-1444 -324 -422 0
-1444 -325 698 0
-1444 -325 -436 -441 0
-1444 -325 -291 0
-1444 -325 -299 0
-1444 -325 -307 0
-1444 -325 -350 0
-1444 -325 -358 0
-1444 -325 -366 0
-1444 -325 -408 0
-1444 -325 -416 0
-1444 -325 -424 0
-1444 -326 0
-1445 442 0
-1445 694 0
-1445 -317 0
-1445 -318 0
-1445 -319 0
-1445 -323 696 0
-1445 -323 -437 -439 0
-1445 -323 -295 0
-1445 -323 -303 0
-1445 -323 -311 0
-1445 -323 -354 0
-1445 -323 -362 0
-1445 -323 -370 0
-1445 -323 -412 0
-1445 -323 -420 0
-1445 -323 -428 0
-1445 -324 697 0
-1445 -324 -437 -440 0
-1445 -324 -297 0
-1445 -324 -305 0
-1445 -324 -313 0
-1445 -324 -356 0
-1445 -324 -364 0
-1445 -324 -372 0
-1445 -324 -414 0
-1445 -324 -422 0
-1445 -324 -430 0
-1445 -325 698 0
-1445 -325 -437 -441 0
-1445 -325 -299 0
-1445 -325 -307 0
-1445 -325 -315 0
-1445 -325 -358 0
-1445 -325 -366 0
-1445 -325 -374 0
-1445 -325 -416 0
-1445 -325 -424 0
-1445 -325 -432 0
-1445 -326 0
-1446 442 0
-1446 691 0
-1446 -379 0
-1446 -380 0
-1446 -381 696 0
-1446 -381 -434 -439 0
-1446 -381 -271 0
-1446 -381 -279 0
-1446 -381 -287 0
-1446 -381 -330 0
-1446 -381 -338 0
-1446 -381 -346 0
-1446 -381 -388 0
-1446 -381 -396 0
-1446 -381 -404 0
-1446 -382 697 0
-1446 -382 -434 -440 0
-1446 -382 -273 0
-1446 -382 -281 0
-1446 -382 -289 0
-1446 -382 -332 0
-1446 -382 -340 0
-1446 -382 -348 0
-1446 -382 -390 0
-1446 -382 -398 0
-1446 -382 -406 0
-1446 -383 698 0
-1446 -383 -434 -441 0
-1446 -383 -275 0
-1446 -383 -283 0
-1446 -383 -291 0
-1446 -383 -334 0
-1446 -383 -342 0
-1446 -383 -350 0
-1446 -383 -392 0
-1446 -383 -400 0
-1446 -383 -408 0
-1446 -384 0
-1447 442 0
-1447 692 0
-1447 -380 0
-1447 -381 696 0
-1447 -381 -435 -439 0
-1447 -381 -279 0
-1447 -381 -287 0
-1447 -381 -295 0
-1447 -381 -338 0
-1447 -381 -346 0
-1447 -381 -354 0
-1447 -381 -396 0
-1447 -381 -404 0
-1447 -381 -412 0
-1447 -382 697 0
-1447 -382 -435 -440 0
-1447 -382 -281 0
-1447 -382 -289 0
-1447 -382 -297 0
-1447 -382 -340 0
-1447 -382 -348 0
-1447 -382 -356 0
-1447 -382 -398 0
-1447 -382 -406 0
-1447 -382 -414 0
-1447 -383 698 0
-1447 -383 -435 -441 0
-1447 -383 -283 0
-1447 -383 -291 0
-1447 -383 -299 0
-1447 -383 -342 0
-1447 -383 -350 0
-1447 -383 -358 0
-1447 -383 -400 0
-1447 -383 -408 0
-1447 -383 -416 0
-1447 -384 0
-1448 442 0
-1448 693 0
-1448 -376 0
-1448 -381 696 0
-1448 -381 -436 -439 0
-1448 -381 -287 0
-1448 -381 -295 0
-1448 -381 -303 0
-1448 -381 -346 0
-1448 -381 -354 0
-1448 -381 -362 0
-1448 -381 -404 0
-1448 -381 -412 0
-1448 -381 -420 0
-1448 -382 697 0
-1448 -382 -436 -440 0
-1448 -382 -289 0
-1448 -382 -297 0
-1448 -382 -305 0
-1448 -382 -348 0
-1448 -382 -356 0
-1448 -382 -364 0
-1448 -382 -406 0
-1448 -382 -414 0
-1448 -382 -422 0
-1448 -383 698 0
-1448 -383 -436 -441 0
-1448 -383 -291 0
-1448 -383 -299 0
-1448 -383 -307 0
-1448 -383 -350 0
-1448 -383 -358 0
-1448 -383 -366 0
-1448 -383 -408 0
-1448 -383 -416 0
-1448 -383 -424 0
-1448 -384 0
-1449 442 0
-1449 694 0
-1449 -376 0
-1449 -377 0
-1449 -381 696 0
-1449 -381 -437 -439 0
-1449 -381 -295 0
-1449 -381 -303 0
-1449 -381 -311 0
-1449 -381 -354 0
-1449 -381 -362 0
-1449 -381 -370 0
-1449 -381 -412 0
-1449 -381 -420 0
-1449 -381 -428 0
-1449 -382 697 0
-1449 -382 -437 -440 0
-1449 -382 -297 0
-1449 -382 -305 0
-1449 -382 -313 0
-1449 -382 -356 0
-1449 -382 -364 0
-1449 -382 -372 0
-1449 -382 -414 0
-1449 -382 -422 0
-1449 -382 -430 0
-1449 -383 698 0
-1449 -383 -437 -441 0
-1449 -383 -299 0
-1449 -383 -307 0
-1449 -383 -315 0
-1449 -383 -358 0
-1449 -383 -366 0
-1449 -383 -374 0
-1449 -383 -416 0
-1449 -383 -424 0
-1449 -383 -432 0
-1449 -384 0
-1450 442 0
-1450 691 0
-1450 695 0
-1450 -434 -438 0
-1450 -269 0
-1450 -277 0
-1450 -285 0
-1450 -328 0
-1450 -336 0
-1450 -344 0
-1450 -386 0
-1450 -394 0
-1450 -402 0
-1451 442 0
-1451 692 0
-1451 695 0
-1451 -435 -438 0
-1451 -277 0
-1451 -285 0
-1451 -293 0
-1451 -336 0
-1451 -344 0
-1451 -352 0
-1451 -394 0
-1451 -402 0
-1451 -410 0
-1452 442 0
-1452 693 0
-1452 695 0
-1452 -436 -438 0
-1452 -285 0
-1452 -293 0
-1452 -301 0
-1452 -344 0
-1452 -352 0
-1452 -360 0
-1452 -402 0
-1452 -410 0
-1452 -418 0
-1453 442 0
-1453 694 0
-1453 695 0
-1453 -437 -438 0
-1453 -293 0
-1453 -301 0
-1453 -309 0
-1453 -352 0
-1453 -360 0
-1453 -368 0
-1453 -410 0
-1453 -418 0
-1453 -426 0
-258 515 1370 1371 1372 1373 1374 1375 1376 1377 1378 1379 1380 1381 1382 1383 1384 1385 1386 1387 1388 1389 1390 1391 1392 1393 0
-259 516 1370 1371 1372 1373 1374 1375 1376 1377 1378 1379 1380 1381 1382 1383 1384 1385 1386 1387 1388 1389 1390 1391 1392 1393 0
-260 517 1370 1371 1372 1373 1374 1375 1376 1377 1378 1379 1380 1381 1382 1383 1384 1385 1386 1387 1388 1389 1390 1391 1392 1393 0
-261 518 1370 1371 1372 1373 1374 1375 1376 1377 1378 1379 1380 1381 1382 1383 1384 1385 1386 1387 1388 1389 1390 1391 1392 1393 0
-262 519 1370 1371 1372 1373 1374 1375 1376 1377 1378 1379 1380 1381 1382 1383 1384 1385 1386 1387 1388 1389 1390 1391 1392 1393 0
-263 520 1370 1371 1372 1373 1374 1375 1376 1377 1378 1379 1380 1381 1382 1383 1384 1385 1386 1387 1388 1389 1390 1391 1392 1393 0
-264 521 1370 1371 1372 1373 1374 1375 1376 1377 1378 1379 1380 1381 1382 1383 1384 1385 1386 1387 1388 1389 1390 1391 1392 1393 0
-265 522 1370 1371 1372 1373 1374 1375 1376 1377 1378 1379 1380 1381 1382 1383 1384 1385 1386 1387 1388 1389 1390 1391 1392 1393 0
-266 523 1370 1371 1372 1373 1374 1375 1376 1377 1378 1379 1380 1381 1382 1383 1384 1385 1386 1387 1388 1389 1390 1391 1392 1393 0
-267 524 1370 1371 1372 1373 1374 1375 1376 1377 1378 1379 1380 1381 1382 1383 1384 1385 1386 1387 1388 1389 1390 1391 1392 1393 0
-317 574 1394 1395 1396 1397 1398 1399 1400 1401 1402 1403 1404 1405 1406 1407 1408 1409 1410 1411 1412 1413 1414 1415 1416 1417 0
-318 575 1394 1395 1396 1397 1398 1399 1400 1401 1402 1403 1404 1405 1406 1407 1408 1409 1410 1411 1412 1413 1414 1415 1416 1417 0
-319 576 1394 1395 1396 1397 1398 1399 1400 1401 1402 1403 1404 1405 1406 1407 1408 1409 1410 1411 1412 1413 1414 1415 1416 1417 0
-320 577 1394 1395 1396 1397 1398 1399 1400 1401 1402 1403 1404 1405 1406 1407 1408 1409 1410 1411 1412 1413 1414 1415 1416 1417 0
-321 578 1394 1395 1396 1397 1398 1399 1400 1401 1402 1403 1404 1405 1406 1407 1408 1409 1410 1411 1412 1413 1414 1415 1416 1417 0
-322 579 1394 1395 1396 1397 1398 1399 1400 1401 1402 1403 1404 1405 1406 1407 1408 1409 1410 1411 1412 1413 1414 1415 1416 1417 0
-323 580 1394 1395 1396 1397 1398 1399 1400 1401 1402 1403 1404 1405 1406 1407 1408 1409 1410 1411 1412 1413 1414 1415 1416 1417 0
-324 581 1394 1395 1396 1397 1398 1399 1400 1401 1402 1403 1404 1405 1406 1407 1408 1409 1410 1411 1412 1413 1414 1415 1416 1417 0
-325 582 1394 1395 1396 1397 1398 1399 1400 1401 1402 1403 1404 1405 1406 1407 1408 1409 1410 1411 1412 1413 1414 1415 1416 1417 0
-326 583 1394 1395 1396 1397 1398 1399 1400 1401 1402 1403 1404 1405 1406 1407 1408 1409 1410 1411 1412 1413 1414 1415 1416 1417 0
-376 633 1418 1419 1420 1421 1422 1423 1424 1425 1426 1427 1428 1429 1430 1431 1432 1433 1434 1435 1436 1437 0
-377 634 1418 1419 1420 1421 1422 1423 1424 1425 1426 1427 1428 1429 1430 1431 1432 1433 1434 1435 1436 1437 0
-378 635 1418 1419 1420 1421 1422 1423 1424 1425 1426 1427 1428 1429 1430 1431 1432 1433 1434 1435 1436 1437 0
-379 636 1418 1419 1420 1421 1422 1423 1424 1425 1426 1427 1428 1429 1430 1431 1432 1433 1434 1435 1436 1437 0
-380 637 1418 1419 1420 1421 1422 1423 1424 1425 1426 1427 1428 1429 1430 1431 1432 1433 1434 1435 1436 1437 0
-381 638 1418 1419 1420 1421 1422 1423 1424 1425 1426 1427 1428 1429 1430 1431 1432 1433 1434 1435 1436 1437 0
-382 639 1418 1419 1420 1421 1422 1423 1424 1425 1426 1427 1428 1429 1430 1431 1432 1433 1434 1435 1436 1437 0
-383 640 1418 1419 1420 1421 1422 1423 1424 1425 1426 1427 1428 1429 1430 1431 1432 1433 1434 1435 1436 1437 0
-384 641 1418 1419 1420 1421 1422 1423 1424 1425 1426 1427 1428 1429 1430 1431 1432 1433 1434 1435 1436 1437 0
-434 691 1438 1439 1440 1441 1442 1443 1444 1445 1446 1447 1448 1449 1450 1451 1452 1453 0
-435 692 1438 1439 1440 1441 1442 1443 1444 1445 1446 1447 1448 1449 1450 1451 1452 1453 0
-436 693 1438 1439 1440 1441 1442 1443 1444 1445 1446 1447 1448 1449 1450 1451 1452 1453 0
-437 694 1438 1439 1440 1441 1442 1443 1444 1445 1446 1447 1448 1449 1450 1451 1452 1453 0
-438 695 1438 1439 1440 1441 1442 1443 1444 1445 1446 1447 1448 1449 1450 1451 1452 1453 0
-439 696 1438 1439 1440 1441 1442 1443 1444 1445 1446 1447 1448 1449 1450 1451 1452 1453 0
-440 697 1438 1439 1440 1441 1442 1443 1444 1445 1446 1447 1448 1449 1450 1451 1452 1453 0
-441 698 1438 1439 1440 1441 1442 1443 1444 1445 1446 1447 1448 1449 1450 1451 1452 1453 0
-1454 -1455 0
-1454 -1456 0
-1454 -1457 0
-1454 -1458 0
-1454 -1459 0
-1454 -1460 0
-1454 -1461 0
-1454 -1462 0
-1454 -1463 0
-1454 -1464 0
-1454 -1465 0
-1454 -1466 0
-1454 -1467 0
-1454 -1468 0
-1454 -1469 0
-1454 -1470 0
-1454 -1471 0
-1454 -1472 0
-1454 -1473 0
-1454 -1474 0
-1454 -1475 0
-1454 -1476 0
-1454 -1477 0
-1454 -1478 0
-1454 -1479 0
-1454 -1480 0
-1454 -1481 0
-1454 -1482 0
-1454 -1483 0
-1454 -1484 0
-1454 -1485 0
-1454 -1486 0
-1454 -1487 0
-1454 -1488 0
-1454 -1489 0
-1454 -1490 0
-1454 -1491 0
-1454 -1492 0
-1454 -1493 0
-1454 -1494 0
-1454 -1495 0
-1454 -1496 0
-1454 -1497 0
-1454 -1498 0
-1454 -1499 0
-1454 -1500 0
-1454 -1501 0
-1454 -1502 0
-1454 -1503 0
-1454 -1504 0
-1454 -1505 0
-1454 -1506 0
-1454 -1507 0
-1454 -1508 0
-1454 -1509 0
-1454 -1510 0
-1454 -1511 0
-1454 -1512 0
-1454 -1513 0
-1454 -1514 0
-1454 -1515 0
-1454 -1516 0
-1454 -1517 0
-1454 -1518 0
-1454 -1519 0
-1454 -1520 0
-1454 -1521 0
-1454 -1522 0
-1454 -1523 0
-1454 -1524 0
-1454 -1525 0
-1454 -1526 0
-1454 -1527 0
-1454 -1528 0
-1454 -1529 0
-1454 -1530 0
-1454 -1531 0
-1454 -1532 0
-1454 -1533 0
-1454 -1534 0
-1454 -1535 0
-1454 -1536 0
-1454 -1537 0
-1455 -1456 0
-1455 -1457 0
-1455 -1458 0
-1455 -1459 0
-1455 -1460 0
-1455 -1461 0
-1455 -1462 0
-1455 -1463 0
-1455 -1464 0
-1455 -1465 0
-1455 -1466 0
-1455 -1467 0
-1455 -1468 0
-1455 -1469 0
-1455 -1470 0
-1455 -1471 0
-1455 -1472 0
-1455 -1473 0
-1455 -1474 0
-1455 -1475 0
-1455 -1476 0
-1455 -1477 0
-1455 -1478 0
-1455 -1479 0
-1455 -1480 0
-1455 -1481 0
-1455 -1482 0
-1455 -1483 0
-1455 -1484 0
-1455 -1485 0
-1455 -1486 0
-1455 -1487 0
-1455 -1488 0
-1455 -1489 0
-1455 -1490 0
-1455 -1491 0
-1455 -1492 0
-1455 -1493 0
-1455 -1494 0
-1455 -1495 0
-1455 -1496 0
-1455 -1497 0
-1455 -1498 0
-1455 -1499 0
-1455 -1500 0
-1455 -1501 0
-1455 -1502 0
-1455 -1503 0
-1455 -1504 0
-1455 -1505 0
-1455 -1506 0
-1455 -1507 0
-1455 -1508 0
-1455 -1509 0
-1455 -1510 0
-1455 -1511 0
-1455 -1512 0
-1455 -1513 0
-1455 -1514 0
-1455 -1515 0
-1455 -1516 0
-1455 -1517 0
-1455 -1518 0
-1455 -1519 0
-1455 -1520 0
-1455 -1521 0
-1455 -1522 0
-1455 -1523 0
-1455 -1524 0
-1455 -1525 0
-1455 -1526 0
-1455 -1527 0
-1455 -1528 0
-1455 -1529 0
-1455 -1530 0
-1455 -1531 0
-1455 -1532 0
-1455 -1533 0
-1455 -1534 0
-1455 -1535 0
-1455 -1536 0
-1455 -1537 0
-1456 -1457 0
-1456 -1458 0
-1456 -1459 0
-1456 -1460 0
-1456 -1461 0
-1456 -1462 0
-1456 -1463 0
-1456 -1464 0
-1456 -1465 0
-1456 -1466 0
-1456 -1467 0
-1456 -1468 0
-1456 -1469 0
-1456 -1470 0
-1456 -1471 0
-1456 -1472 0
-1456 -1473 0
-1456 -1474 0
-1456 -1475 0
-1456 -1476 0
-1456 -1477 0
-1456 -1478 0
-1456 -1479 0
-1456 -1480 0
-1456 -1481 0
-1456 -1482 0
-1456 -1483 0
-1456 -1484 0
-1456 -1485 0
-1456 -1486 0
-1456 -1487 0
-1456 -1488 0
-1456 -1489 0
-1456 -1490 0
-1456 -1491 0
-1456 -1492 0
-1456 -1493 0
-1456 -1494 0
-1456 -1495 0
-1456 -1496 0
-1456 -1497 0
-1456 -1498 0
-1456 -1499 0
-1456 -1500 0
-1456 -1501 0
-1456 -1502 0
-1456 -1503 0
-1456 -1504 0
-1456 -1505 0
-1456 -1506 0
-1456 -1507 0
-1456 -1508 0
-1456 -1509 0
-1456 -1510 0
-1456 -1511 0
-1456 -1512 0
-1456 -1513 0
-1456 -1514 0
-1456 -1515 0
-1456 -1516 0
-1456 -1517 0
-1456 -1518 0
-1456 -1519 0
-1456 -1520 0
-1456 -1521 0
-1456 -1522 0
-1456 -1523 0
-1456 -1524 0
-1456 -1525 0
-1456 -1526 0
-1456 -1527 0
-1456 -1528 0
-1456 -1529 0
-1456 -1530 0
-1456 -1531 0
-1456 -1532 0
-1456 -1533 0
-1456 -1534 0
-1456 -1535 0
-1456 -1536 0
-1456 -1537 0
-1457 -1458 0
-1457 -1459 0
-1457 -1460 0
-1457 -1461 0
-1457 -1462 0
-1457 -1463 0
-1457 -1464 0
-1457 -1465 0
-1457 -1466 0
-1457 -1467 0
-1457 -1468 0
-1457 -1469 0
-1457 -1470 0
-1457 -1471 0
-1457 -1472 0
-1457 -1473 0
-1457 -1474 0
-1457 -1475 0
-1457 -1476 0
-1457 -1477 0
-1457 -1478 0
-1457 -1479 0
-1457 -1480 0
-1457 -1481 0
-1457 -1482 0
-1457 -1483 0
-1457 -1484 0
-1457 -1485 0
-1457 -1486 0
-1457 -1487 0
-1457 -1488 0
-1457 -1489 0
-1457 -1490 0
-1457 -1491 0
-1457 -1492 0
-1457 -1493 0
-1457 -1494 0
-1457 -1495 0
-1457 -1496 0
-1457 -1497 0
-1457 -1498 0
-1457 -1499 0
-1457 -1500 0
-1457 -1501 0
-1457 -1502 0
-1457 -1503 0
-1457 -1504 0
-1457 -1505 0
-1457 -1506 0
-1457 -1507 0
-1457 -1508 0
-1457 -1509 0
-1457 -1510 0
-1457 -1511 0
-1457 -1512 0
-1457 -1513 0
-1457 -1514 0
-1457 -1515 0
-1457 -1516 0
-1457 -1517 0
-1457 -1518 0
-1457 -1519 0
-1457 -1520 0
-1457 -1521 0
-1457 -1522 0
-1457 -1523 0
-1457 -1524 0
-1457 -1525 0
-1457 -1526 0
-1457 -1527 0
-1457 -1528 0
-1457 -1529 0
-1457 -1530 0
-1457 -1531 0
-1457 -1532 0
-1457 -1533 0
-1457 -1534 0
-1457 -1535 0
-1457 -1536 0
-1457 -1537 0
-1458 -1459 0
-1458 -1460 0
-1458 -1461 0
-1458 -1462 0
-1458 -1463 0
-1458 -1464 0
-1458 -1465 0
-1458 -1466 0
-1458 -1467 0
-1458 -1468 0
-1458 -1469 0
-1458 -1470 0
-1458 -1471 0
-1458 -1472 0
-1458 -1473 0
-1458 -1474 0
-1458 -1475 0
-1458 -1476 0
-1458 -1477 0
-1458 -1478 0
-1458 -1479 0
-1458 -1480 0
-1458 -1481 0
-1458 -1482 0
-1458 -1483 0
-1458 -1484 0
-1458 -1485 0
-1458 -1486 0
-1458 -1487 0
-1458 -1488 0
-1458 -1489 0
-1458 -1490 0
-1458 -1491 0
-1458 -1492 0
-1458 -1493 0
-1458 -1494 0
-1458 -1495 0
-1458 -1496 0
-1458 -1497 0
-1458 -1498 0
-1458 -1499 0
-1458 -1500 0
-1458 -1501 0
-1458 -1502 0
-1458 -1503 0
-1458 -1504 0
-1458 -1505 0
-1458 -1506 0
-1458 -1507 0
-1458 -1508 0
-1458 -1509 0
-1458 -1510 0
-1458 -1511 0
-1458 -1512 0
-1458 -1513 0
-1458 -1514 0
-1458 -1515 0
-1458 -1516 0
-1458 -1517 0
-1458 -1518 0
-1458 -1519 0
-1458 -1520 0
-1458 -1521 0
-1458 -1522 0
-1458 -1523 0
-1458 -1524 0
-1458 -1525 0
-1458 -1526 0
-1458 -1527 0
-1458 -1528 0
-1458 -1529 0
-1458 -1530 0
-1458 -1531 0
-1458 -1532 0
-1458 -1533 0
-1458 -1534 0
-1458 -1535 0
-1458 -1536 0
-1458 -1537 0
-1459 -1460 0
-1459 -1461 0
-1459 -1462 0
-1459 -1463 0
-1459 -1464 0
-1459 -1465 0
-1459 -1466 0
-1459 -1467 0
-1459 -1468 0
-1459 -1469 0
-1459 -1470 0
-1459 -1471 0
-1459 -1472 0
-1459 -1473 0
-1459 -1474 0
-1459 -1475 0
-1459 -1476 0
-1459 -1477 0
-1459 -1478 0
-1459 -1479 0
-1459 -1480 0
-1459 -1481 0
-1459 -1482 0
-1459 -1483 0
-1459 -1484 0
-1459 -1485 0
-1459 -1486 0
-1459 -1487 0
-1459 -1488 0
-1459 -1489 0
-1459 -1490 0
-1459 -1491 0
-1459 -1492 0
-1459 -1493 0
-1459 -1494 0
-1459 -1495 0
-1459 -1496 0
-1459 -1497 0
-1459 -1498 0
-1459 -1499 0
-1459 -1500 0
-1459 -1501 0
-1459 -1502 0
-1459 -1503 0
-1459 -1504 0
-1459 -1505 0
-1459 -1506 0
-1459 -1507 0
-1459 -1508 0
-1459 -1509 0
-1459 -1510 0
-1459 -1511 0
-1459 -1512 0
-1459 -1513 0
-1459 -1514 0
-1459 -1515 0
-1459 -1516 0
-1459 -1517 0
-1459 -1518 0
-1459 -1519 0
-1459 -1520 0
-1459 -1521 0
-1459 -1522 0
-1459 -1523 0
-1459 -1524 0
-1459 -1525 0
-1459 -1526 0
-1459 -1527 0
-1459 -1528 0
-1459 -1529 0
-1459 -1530 0
-1459 -1531 0
-1459 -1532 0
-1459 -1533 0
-1459 -1534 0
-1459 -1535 0
-1459 -1536 0
-1459 -1537 0
-1460 -1461 0
-1460 -1462 0
-1460 -1463 0
-1460 -1464 0
-1460 -1465 0
-1460 -1466 0
-1460 -1467 0
-1460 -1468 0
-1460 -1469 0
-1460 -1470 0
-1460 -1471 0
-1460 -1472 0
-1460 -1473 0
-1460 -1474 0
-1460 -1475 0
-1460 -1476 0
-1460 -1477 0
-1460 -1478 0
-1460 -1479 0
-1460 -1480 0
-1460 -1481 0
-1460 -1482 0
-1460 -1483 0
-1460 -1484 0
-1460 -1485 0
-1460 -1486 0
-1460 -1487 0
-1460 -1488 0
-1460 -1489 0
-1460 -1490 0
-1460 -1491 0
-1460 -1492 0
-1460 -1493 0
-1460 -1494 0
-1460 -1495 0
-1460 -1496 0
-1460 -1497 0
-1460 -1498 0
-1460 -1499 0
-1460 -1500 0
-1460 -1501 0
-1460 -1502 0
-1460 -1503 0
-1460 -1504 0
-1460 -1505 0
-1460 -1506 0
-1460 -1507 0
-1460 -1508 0
-1460 -1509 0
-1460 -1510 0
-1460 -1511 0
-1460 -1512 0
-1460 -1513 0
-1460 -1514 0
-1460 -1515 0
-1460 -1516 0
-1460 -1517 0
-1460 -1518 0
-1460 -1519 0
-1460 -1520 0
-1460 -1521 0
-1460 -1522 0
-1460 -1523 0
-1460 -1524 0
-1460 -1525 0
-1460 -1526 0
-1460 -1527 0
-1460 -1528 0
-1460 -1529 0
-1460 -1530 0
-1460 -1531 0
-1460 -1532 0
-1460 -1533 0
-1460 -1534 0
-1460 -1535 0
-1460 -1536 0
-1460 -1537 0
-1461 -1462 0
-1461 -1463 0
-1461 -1464 0
-1461 -1465 0
-1461 -1466 0
-1461 -1467 0
-1461 -1468 0
-1461 -1469 0
-1461 -1470 0
-1461 -1471 0
-1461 -1472 0
-1461 -1473 0
-1461 -1474 0
-1461 -1475 0
-1461 -1476 0
-1461 -1477 0
-1461 -1478 0
-1461 -1479 0
-1461 -1480 0
-1461 -1481 0
-1461 -1482 0
-1461 -1483 0
-1461 -1484 0
-1461 -1485 0
-1461 -1486 0
-1461 -1487 0
-1461 -1488 0
-1461 -1489 0
-1461 -1490 0
-1461 -1491 0
-1461 -1492 0
-1461 -1493 0
-1461 -1494 0
-1461 -1495 0
-1461 -1496 0
-1461 -1497 0
-1461 -1498 0
-1461 -1499 0
-1461 -1500 0
-1461 -1501 0
-1461 -1502 0
-1461 -1503 0
-1461 -1504 0
-1461 -1505 0
-1461 -1506 0
-1461 -1507 0
-1461 -1508 0
-1461 -1509 0
-1461 -1510 0
-1461 -1511 0
-1461 -1512 0
-1461 -1513 0
-1461 -1514 0
-1461 -1515 0
-1461 -1516 0
-1461 -1517 0
-1461 -1518 0
-1461 -1519 0
-1461 -1520 0
-1461 -1521 0
-1461 -1522 0
-1461 -1523 0
-1461 -1524 0
-1461 -1525 0
-1461 -1526 0
-1461 -1527 0
-1461 -1528 0
-1461 -1529 0
-1461 -1530 0
-1461 -1531 0
-1461 -1532 0
-1461 -1533 0
-1461 -1534 0
-1461 -1535 0
-1461 -1536 0
-1461 -1537 0
-1462 -1463 0
-1462 -1464 0
-1462 -1465 0
-1462 -1466 0
-1462 -1467 0
-1462 -1468 0
-1462 -1469 0
-1462 -1470 0
-1462 -1471 0
-1462 -1472 0
-1462 -1473 0
-1462 -1474 0
-1462 -1475 0
-1462 -1476 0
-1462 -1477 0
-1462 -1478 0
-1462 -1479 0
-1462 -1480 0
-1462 -1481 0
-1462 -1482 0
-1462 -1483 0
-1462 -1484 0
-1462 -1485 0
-1462 -1486 0
-1462 -1487 0
-1462 -1488 0
-1462 -1489 0
-1462 -1490 0
-1462 -1491 0
-1462 -1492 0
-1462 -1493 0
-1462 -1494 0
-1462 -1495 0
-1462 -1496 0
-1462 -1497 0
-1462 -1498 0
-1462 -1499 0
-1462 -1500 0
-1462 -1501 0
-1462 -1502 0
-1462 -1503 0
-1462 -1504 0
-1462 -1505 0
-1462 -1506 0
-1462 -1507 0
-1462 -1508 0
-1462 -1509 0
-1462 -1510 0
-1462 -1511 0
-1462 -1512 0
-1462 -1513 0
-1462 -1514 0
-1462 -1515 0
-1462 -1516 0
-1462 -1517 0
-1462 -1518 0
-1462 -1519 0
-1462 -1520 0
-1462 -1521 0
-1462 -1522 0
-1462 -1523 0
-1462 -1524 0
-1462 -1525 0
-1462 -1526 0
-1462 -1527 0
-1462 -1528 0
-1462 -1529 0
-1462 -1530 0
-1462 -1531 0
-1462 -1532 0
-1462 -1533 0
-1462 -1534 0
-1462 -1535 0
-1462 -1536 0
-1462 -1537 0
-1463 -1464 0
-1463 -1465 0
-1463 -1466 0
-1463 -1467 0
-1463 -1468 0
-1463 -1469 0
-1463 -1470 0
-1463 -1471 0
-1463 -1472 0
-1463 -1473 0
-1463 -1474 0
-1463 -1475 0
-1463 -1476 0
-1463 -1477 0
-1463 -1478 0
-1463 -1479 0
-1463 -1480 0
-1463 -1481 0
-1463 -1482 0
-1463 -1483 0
-1463 -1484 0
-1463 -1485 0
-1463 -1486 0
-1463 -1487 0
-1463 -1488 0
-1463 -1489 0
-1463 -1490 0
-1463 -1491 0
-1463 -1492 0
-1463 -1493 0
-1463 -1494 0
-1463 -1495 0
-1463 -1496 0
-1463 -1497 0
-1463 -1498 0
-1463 -1499 0
-1463 -1500 0
-1463 -1501 0
-1463 -1502 0
-1463 -1503 0
-1463 -1504 0
-1463 -1505 0
-1463 -1506 0
-1463 -1507 0
-1463 -1508 0
-1463 -1509 0
-1463 -1510 0
-1463 -1511 0
-1463 -1512 0
-1463 -1513 0
-1463 -1514 0
-1463 -1515 0
-1463 -1516 0
-1463 -1517 0
-1463 -1518 0
-1463 -1519 0
-1463 -1520 0
-1463 -1521 0
-1463 -1522 0
-1463 -1523 0
-1463 -1524 0
-1463 -1525 0
-1463 -1526 0
-1463 -1527 0
-1463 -1528 0
-1463 -1529 0
-1463 -1530 0
-1463 -1531 0
-1463 -1532 0
-1463 -1533 0
-1463 -1534 0
-1463 -1535 0
-1463 -1536 0
-1463 -1537 0
-1464 -1465 0
-1464 -1466 0
-1464 -1467 0
-1464 -1468 0
-1464 -1469 0
-1464 -1470 0
-1464 -1471 0
-1464 -1472 0
-1464 -1473 0
-1464 -1474 0
-1464 -1475 0
-1464 -1476 0
-1464 -1477 0
-1464 -1478 0
-1464 -1479 0
-1464 -1480 0
-1464 -1481 0
-1464 -1482 0
-1464 -1483 0
-1464 -1484 0
-1464 -1485 0
-1464 -1486 0
-1464 -1487 0
-1464 -1488 0
-1464 -1489 0
-1464 -1490 0
-1464 -1491 0
-1464 -1492 0
-1464 -1493 0
-1464 -1494 0
-1464 -1495 0
-1464 -1496 0
-1464 -1497 0
-1464 -1498 0
-1464 -1499 0
-1464 -1500 0
-1464 -1501 0
-1464 -1502 0
-1464 -1503 0
-1464 -1504 0
-1464 -1505 0
-1464 -1506 0
-1464 -1507 0
-1464 -1508 0
-1464 -1509 0
-1464 -1510 0
-1464 -1511 0
-1464 -1512 0
-1464 -1513 0
-1464 -1514 0
-1464 -1515 0
-1464 -1516 0
-1464 -1517 0
-1464 -1518 0
-1464 -1519 0
-1464 -1520 0
-1464 -1521 0
-1464 -1522 0
-1464 -1523 0
-1464 -1524 0
-1464 -1525 0
-1464 -1526 0
-1464 -1527 0
-1464 -1528 0
-1464 -1529 0
-1464 -1530 0
-1464 -1531 0
-1464 -1532 0
-1464 -1533 0
-1464 -1534 0
-1464 -1535 0
-1464 -1536 0
-1464 -1537 0
-1465 -1466 0
-1465 -1467 0
-1465 -1468 0
-1465 -1469 0
-1465 -1470 0
-1465 -1471 0
-1465 -1472 0
-1465 -1473 0
-1465 -1474 0
-1465 -1475 0
-1465 -1476 0
-1465 -1477 0
-1465 -1478 0
-1465 -1479 0
-1465 -1480 0
-1465 -1481 0
-1465 -1482 0
-1465 -1483 0
-1465 -1484 0
-1465 -1485 0
-1465 -1486 0
-1465 -1487 0
-1465 -1488 0
-1465 -1489 0
-1465 -1490 0
-1465 -1491 0
-1465 -1492 0
-1465 -1493 0
-1465 -1494 0
-1465 -1495 0
-1465 -1496 0
-1465 -1497 0
-1465 -1498 0
-1465 -1499 0
-1465 -1500 0
-1465 -1501 0
-1465 -1502 0
-1465 -1503 0
-1465 -1504 0
-1465 -1505 0
-1465 -1506 0
-1465 -1507 0
-1465 -1508 0
-1465 -1509 0
-1465 -1510 0
-1465 -1511 0
-1465 -1512 0
-1465 -1513 0
-1465 -1514 0
-1465 -1515 0
-1465 -1516 0
-1465 -1517 0
-1465 -1518 0
-1465 -1519 0
-1465 -1520 0
-1465 -1521 0
-1465 -1522 0
-1465 -1523 0
-1465 -1524 0
-1465 -1525 0
-1465 -1526 0
-1465 -1527 0
-1465 -1528 0
-1465 -1529 0
-1465 -1530 0
-1465 -1531 0
-1465 -1532 0
-1465 -1533 0
-1465 -1534 0
-1465 -1535 0
-1465 -1536 0
-1465 -1537 0
-1466 -1467 0
-1466 -1468 0
-1466 -1469 0
-1466 -1470 0
-1466 -1471 0
-1466 -1472 0
-1466 -1473 0
-1466 -1474 0
-1466 -1475 0
-1466 -1476 0
-1466 -1477 0
-1466 -1478 0
-1466 -1479 0
-1466 -1480 0
-1466 -1481 0
-1466 -1482 0
-1466 -1483 0
-1466 -1484 0
-1466 -1485 0
-1466 -1486 0
-1466 -1487 0
-1466 -1488 0
-1466 -1489 0
-1466 -1490 0
-1466 -1491 0
-1466 -1492 0
-1466 -1493 0
-1466 -1494 0
-1466 -1495 0
-1466 -1496 0
-1466 -1497 0
-1466 -1498 0
-1466 -1499 0
-1466 -1500 0
-1466 -1501 0
-1466 -1502 0
-1466 -1503 0
-1466 -1504 0
-1466 -1505 0
-1466 -1506 0
-1466 -1507 0
-1466 -1508 0
-1466 -1509 0
-1466 -1510 0
-1466 -1511 0
-1466 -1512 0
-1466 -1513 0
-1466 -1514 0
-1466 -1515 0
-1466 -1516 0
-1466 -1517 0
-1466 -1518 0
-1466 -1519 0
-1466 -1520 0
-1466 -1521 0
-1466 -1522 0
-1466 -1523 0
-1466 -1524 0
-1466 -1525 0
-1466 -1526 0
-1466 -1527 0
-1466 -1528 0
-1466 -1529 0
-1466 -1530 0
-1466 -1531 0
-1466 -1532 0
-1466 -1533 0
-1466 -1534 0
-1466 -1535 0
-1466 -1536 0
-1466 -1537 0
-1467 -1468 0
-1467 -1469 0
-1467 -1470 0
-1467 -1471 0
-1467 -1472 0
-1467 -1473 0
-1467 -1474 0
-1467 -1475 0
-1467 -1476 0
-1467 -1477 0
-1467 -1478 0
-1467 -1479 0
-1467 -1480 0
-1467 -1481 0
-1467 -1482 0
-1467 -1483 0
-1467 -1484 0
-1467 -1485 0
-1467 -1486 0
-1467 -1487 0
-1467 -1488 0
-1467 -1489 0
-1467 -1490 0
-1467 -1491 0
-1467 -1492 0
-1467 -1493 0
-1467 -1494 0
-1467 -1495 0
-1467 -1496 0
-1467 -1497 0
-1467 -1498 0
-1467 -1499 0
-1467 -1500 0
-1467 -1501 0
-1467 -1502 0
-1467 -1503 0
-1467 -1504 0
-1467 -1505 0
-1467 -1506 0
-1467 -1507 0
-1467 -1508 0
-1467 -1509 0
-1467 -1510 0
-1467 -1511 0
-1467 -1512 0
-1467 -1513 0
-1467 -1514 0
-1467 -1515 0
-1467 -1516 0
-1467 -1517 0
-1467 -1518 0
-1467 -1519 0
-1467 -1520 0
-1467 -1521 0
-1467 -1522 0
-1467 -1523 0
-1467 -1524 0
-1467 -1525 0
-1467 -1526 0
-1467 -1527 0
-1467 -1528 0
-1467 -1529 0
-1467 -1530 0
-1467 -1531 0
-1467 -1532 0
-1467 -1533 0
-1467 -1534 0
-1467 -1535 0
-1467 -1536 0
-1467 -1537 0
-1468 -1469 0
-1468 -1470 0
-1468 -1471 0
-1468 -1472 0
-1468 -1473 0
-1468 -1474 0
-1468 -1475 0
-1468 -1476 0
-1468 -1477 0
-1468 -1478 0
-1468 -1479 0
-1468 -1480 0
-1468 -1481 0
-1468 -1482 0
-1468 -1483 0
-1468 -1484 0
-1468 -1485 0
-1468 -1486 0
-1468 -1487 0
-1468 -1488 0
-1468 -1489 0
-1468 -1490 0
-1468 -1491 0
-1468 -1492 0
-1468 -1493 0
-1468 -1494 0
-1468 -1495 0
-1468 -1496 0
-1468 -1497 0
-1468 -1498 0
-1468 -1499 0
-1468 -1500 0
-1468 -1501 0
-1468 -1502 0
-1468 -1503 0
-1468 -1504 0
-1468 -1505 0
-1468 -1506 0
-1468 -1507 0
-1468 -1508 0
-1468 -1509 0
-1468 -1510 0
-1468 -1511 0
-1468 -1512 0
-1468 -1513 0
-1468 -1514 0
-1468 -1515 0
-1468 -1516 0
-1468 -1517 0
-1468 -1518 0
-1468 -1519 0
-1468 -1520 0
-1468 -1521 0
-1468 -1522 0
-1468 -1523 0
-1468 -1524 0
-1468 -1525 0
-1468 -1526 0
-1468 -1527 0
-1468 -1528 0
-1468 -1529 0
-1468 -1530 0
-1468 -1531 0
-1468 -1532 0
-1468 -1533 0
-1468 -1534 0
-1468 -1535 0
-1468 -1536 0
-1468 -1537 0
-1469 -1470 0
-1469 -1471 0
-1469 -1472 0
-1469 -1473 0
-1469 -1474 0
-1469 -1475 0
-1469 -1476 0
-1469 -1477 0
-1469 -1478 0
-1469 -1479 0
-1469 -1480 0
-1469 -1481 0
-1469 -1482 0
-1469 -1483 0
-1469 -1484 0
-1469 -1485 0
-1469 -1486 0
-1469 -1487 0
-1469 -1488 0
-1469 -1489 0
-1469 -1490 0
-1469 -1491 0
-1469 -1492 0
-1469 -1493 0
-1469 -1494 0
-1469 -1495 0
-1469 -1496 0
-1469 -1497 0
-1469 -1498 0
-1469 -1499 0
-1469 -1500 0
-1469 -1501 0
-1469 -1502 0
-1469 -1503 0
-1469 -1504 0
-1469 -1505 0
-1469 -1506 0
-1469 -1507 0
-1469 -1508 0
-1469 -1509 0
-1469 -1510 0
-1469 -1511 0
-1469 -1512 0
-1469 -1513 0
-1469 -1514 0
-1469 -1515 0
-1469 -1516 0
-1469 -1517 0
-1469 -1518 0
-1469 -1519 0
-1469 -1520 0
-1469 -1521 0
-1469 -1522 0
-1469 -1523 0
-1469 -1524 0
-1469 -1525 0
-1469 -1526 0
-1469 -1527 0
-1469 -1528 0
-1469 -1529 0
-1469 -1530 0
-1469 -1531 0
-1469 -1532 0
-1469 -1533 0
-1469 -1534 0
-1469 -1535 0
-1469 -1536 0
-1469 -1537 0
-1470 -1471 0
-1470 -1472 0
-1470 -1473 0
-1470 -1474 0
-1470 -1475 0
-1470 -1476 0
-1470 -1477 0
-1470 -1478 0
-1470 -1479 0
-1470 -1480 0
-1470 -1481 0
-1470 -1482 0
-1470 -1483 0
-1470 -1484 0
-1470 -1485 0
-1470 -1486 0
-1470 -1487 0
-1470 -1488 0
-1470 -1489 0
-1470 -1490 0
-1470 -1491 0
-1470 -1492 0
-1470 -1493 0
-1470 -1494 0
-1470 -1495 0
-1470 -1496 0
-1470 -1497 0
-1470 -1498 0
-1470 -1499 0
-1470 -1500 0
-1470 -1501 0
-1470 -1502 0
-1470 -1503 0
-1470 -1504 0
-1470 -1505 0
-1470 -1506 0
-1470 -1507 0
-1470 -1508 0
-1470 -1509 0
-1470 -1510 0
-1470 -1511 0
-1470 -1512 0
-1470 -1513 0
-1470 -1514 0
-1470 -1515 0
-1470 -1516 0
-1470 -1517 0
-1470 -1518 0
-1470 -1519 0
-1470 -1520 0
-1470 -1521 0
-1470 -1522 0
-1470 -1523 0
-1470 -1524 0
-1470 -1525 0
-1470 -1526 0
-1470 -1527 0
-1470 -1528 0
-1470 -1529 0
-1470 -1530 0
-1470 -1531 0
-1470 -1532 0
-1470 -1533 0
-1470 -1534 0
-1470 -1535 0
-1470 -1536 0
-1470 -1537 0
-1471 -1472 0
-1471 -1473 0
-1471 -1474 0
-1471 -1475 0
-1471 -1476 0
-1471 -1477 0
-1471 -1478 0
-1471 -1479 0
-1471 -1480 0
-1471 -1481 0
-1471 -1482 0
-1471 -1483 0
-1471 -1484 0
-1471 -1485 0
-1471 -1486 0
-1471 -1487 0
-1471 -1488 0
-1471 -1489 0
-1471 -1490 0
-1471 -1491 0
-1471 -1492 0
-1471 -1493 0
-1471 -1494 0
-1471 -1495 0
-1471 -1496 0
-1471 -1497 0
-1471 -1498 0
-1471 -1499 0
-1471 -1500 0
-1471 -1501 0
-1471 -1502 0
-1471 -1503 0
-1471 -1504 0
-1471 -1505 0
-1471 -1506 0
-1471 -1507 0
-1471 -1508 0
-1471 -1509 0
-1471 -1510 0
-1471 -1511 0
-1471 -1512 0
-1471 -1513 0
-1471 -1514 0
-1471 -1515 0
-1471 -1516 0
-1471 -1517 0
-1471 -1518 0
-1471 -1519 0
-1471 -1520 0
-1471 -1521 0
-1471 -1522 0
-1471 -1523 0
-1471 -1524 0
-1471 -1525 0
-1471 -1526 0
-1471 -1527 0
-1471 -1528 0
-1471 -1529 0
-1471 -1530 0
-1471 -1531 0
-1471 -1532 0
-1471 -1533 0
-1471 -1534 0
-1471 -1535 0
-1471 -1536 0
-1471 -1537 0
-1472 -1473 0
-1472 -1474 0
-1472 -1475 0
-1472 -1476 0
-1472 -1477 0
-1472 -1478 0
-1472 -1479 0
-1472 -1480 0
-1472 -1481 0
-1472 -1482 0
-1472 -1483 0
-1472 -1484 0
-1472 -1485 0
-1472 -1486 0
-1472 -1487 0
-1472 -1488 0
-1472 -1489 0
-1472 -1490 0
-1472 -1491 0
-1472 -1492 0
-1472 -1493 0
-1472 -1494 0
-1472 -1495 0
-1472 -1496 0
-1472 -1497 0
-1472 -1498 0
-1472 -1499 0
-1472 -1500 0
-1472 -1501 0
-1472 -1502 0
-1472 -1503 0
-1472 -1504 0
-1472 -1505 0
-1472 -1506 0
-1472 -1507 0
-1472 -1508 0
-1472 -1509 0
-1472 -1510 0
-1472 -1511 0
-1472 -1512 0
-1472 -1513 0
-1472 -1514 0
-1472 -1515 0
-1472 -1516 0
-1472 -1517 0
-1472 -1518 0
-1472 -1519 0
-1472 -1520 0
-1472 -1521 0
-1472 -1522 0
-1472 -1523 0
-1472 -1524 0
-1472 -1525 0
-1472 -1526 0
-1472 -1527 0
-1472 -1528 0
-1472 -1529 0
-1472 -1530 0
-1472 -1531 0
-1472 -1532 0
-1472 -1533 0
-1472 -1534 0
-1472 -1535 0
-1472 -1536 0
-1472 -1537 0
-1473 -1474 0
-1473 -1475 0
-1473 -1476 0
-1473 -1477 0
-1473 -1478 0
-1473 -1479 0
-1473 -1480 0
-1473 -1481 0
-1473 -1482 0
-1473 -1483 0
-1473 -1484 0
-1473 -1485 0
-1473 -1486 0
-1473 -1487 0
-1473 -1488 0
-1473 -1489 0
-1473 -1490 0
-1473 -1491 0
-1473 -1492 0
-1473 -1493 0
-1473 -1494 0
-1473 -1495 0
-1473 -1496 0
-1473 -1497 0
-1473 -1498 0
-1473 -1499 0
-1473 -1500 0
-1473 -1501 0
-1473 -1502 0
-1473 -1503 0
-1473 -1504 0
-1473 -1505 0
-1473 -1506 0
-1473 -1507 0
-1473 -1508 0
-1473 -1509 0
-1473 -1510 0
-1473 -1511 0
-1473 -1512 0
-1473 -1513 0
-1473 -1514 0
-1473 -1515 0
-1473 -1516 0
-1473 -1517 0
-1473 -1518 0
-1473 -1519 0
-1473 -1520 0
-1473 -1521 0
-1473 -1522 0
-1473 -1523 0
-1473 -1524 0
-1473 -1525 0
-1473 -1526 0
-1473 -1527 0
-1473 -1528 0
-1473 -1529 0
-1473 -1530 0
-1473 -1531 0
-1473 -1532 0
-1473 -1533 0
-1473 -1534 0
-1473 -1535 0
-1473 -1536 0
-1473 -1537 0
-1474 -1475 0
-1474 -1476 0
-1474 -1477 0
-1474 -1478 0
-1474 -1479 0
-1474 -1480 0
-1474 -1481 0
-1474 -1482 0
-1474 -1483 0
-1474 -1484 0
-1474 -1485 0
-1474 -1486 0
-1474 -1487 0
-1474 -1488 0
-1474 -1489 0
-1474 -1490 0
-1474 -1491 0
-1474 -1492 0
-1474 -1493 0
-1474 -1494 0
-1474 -1495 0
-1474 -1496 0
-1474 -1497 0
-1474 -1498 0
-1474 -1499 0
-1474 -1500 0
-1474 -1501 0
-1474 -1502 0
-1474 -1503 0
-1474 -1504 0
-1474 -1505 0
-1474 -1506 0
-1474 -1507 0
-1474 -1508 0
-1474 -1509 0
-1474 -1510 0
-1474 -1511 0
-1474 -1512 0
-1474 -1513 0
-1474 -1514 0
-1474 -1515 0
-1474 -1516 0
-1474 -1517 0
-1474 -1518 0
-1474 -1519 0
-1474 -1520 0
-1474 -1521 0
-1474 -1522 0
-1474 -1523 0
-1474 -1524 0
-1474 -1525 0
-1474 -1526 0
-1474 -1527 0
-1474 -1528 0
-1474 -1529 0
-1474 -1530 0
-1474 -1531 0
-1474 -1532 0
-1474 -1533 0
-1474 -1534 0
-1474 -1535 0
-1474 -1536 0
-1474 -1537 0
-1475 -1476 0
-1475 -1477 0
-1475 -1478 0
-1475 -1479 0
-1475 -1480 0
-1475 -1481 0
-1475 -1482 0
-1475 -1483 0
-1475 -1484 0
-1475 -1485 0
-1475 -1486 0
-1475 -1487 0
-1475 -1488 0
-1475 -1489 0
-1475 -1490 0
-1475 -1491 0
-1475 -1492 0
-1475 -1493 0
-1475 -1494 0
-1475 -1495 0
-1475 -1496 0
-1475 -1497 0
-1475 -1498 0
-1475 -1499 0
-1475 -1500 0
-1475 -1501 0
-1475 -1502 0
-1475 -1503 0
-1475 -1504 0
-1475 -1505 0
-1475 -1506 0
-1475 -1507 0
-1475 -1508 0
-1475 -1509 0
-1475 -1510 0
-1475 -1511 0
-1475 -1512 0
-1475 -1513 0
-1475 -1514 0
-1475 -1515 0
-1475 -1516 0
-1475 -1517 0
-1475 -1518 0
-1475 -1519 0
-1475 -1520 0
-1475 -1521 0
-1475 -1522 0
-1475 -1523 0
-1475 -1524 0
-1475 -1525 0
-1475 -1526 0
-1475 -1527 0
-1475 -1528 0
-1475 -1529 0
-1475 -1530 0
-1475 -1531 0
-1475 -1532 0
-1475 -1533 0
-1475 -1534 0
-1475 -1535 0
-1475 -1536 0
-1475 -1537 0
-1476 -1477 0
-1476 -1478 0
-1476 -1479 0
-1476 -1480 0
-1476 -1481 0
-1476 -1482 0
-1476 -1483 0
-1476 -1484 0
-1476 -1485 0
-1476 -1486 0
-1476 -1487 0
-1476 -1488 0
-1476 -1489 0
-1476 -1490 0
-1476 -1491 0
-1476 -1492 0
-1476 -1493 0
-1476 -1494 0
-1476 -1495 0
-1476 -1496 0
-1476 -1497 0
-1476 -1498 0
-1476 -1499 0
-1476 -1500 0
-1476 -1501 0
-1476 -1502 0
-1476 -1503 0
-1476 -1504 0
-1476 -1505 0
-1476 -1506 0
-1476 -1507 0
-1476 -1508 0
-1476 -1509 0
-1476 -1510 0
-1476 -1511 0
-1476 -1512 0
-1476 -1513 0
-1476 -1514 0
-1476 -1515 0
-1476 -1516 0
-1476 -1517 0
-1476 -1518 0
-1476 -1519 0
-1476 -1520 0
-1476 -1521 0
-1476 -1522 0
-1476 -1523 0
-1476 -1524 0
-1476 -1525 0
-1476 -1526 0
-1476 -1527 0
-1476 -1528 0
-1476 -1529 0
-1476 -1530 0
-1476 -1531 0
-1476 -1532 0
-1476 -1533 0
-1476 -1534 0
-1476 -1535 0
-1476 -1536 0
-1476 -1537 0
-1477 -1478 0
-1477 -1479 0
-1477 -1480 0
-1477 -1481 0
-1477 -1482 0
-1477 -1483 0
-1477 -1484 0
-1477 -1485 0
-1477 -1486 0
-1477 -1487 0
-1477 -1488 0
-1477 -1489 0
-1477 -1490 0
-1477 -1491 0
-1477 -1492 0
-1477 -1493 0
-1477 -1494 0
-1477 -1495 0
-1477 -1496 0
-1477 -1497 0
-1477 -1498 0
-1477 -1499 0
-1477 -1500 0
-1477 -1501 0
-1477 -1502 0
-1477 -1503 0
-1477 -1504 0
-1477 -1505 0
-1477 -1506 0
-1477 -1507 0
-1477 -1508 0
-1477 -1509 0
-1477 -1510 0
-1477 -1511 0
-1477 -1512 0
-1477 -1513 0
-1477 -1514 0
-1477 -1515 0
-1477 -1516 0
-1477 -1517 0
-1477 -1518 0
-1477 -1519 0
-1477 -1520 0
-1477 -1521 0
-1477 -1522 0
-1477 -1523 0
-1477 -1524 0
-1477 -1525 0
-1477 -1526 0
-1477 -1527 0
-1477 -1528 0
-1477 -1529 0
-1477 -1530 0
-1477 -1531 0
-1477 -1532 0
-1477 -1533 0
-1477 -1534 0
-1477 -1535 0
-1477 -1536 0
-1477 -1537 0
-1478 -1479 0
-1478 -1480 0
-1478 -1481 0
-1478 -1482 0
-1478 -1483 0
-1478 -1484 0
-1478 -1485 0
-1478 -1486 0
-1478 -1487 0
-1478 -1488 0
-1478 -1489 0
-1478 -1490 0
-1478 -1491 0
-1478 -1492 0
-1478 -1493 0
-1478 -1494 0
-1478 -1495 0
-1478 -1496 0
-1478 -1497 0
-1478 -1498 0
-1478 -1499 0
-1478 -1500 0
-1478 -1501 0
-1478 -1502 0
-1478 -1503 0
-1478 -1504 0
-1478 -1505 0
-1478 -1506 0
-1478 -1507 0
-1478 -1508 0
-1478 -1509 0
-1478 -1510 0
-1478 -1511 0
-1478 -1512 0
-1478 -1513 0
-1478 -1514 0
-1478 -1515 0
-1478 -1516 0
-1478 -1517 0
-1478 -1518 0
-1478 -1519 0
-1478 -1520 0
-1478 -1521 0
-1478 -1522 0
-1478 -1523 0
-1478 -1524 0
-1478 -1525 0
-1478 -1526 0
-1478 -1527 0
-1478 -1528 0
-1478 -1529 0
-1478 -1530 0
-1478 -1531 0
-1478 -1532 0
-1478 -1533 0
-1478 -1534 0
-1478 -1535 0
-1478 -1536 0
-1478 -1537 0
-1479 -1480 0
-1479 -1481 0
-1479 -1482 0
-1479 -1483 0
-1479 -1484 0
-1479 -1485 0
-1479 -1486 0
-1479 -1487 0
-1479 -1488 0
-1479 -1489 0
-1479 -1490 0
-1479 -1491 0
-1479 -1492 0
-1479 -1493 0
-1479 -1494 0
-1479 -1495 0
-1479 -1496 0
-1479 -1497 0
-1479 -1498 0
-1479 -1499 0
-1479 -1500 0
-1479 -1501 0
-1479 -1502 0
-1479 -1503 0
-1479 -1504 0
-1479 -1505 0
-1479 -1506 0
-1479 -1507 0
-1479 -1508 0
-1479 -1509 0
-1479 -1510 0
-1479 -1511 0
-1479 -1512 0
-1479 -1513 0
-1479 -1514 0
-1479 -1515 0
-1479 -1516 0
-1479 -1517 0
-1479 -1518 0
-1479 -1519 0
-1479 -1520 0
-1479 -1521 0
-1479 -1522 0
-1479 -1523 0
-1479 -1524 0
-1479 -1525 0
-1479 -1526 0
-1479 -1527 0
-1479 -1528 0
-1479 -1529 0
-1479 -1530 0
-1479 -1531 0
-1479 -1532 0
-1479 -1533 0
-1479 -1534 0
-1479 -1535 0
-1479 -1536 0
-1479 -1537 0
-1480 -1481 0
-1480 -1482 0
-1480 -1483 0
-1480 -1484 0
-1480 -1485 0
-1480 -1486 0
-1480 -1487 0
-1480 -1488 0
-1480 -1489 0
-1480 -1490 0
-1480 -1491 0
-1480 -1492 0
-1480 -1493 0
-1480 -1494 0
-1480 -1495 0
-1480 -1496 0
-1480 -1497 0
-1480 -1498 0
-1480 -1499 0
-1480 -1500 0
-1480 -1501 0
-1480 -1502 0
-1480 -1503 0
-1480 -1504 0
-1480 -1505 0
-1480 -1506 0
-1480 -1507 0
-1480 -1508 0
-1480 -1509 0
-1480 -1510 0
-1480 -1511 0
-1480 -1512 0
-1480 -1513 0
-1480 -1514 0
-1480 -1515 0
-1480 -1516 0
-1480 -1517 0
-1480 -1518 0
-1480 -1519 0
-1480 -1520 0
-1480 -1521 0
-1480 -1522 0
-1480 -1523 0
-1480 -1524 0
-1480 -1525 0
-1480 -1526 0
-1480 -1527 0
-1480 -1528 0
-1480 -1529 0
-1480 -1530 0
-1480 -1531 0
-1480 -1532 0
-1480 -1533 0
-1480 -1534 0
-1480 -1535 0
-1480 -1536 0
-1480 -1537 0
-1481 -1482 0
-1481 -1483 0
-1481 -1484 0
-1481 -1485 0
-1481 -1486 0
-1481 -1487 0
-1481 -1488 0
-1481 -1489 0
-1481 -1490 0
-1481 -1491 0
-1481 -1492 0
-1481 -1493 0
-1481 -1494 0
-1481 -1495 0
-1481 -1496 0
-1481 -1497 0
-1481 -1498 0
-1481 -1499 0
-1481 -1500 0
-1481 -1501 0
-1481 -1502 0
-1481 -1503 0
-1481 -1504 0
-1481 -1505 0
-1481 -1506 0
-1481 -1507 0
-1481 -1508 0
-1481 -1509 0
-1481 -1510 0
-1481 -1511 0
-1481 -1512 0
-1481 -1513 0
-1481 -1514 0
-1481 -1515 0
-1481 -1516 0
-1481 -1517 0
-1481 -1518 0
-1481 -1519 0
-1481 -1520 0
-1481 -1521 0
-1481 -1522 0
-1481 -1523 0
-1481 -1524 0
-1481 -1525 0
-1481 -1526 0
-1481 -1527 0
-1481 -1528 0
-1481 -1529 0
-1481 -1530 0
-1481 -1531 0
-1481 -1532 0
-1481 -1533 0
-1481 -1534 0
-1481 -1535 0
-1481 -1536 0
-1481 -1537 0
-1482 -1483 0
-1482 -1484 0
-1482 -1485 0
-1482 -1486 0
-1482 -1487 0
-1482 -1488 0
-1482 -1489 0
-1482 -1490 0
-1482 -1491 0
-1482 -1492 0
-1482 -1493 0
-1482 -1494 0
-1482 -1495 0
-1482 -1496 0
-1482 -1497 0
-1482 -1498 0
-1482 -1499 0
-1482 -1500 0
-1482 -1501 0
-1482 -1502 0
-1482 -1503 0
-1482 -1504 0
-1482 -1505 0
-1482 -1506 0
-1482 -1507 0
-1482 -1508 0
-1482 -1509 0
-1482 -1510 0
-1482 -1511 0
-1482 -1512 0
-1482 -1513 0
-1482 -1514 0
-1482 -1515 0
-1482 -1516 0
-1482 -1517 0
-1482 -1518 0
-1482 -1519 0
-1482 -1520 0
-1482 -1521 0
-1482 -1522 0
-1482 -1523 0
-1482 -1524 0
-1482 -1525 0
-1482 -1526 0
-1482 -1527 0
-1482 -1528 0
-1482 -1529 0
-1482 -1530 0
-1482 -1531 0
-1482 -1532 0
-1482 -1533 0
-1482 -1534 0
-1482 -1535 0
-1482 -1536 0
-1482 -1537 0
-1483 -1484 0
-1483 -1485 0
-1483 -1486 0
-1483 -1487 0
-1483 -1488 0
-1483 -1489 0
-1483 -1490 0
-1483 -1491 0
-1483 -1492 0
-1483 -1493 0
-1483 -1494 0
-1483 -1495 0
-1483 -1496 0
-1483 -1497 0
-1483 -1498 0
-1483 -1499 0
-1483 -1500 0
-1483 -1501 0
-1483 -1502 0
-1483 -1503 0
-1483 -1504 0
-1483 -1505 0
-1483 -1506 0
-1483 -1507 0
-1483 -1508 0
-1483 -1509 0
-1483 -1510 0
-1483 -1511 0
-1483 -1512 0
-1483 -1513 0
-1483 -1514 0
-1483 -1515 0
-1483 -1516 0
-1483 -1517 0
-1483 -1518 0
-1483 -1519 0
-1483 -1520 0
-1483 -1521 0
-1483 -1522 0
-1483 -1523 0
-1483 -1524 0
-1483 -1525 0
-1483 -1526 0
-1483 -1527 0
-1483 -1528 0
-1483 -1529 0
-1483 -1530 0
-1483 -1531 0
-1483 -1532 0
-1483 -1533 0
-1483 -1534 0
-1483 -1535 0
-1483 -1536 0
-1483 -1537 0
-1484 -1485 0
-1484 -1486 0
-1484 -1487 0
-1484 -1488 0
-1484 -1489 0
-1484 -1490 0
-1484 -1491 0
-1484 -1492 0
-1484 -1493 0
-1484 -1494 0
-1484 -1495 0
-1484 -1496 0
-1484 -1497 0
-1484 -1498 0
-1484 -1499 0
-1484 -1500 0
-1484 -1501 0
-1484 -1502 0
-1484 -1503 0
-1484 -1504 0
-1484 -1505 0
-1484 -1506 0
-1484 -1507 0
-1484 -1508 0
-1484 -1509 0
-1484 -1510 0
-1484 -1511 0
-1484 -1512 0
-1484 -1513 0
-1484 -1514 0
-1484 -1515 0
-1484 -1516 0
-1484 -1517 0
-1484 -1518 0
-1484 -1519 0
-1484 -1520 0
-1484 -1521 0
-1484 -1522 0
-1484 -1523 0
-1484 -1524 0
-1484 -1525 0
-1484 -1526 0
-1484 -1527 0
-1484 -1528 0
-1484 -1529 0
-1484 -1530 0
-1484 -1531 0
-1484 -1532 0
-1484 -1533 0
-1484 -1534 0
-1484 -1535 0
-1484 -1536 0
-1484 -1537 0
-1485 -1486 0
-1485 -1487 0
-1485 -1488 0
-1485 -1489 0
-1485 -1490 0
-1485 -1491 0
-1485 -1492 0
-1485 -1493 0
-1485 -1494 0
-1485 -1495 0
-1485 -1496 0
-1485 -1497 0
-1485 -1498 0
-1485 -1499 0
-1485 -1500 0
-1485 -1501 0
-1485 -1502 0
-1485 -1503 0
-1485 -1504 0
-1485 -1505 0
-1485 -1506 0
-1485 -1507 0
-1485 -1508 0
-1485 -1509 0
-1485 -1510 0
-1485 -1511 0
-1485 -1512 0
-1485 -1513 0
-1485 -1514 0
-1485 -1515 0
-1485 -1516 0
-1485 -1517 0
-1485 -1518 0
-1485 -1519 0
-1485 -1520 0
-1485 -1521 0
-1485 -1522 0
-1485 -1523 0
-1485 -1524 0
-1485 -1525 0
-1485 -1526 0
-1485 -1527 0
-1485 -1528 0
-1485 -1529 0
-1485 -1530 0
-1485 -1531 0
-1485 -1532 0
-1485 -1533 0
-1485 -1534 0
-1485 -1535 0
-1485 -1536 0
-1485 -1537 0
-1486 -1487 0
-1486 -1488 0
-1486 -1489 0
-1486 -1490 0
-1486 -1491 0
-1486 -1492 0
-1486 -1493 0
-1486 -1494 0
-1486 -1495 0
-1486 -1496 0
-1486 -1497 0
-1486 -1498 0
-1486 -1499 0
-1486 -1500 0
-1486 -1501 0
-1486 -1502 0
-1486 -1503 0
-1486 -1504 0
-1486 -1505 0
-1486 -1506 0
-1486 -1507 0
-1486 -1508 0
-1486 -1509 0
-1486 -1510 0
-1486 -1511 0
-1486 -1512 0
-1486 -1513 0
-1486 -1514 0
-1486 -1515 0
-1486 -1516 0
-1486 -1517 0
-1486 -1518 0
-1486 -1519 0
-1486 -1520 0
-1486 -1521 0
-1486 -1522 0
-1486 -1523 0
-1486 -1524 0
-1486 -1525 0
-1486 -1526 0
-1486 -1527 0
-1486 -1528 0
-1486 -1529 0
-1486 -1530 0
-1486 -1531 0
-1486 -1532 0
-1486 -1533 0
-1486 -1534 0
-1486 -1535 0
-1486 -1536 0
-1486 -1537 0
-1487 -1488 0
-1487 -1489 0
-1487 -1490 0
-1487 -1491 0
-1487 -1492 0
-1487 -1493 0
-1487 -1494 0
-1487 -1495 0
-1487 -1496 0
-1487 -1497 0
-1487 -1498 0
-1487 -1499 0
-1487 -1500 0
-1487 -1501 0
-1487 -1502 0
-1487 -1503 0
-1487 -1504 0
-1487 -1505 0
-1487 -1506 0
-1487 -1507 0
-1487 -1508 0
-1487 -1509 0
-1487 -1510 0
-1487 -1511 0
-1487 -1512 0
-1487 -1513 0
-1487 -1514 0
-1487 -1515 0
-1487 -1516 0
-1487 -1517 0
-1487 -1518 0
-1487 -1519 0
-1487 -1520 0
-1487 -1521 0
-1487 -1522 0
-1487 -1523 0
-1487 -1524 0
-1487 -1525 0
-1487 -1526 0
-1487 -1527 0
-1487 -1528 0
-1487 -1529 0
-1487 -1530 0
-1487 -1531 0
-1487 -1532 0
-1487 -1533 0
-1487 -1534 0
-1487 -1535 0
-1487 -1536 0
-1487 -1537 0
-1488 -1489 0
-1488 -1490 0
-1488 -1491 0
-1488 -1492 0
-1488 -1493 0
-1488 -1494 0
-1488 -1495 0
-1488 -1496 0
-1488 -1497 0
-1488 -1498 0
-1488 -1499 0
-1488 -1500 0
-1488 -1501 0
-1488 -1502 0
-1488 -1503 0
-1488 -1504 0
-1488 -1505 0
-1488 -1506 0
-1488 -1507 0
-1488 -1508 0
-1488 -1509 0
-1488 -1510 0
-1488 -1511 0
-1488 -1512 0
-1488 -1513 0
-1488 -1514 0
-1488 -1515 0
-1488 -1516 0
-1488 -1517 0
-1488 -1518 0
-1488 -1519 0
-1488 -1520 0
-1488 -1521 0
-1488 -1522 0
-1488 -1523 0
-1488 -1524 0
-1488 -1525 0
-1488 -1526 0
-1488 -1527 0
-1488 -1528 0
-1488 -1529 0
-1488 -1530 0
-1488 -1531 0
-1488 -1532 0
-1488 -1533 0
-1488 -1534 0
-1488 -1535 0
-1488 -1536 0
-1488 -1537 0
-1489 -1490 0
-1489 -1491 0
-1489 -1492 0
-1489 -1493 0
-1489 -1494 0
-1489 -1495 0
-1489 -1496 0
-1489 -1497 0
-1489 -1498 0
-1489 -1499 0
-1489 -1500 0
-1489 -1501 0
-1489 -1502 0
-1489 -1503 0
-1489 -1504 0
-1489 -1505 0
-1489 -1506 0
-1489 -1507 0
-1489 -1508 0
-1489 -1509 0
-1489 -1510 0
-1489 -1511 0
-1489 -1512 0
-1489 -1513 0
-1489 -1514 0
-1489 -1515 0
-1489 -1516 0
-1489 -1517 0
-1489 -1518 0
-1489 -1519 0
-1489 -1520 0
-1489 -1521 0
-1489 -1522 0
-1489 -1523 0
-1489 -1524 0
-1489 -1525 0
-1489 -1526 0
-1489 -1527 0
-1489 -1528 0
-1489 -1529 0
-1489 -1530 0
-1489 -1531 0
-1489 -1532 0
-1489 -1533 0
-1489 -1534 0
-1489 -1535 0
-1489 -1536 0
-1489 -1537 0
-1490 -1491 0
-1490 -1492 0
-1490 -1493 0
-1490 -1494 0
-1490 -1495 0
-1490 -1496 0
-1490 -1497 0
-1490 -1498 0
-1490 -1499 0
-1490 -1500 0
-1490 -1501 0
-1490 -1502 0
-1490 -1503 0
-1490 -1504 0
-1490 -1505 0
-1490 -1506 0
-1490 -1507 0
-1490 -1508 0
-1490 -1509 0
-1490 -1510 0
-1490 -1511 0
-1490 -1512 0
-1490 -1513 0
-1490 -1514 0
-1490 -1515 0
-1490 -1516 0
-1490 -1517 0
-1490 -1518 0
-1490 -1519 0
-1490 -1520 0
-1490 -1521 0
-1490 -1522 0
-1490 -1523 0
-1490 -1524 0
-1490 -1525 0
-1490 -1526 0
-1490 -1527 0
-1490 -1528 0
-1490 -1529 0
-1490 -1530 0
-1490 -1531 0
-1490 -1532 0
-1490 -1533 0
-1490 -1534 0
-1490 -1535 0
-1490 -1536 0
-1490 -1537 0
-1491 -1492 0
-1491 -1493 0
-1491 -1494 0
-1491 -1495 0
-1491 -1496 0
-1491 -1497 0
-1491 -1498 0
-1491 -1499 0
-1491 -1500 0
-1491 -1501 0
-1491 -1502 0
-1491 -1503 0
-1491 -1504 0
-1491 -1505 0
-1491 -1506 0
-1491 -1507 0
-1491 -1508 0
-1491 -1509 0
-1491 -1510 0
-1491 -1511 0
-1491 -1512 0
-1491 -1513 0
-1491 -1514 0
-1491 -1515 0
-1491 -1516 0
-1491 -1517 0
-1491 -1518 0
-1491 -1519 0
-1491 -1520 0
-1491 -1521 0
-1491 -1522 0
-1491 -1523 0
-1491 -1524 0
-1491 -1525 0
-1491 -1526 0
-1491 -1527 0
-1491 -1528 0
-1491 -1529 0
-1491 -1530 0
-1491 -1531 0
-1491 -1532 0
-1491 -1533 0
-1491 -1534 0
-1491 -1535 0
-1491 -1536 0
-1491 -1537 0
-1492 -1493 0
-1492 -1494 0
-1492 -1495 0
-1492 -1496 0
-1492 -1497 0
-1492 -1498 0
-1492 -1499 0
-1492 -1500 0
-1492 -1501 0
-1492 -1502 0
-1492 -1503 0
-1492 -1504 0
-1492 -1505 0
-1492 -1506 0
-1492 -1507 0
-1492 -1508 0
-1492 -1509 0
-1492 -1510 0
-1492 -1511 0
-1492 -1512 0
-1492 -1513 0
-1492 -1514 0
-1492 -1515 0
-1492 -1516 0
-1492 -1517 0
-1492 -1518 0
-1492 -1519 0
-1492 -1520 0
-1492 -1521 0
-1492 -1522 0
-1492 -1523 0
-1492 -1524 0
-1492 -1525 0
-1492 -1526 0
-1492 -1527 0
-1492 -1528 0
-1492 -1529 0
-1492 -1530 0
-1492 -1531 0
-1492 -1532 0
-1492 -1533 0
-1492 -1534 0
-1492 -1535 0
-1492 -1536 0
-1492 -1537 0
-1493 -1494 0
-1493 -1495 0
-1493 -1496 0
-1493 -1497 0
-1493 -1498 0
-1493 -1499 0
-1493 -1500 0
-1493 -1501 0
-1493 -1502 0
-1493 -1503 0
-1493 -1504 0
-1493 -1505 0
-1493 -1506 0
-1493 -1507 0
-1493 -1508 0
-1493 -1509 0
-1493 -1510 0
-1493 -1511 0
-1493 -1512 0
-1493 -1513 0
-1493 -1514 0
-1493 -1515 0
-1493 -1516 0
-1493 -1517 0
-1493 -1518 0
-1493 -1519 0
-1493 -1520 0
-1493 -1521 0
-1493 -1522 0
-1493 -1523 0
-1493 -1524 0
-1493 -1525 0
-1493 -1526 0
-1493 -1527 0
-1493 -1528 0
-1493 -1529 0
-1493 -1530 0
-1493 -1531 0
-1493 -1532 0
-1493 -1533 0
-1493 -1534 0
-1493 -1535 0
-1493 -1536 0
-1493 -1537 0
-1494 -1495 0
-1494 -1496 0
-1494 -1497 0
-1494 -1498 0
-1494 -1499 0
-1494 -1500 0
-1494 -1501 0
-1494 -1502 0
-1494 -1503 0
-1494 -1504 0
-1494 -1505 0
-1494 -1506 0
-1494 -1507 0
-1494 -1508 0
-1494 -1509 0
-1494 -1510 0
-1494 -1511 0
-1494 -1512 0
-1494 -1513 0
-1494 -1514 0
-1494 -1515 0
-1494 -1516 0
-1494 -1517 0
-1494 -1518 0
-1494 -1519 0
-1494 -1520 0
-1494 -1521 0
-1494 -1522 0
-1494 -1523 0
-1494 -1524 0
-1494 -1525 0
-1494 -1526 0
-1494 -1527 0
-1494 -1528 0
-1494 -1529 0
-1494 -1530 0
-1494 -1531 0
-1494 -1532 0
-1494 -1533 0
-1494 -1534 0
-1494 -1535 0
-1494 -1536 0
-1494 -1537 0
-1495 -1496 0
-1495 -1497 0
-1495 -1498 0
-1495 -1499 0
-1495 -1500 0
-1495 -1501 0
-1495 -1502 0
-1495 -1503 0
-1495 -1504 0
-1495 -1505 0
-1495 -1506 0
-1495 -1507 0
-1495 -1508 0
-1495 -1509 0
-1495 -1510 0
-1495 -1511 0
-1495 -1512 0
-1495 -1513 0
-1495 -1514 0
-1495 -1515 0
-1495 -1516 0
-1495 -1517 0
-1495 -1518 0
-1495 -1519 0
-1495 -1520 0
-1495 -1521 0
-1495 -1522 0
-1495 -1523 0
-1495 -1524 0
-1495 -1525 0
-1495 -1526 0
-1495 -1527 0
-1495 -1528 0
-1495 -1529 0
-1495 -1530 0
-1495 -1531 0
-1495 -1532 0
-1495 -1533 0
-1495 -1534 0
-1495 -1535 0
-1495 -1536 0
-1495 -1537 0
-1496 -1497 0
-1496 -1498 0
-1496 -1499 0
-1496 -1500 0
-1496 -1501 0
-1496 -1502 0
-1496 -1503 0
-1496 -1504 0
-1496 -1505 0
-1496 -1506 0
-1496 -1507 0
-1496 -1508 0
-1496 -1509 0
-1496 -1510 0
-1496 -1511 0
-1496 -1512 0
-1496 -1513 0
-1496 -1514 0
-1496 -1515 0
-1496 -1516 0
-1496 -1517 0
-1496 -1518 0
-1496 -1519 0
-1496 -1520 0
-1496 -1521 0
-1496 -1522 0
-1496 -1523 0
-1496 -1524 0
-1496 -1525 0
-1496 -1526 0
-1496 -1527 0
-1496 -1528 0
-1496 -1529 0
-1496 -1530 0
-1496 -1531 0
-1496 -1532 0
-1496 -1533 0
-1496 -1534 0
-1496 -1535 0
-1496 -1536 0
-1496 -1537 0
-1497 -1498 0
-1497 -1499 0
-1497 -1500 0
-1497 -1501 0
-1497 -1502 0
-1497 -1503 0
-1497 -1504 0
-1497 -1505 0
-1497 -1506 0
-1497 -1507 0
-1497 -1508 0
-1497 -1509 0
-1497 -1510 0
-1497 -1511 0
-1497 -1512 0
-1497 -1513 0
-1497 -1514 0
-1497 -1515 0
-1497 -1516 0
-1497 -1517 0
-1497 -1518 0
-1497 -1519 0
-1497 -1520 0
-1497 -1521 0
-1497 -1522 0
-1497 -1523 0
-1497 -1524 0
-1497 -1525 0
-1497 -1526 0
-1497 -1527 0
-1497 -1528 0
-1497 -1529 0
-1497 -1530 0
-1497 -1531 0
-1497 -1532 0
-1497 -1533 0
-1497 -1534 0
-1497 -1535 0
-1497 -1536 0
-1497 -1537 0
-1498 -1499 0
-1498 -1500 0
-1498 -1501 0
-1498 -1502 0
-1498 -1503 0
-1498 -1504 0
-1498 -1505 0
-1498 -1506 0
-1498 -1507 0
-1498 -1508 0
-1498 -1509 0
-1498 -1510 0
-1498 -1511 0
-1498 -1512 0
-1498 -1513 0
-1498 -1514 0
-1498 -1515 0
-1498 -1516 0
-1498 -1517 0
-1498 -1518 0
-1498 -1519 0
-1498 -1520 0
-1498 -1521 0
-1498 -1522 0
-1498 -1523 0
-1498 -1524 0
-1498 -1525 0
-1498 -1526 0
-1498 -1527 0
-1498 -1528 0
-1498 -1529 0
-1498 -1530 0
-1498 -1531 0
-1498 -1532 0
-1498 -1533 0
-1498 -1534 0
-1498 -1535 0
-1498 -1536 0
-1498 -1537 0
-1499 -1500 0
-1499 -1501 0
-1499 -1502 0
-1499 -1503 0
-1499 -1504 0
-1499 -1505 0
-1499 -1506 0
-1499 -1507 0
-1499 -1508 0
-1499 -1509 0
-1499 -1510 0
-1499 -1511 0
-1499 -1512 0
-1499 -1513 0
-1499 -1514 0
-1499 -1515 0
-1499 -1516 0
-1499 -1517 0
-1499 -1518 0
-1499 -1519 0
-1499 -1520 0
-1499 -1521 0
-1499 -1522 0
-1499 -1523 0
-1499 -1524 0
-1499 -1525 0
-1499 -1526 0
-1499 -1527 0
-1499 -1528 0
-1499 -1529 0
-1499 -1530 0
-1499 -1531 0
-1499 -1532 0
-1499 -1533 0
-1499 -1534 0
-1499 -1535 0
-1499 -1536 0
-1499 -1537 0
-1500 -1501 0
-1500 -1502 0
-1500 -1503 0
-1500 -1504 0
-1500 -1505 0
-1500 -1506 0
-1500 -1507 0
-1500 -1508 0
-1500 -1509 0
-1500 -1510 0
-1500 -1511 0
-1500 -1512 0
-1500 -1513 0
-1500 -1514 0
-1500 -1515 0
-1500 -1516 0
-1500 -1517 0
-1500 -1518 0
-1500 -1519 0
-1500 -1520 0
-1500 -1521 0
-1500 -1522 0
-1500 -1523 0
-1500 -1524 0
-1500 -1525 0
-1500 -1526 0
-1500 -1527 0
-1500 -1528 0
-1500 -1529 0
-1500 -1530 0
-1500 -1531 0
-1500 -1532 0
-1500 -1533 0
-1500 -1534 0
-1500 -1535 0
-1500 -1536 0
-1500 -1537 0
-1501 -1502 0
-1501 -1503 0
-1501 -1504 0
-1501 -1505 0
-1501 -1506 0
-1501 -1507 0
-1501 -1508 0
-1501 -1509 0
-1501 -1510 0
-1501 -1511 0
-1501 -1512 0
-1501 -1513 0
-1501 -1514 0
-1501 -1515 0
-1501 -1516 0
-1501 -1517 0
-1501 -1518 0
-1501 -1519 0
-1501 -1520 0
-1501 -1521 0
-1501 -1522 0
-1501 -1523 0
-1501 -1524 0
-1501 -1525 0
-1501 -1526 0
-1501 -1527 0
-1501 -1528 0
-1501 -1529 0
-1501 -1530 0
-1501 -1531 0
-1501 -1532 0
-1501 -1533 0
-1501 -1534 0
-1501 -1535 0
-1501 -1536 0
-1501 -1537 0
-1502 -1503 0
-1502 -1504 0
-1502 -1505 0
-1502 -1506 0
-1502 -1507 0
-1502 -1508 0
-1502 -1509 0
-1502 -1510 0
-1502 -1511 0
-1502 -1512 0
-1502 -1513 0
-1502 -1514 0
-1502 -1515 0
-1502 -1516 0
-1502 -1517 0
-1502 -1518 0
-1502 -1519 0
-1502 -1520 0
-1502 -1521 0
-1502 -1522 0
-1502 -1523 0
-1502 -1524 0
-1502 -1525 0
-1502 -1526 0
-1502 -1527 0
-1502 -1528 0
-1502 -1529 0
-1502 -1530 0
-1502 -1531 0
-1502 -1532 0
-1502 -1533 0
-1502 -1534 0
-1502 -1535 0
-1502 -1536 0
-1502 -1537 0
-1503 -1504 0
-1503 -1505 0
-1503 -1506 0
-1503 -1507 0
-1503 -1508 0
-1503 -1509 0
-1503 -1510 0
-1503 -1511 0
-1503 -1512 0
-1503 -1513 0
-1503 -1514 0
-1503 -1515 0
-1503 -1516 0
-1503 -1517 0
-1503 -1518 0
-1503 -1519 0
-1503 -1520 0
-1503 -1521 0
-1503 -1522 0
-1503 -1523 0
-1503 -1524 0
-1503 -1525 0
-1503 -1526 0
-1503 -1527 0
-1503 -1528 0
-1503 -1529 0
-1503 -1530 0
-1503 -1531 0
-1503 -1532 0
-1503 -1533 0
-1503 -1534 0
-1503 -1535 0
-1503 -1536 0
-1503 -1537 0
-1504 -1505 0
-1504 -1506 0
-1504 -1507 0
-1504 -1508 0
-1504 -1509 0
-1504 -1510 0
-1504 -1511 0
-1504 -1512 0
-1504 -1513 0
-1504 -1514 0
-1504 -1515 0
-1504 -1516 0
-1504 -1517 0
-1504 -1518 0
-1504 -1519 0
-1504 -1520 0
-1504 -1521 0
-1504 -1522 0
-1504 -1523 0
-1504 -1524 0
-1504 -1525 0
-1504 -1526 0
-1504 -1527 0
-1504 -1528 0
-1504 -1529 0
-1504 -1530 0
-1504 -1531 0
-1504 -1532 0
-1504 -1533 0
-1504 -1534 0
-1504 -1535 0
-1504 -1536 0
-1504 -1537 0
-1505 -1506 0
-1505 -1507 0
-1505 -1508 0
-1505 -1509 0
-1505 -1510 0
-1505 -1511 0
-1505 -1512 0
-1505 -1513 0
-1505 -1514 0
-1505 -1515 0
-1505 -1516 0
-1505 -1517 0
-1505 -1518 0
-1505 -1519 0
-1505 -1520 0
-1505 -1521 0
-1505 -1522 0
-1505 -1523 0
-1505 -1524 0
-1505 -1525 0
-1505 -1526 0
-1505 -1527 0
-1505 -1528 0
-1505 -1529 0
-1505 -1530 0
-1505 -1531 0
-1505 -1532 0
-1505 -1533 0
-1505 -1534 0
-1505 -1535 0
-1505 -1536 0
-1505 -1537 0
-1506 -1507 0
-1506 -1508 0
-1506 -1509 0
-1506 -1510 0
-1506 -1511 0
-1506 -1512 0
-1506 -1513 0
-1506 -1514 0
-1506 -1515 0
-1506 -1516 0
-1506 -1517 0
-1506 -1518 0
-1506 -1519 0
-1506 -1520 0
-1506 -1521 0
-1506 -1522 0
-1506 -1523 0
-1506 -1524 0
-1506 -1525 0
-1506 -1526 0
-1506 -1527 0
-1506 -1528 0
-1506 -1529 0
-1506 -1530 0
-1506 -1531 0
-1506 -1532 0
-1506 -1533 0
-1506 -1534 0
-1506 -1535 0
-1506 -1536 0
-1506 -1537 0
-1507 -1508 0
-1507 -1509 0
-1507 -1510 0
-1507 -1511 0
-1507 -1512 0
-1507 -1513 0
-1507 -1514 0
-1507 -1515 0
-1507 -1516 0
-1507 -1517 0
-1507 -1518 0
-1507 -1519 0
-1507 -1520 0
-1507 -1521 0
-1507 -1522 0
-1507 -1523 0
-1507 -1524 0
-1507 -1525 0
-1507 -1526 0
-1507 -1527 0
-1507 -1528 0
-1507 -1529 0
-1507 -1530 0
-1507 -1531 0
-1507 -1532 0
-1507 -1533 0
-1507 -1534 0
-1507 -1535 0
-1507 -1536 0
-1507 -1537 0
-1508 -1509 0
-1508 -1510 0
-1508 -1511 0
-1508 -1512 0
-1508 -1513 0
-1508 -1514 0
-1508 -1515 0
-1508 -1516 0
-1508 -1517 0
-1508 -1518 0
-1508 -1519 0
-1508 -1520 0
-1508 -1521 0
-1508 -1522 0
-1508 -1523 0
-1508 -1524 0
-1508 -1525 0
-1508 -1526 0
-1508 -1527 0
-1508 -1528 0
-1508 -1529 0
-1508 -1530 0
-1508 -1531 0
-1508 -1532 0
-1508 -1533 0
-1508 -1534 0
-1508 -1535 0
-1508 -1536 0
-1508 -1537 0
-1509 -1510 0
-1509 -1511 0
-1509 -1512 0
-1509 -1513 0
-1509 -1514 0
-1509 -1515 0
-1509 -1516 0
-1509 -1517 0
-1509 -1518 0
-1509 -1519 0
-1509 -1520 0
-1509 -1521 0
-1509 -1522 0
-1509 -1523 0
-1509 -1524 0
-1509 -1525 0
-1509 -1526 0
-1509 -1527 0
-1509 -1528 0
-1509 -1529 0
-1509 -1530 0
-1509 -1531 0
-1509 -1532 0
-1509 -1533 0
-1509 -1534 0
-1509 -1535 0
-1509 -1536 0
-1509 -1537 0
-1510 -1511 0
-1510 -1512 0
-1510 -1513 0
-1510 -1514 0
-1510 -1515 0
-1510 -1516 0
-1510 -1517 0
-1510 -1518 0
-1510 -1519 0
-1510 -1520 0
-1510 -1521 0
-1510 -1522 0
-1510 -1523 0
-1510 -1524 0
-1510 -1525 0
-1510 -1526 0
-1510 -1527 0
-1510 -1528 0
-1510 -1529 0
-1510 -1530 0
-1510 -1531 0
-1510 -1532 0
-1510 -1533 0
-1510 -1534 0
-1510 -1535 0
-1510 -1536 0
-1510 -1537 0
-1511 -1512 0
-1511 -1513 0
-1511 -1514 0
-1511 -1515 0
-1511 -1516 0
-1511 -1517 0
-1511 -1518 0
-1511 -1519 0
-1511 -1520 0
-1511 -1521 0
-1511 -1522 0
-1511 -1523 0
-1511 -1524 0
-1511 -1525 0
-1511 -1526 0
-1511 -1527 0
-1511 -1528 0
-1511 -1529 0
-1511 -1530 0
-1511 -1531 0
-1511 -1532 0
-1511 -1533 0
-1511 -1534 0
-1511 -1535 0
-1511 -1536 0
-1511 -1537 0
-1512 -1513 0
-1512 -1514 0
-1512 -1515 0
-1512 -1516 0
-1512 -1517 0
-1512 -1518 0
-1512 -1519 0
-1512 -1520 0
-1512 -1521 0
-1512 -1522 0
-1512 -1523 0
-1512 -1524 0
-1512 -1525 0
-1512 -1526 0
-1512 -1527 0
-1512 -1528 0
-1512 -1529 0
-1512 -1530 0
-1512 -1531 0
-1512 -1532 0
-1512 -1533 0
-1512 -1534 0
-1512 -1535 0
-1512 -1536 0
-1512 -1537 0
-1513 -1514 0
-1513 -1515 0
-1513 -1516 0
-1513 -1517 0
-1513 -1518 0
-1513 -1519 0
-1513 -1520 0
-1513 -1521 0
-1513 -1522 0
-1513 -1523 0
-1513 -1524 0
-1513 -1525 0
-1513 -1526 0
-1513 -1527 0
-1513 -1528 0
-1513 -1529 0
-1513 -1530 0
-1513 -1531 0
-1513 -1532 0
-1513 -1533 0
-1513 -1534 0
-1513 -1535 0
-1513 -1536 0
-1513 -1537 0
-1514 -1515 0
-1514 -1516 0
-1514 -1517 0
-1514 -1518 0
-1514 -1519 0
-1514 -1520 0
-1514 -1521 0
-1514 -1522 0
-1514 -1523 0
-1514 -1524 0
-1514 -1525 0
-1514 -1526 0
-1514 -1527 0
-1514 -1528 0
-1514 -1529 0
-1514 -1530 0
-1514 -1531 0
-1514 -1532 0
-1514 -1533 0
-1514 -1534 0
-1514 -1535 0
-1514 -1536 0
-1514 -1537 0
-1515 -1516 0
-1515 -1517 0
-1515 -1518 0
-1515 -1519 0
-1515 -1520 0
-1515 -1521 0
-1515 -1522 0
-1515 -1523 0
-1515 -1524 0
-1515 -1525 0
-1515 -1526 0
-1515 -1527 0
-1515 -1528 0
-1515 -1529 0
-1515 -1530 0
-1515 -1531 0
-1515 -1532 0
-1515 -1533 0
-1515 -1534 0
-1515 -1535 0
-1515 -1536 0
-1515 -1537 0
-1516 -1517 0
-1516 -1518 0
-1516 -1519 0
-1516 -1520 0
-1516 -1521 0
-1516 -1522 0
-1516 -1523 0
-1516 -1524 0
-1516 -1525 0
-1516 -1526 0
-1516 -1527 0
-1516 -1528 0
-1516 -1529 0
-1516 -1530 0
-1516 -1531 0
-1516 -1532 0
-1516 -1533 0
-1516 -1534 0
-1516 -1535 0
-1516 -1536 0
-1516 -1537 0
-1517 -1518 0
-1517 -1519 0
-1517 -1520 0
-1517 -1521 0
-1517 -1522 0
-1517 -1523 0
-1517 -1524 0
-1517 -1525 0
-1517 -1526 0
-1517 -1527 0
-1517 -1528 0
-1517 -1529 0
-1517 -1530 0
-1517 -1531 0
-1517 -1532 0
-1517 -1533 0
-1517 -1534 0
-1517 -1535 0
-1517 -1536 0
-1517 -1537 0
-1518 -1519 0
-1518 -1520 0
-1518 -1521 0
-1518 -1522 0
-1518 -1523 0
-1518 -1524 0
-1518 -1525 0
-1518 -1526 0
-1518 -1527 0
-1518 -1528 0
-1518 -1529 0
-1518 -1530 0
-1518 -1531 0
-1518 -1532 0
-1518 -1533 0
-1518 -1534 0
-1518 -1535 0
-1518 -1536 0
-1518 -1537 0
-1519 -1520 0
-1519 -1521 0
-1519 -1522 0
-1519 -1523 0
-1519 -1524 0
-1519 -1525 0
-1519 -1526 0
-1519 -1527 0
-1519 -1528 0
-1519 -1529 0
-1519 -1530 0
-1519 -1531 0
-1519 -1532 0
-1519 -1533 0
-1519 -1534 0
-1519 -1535 0
-1519 -1536 0
-1519 -1537 0
-1520 -1521 0
-1520 -1522 0
-1520 -1523 0
-1520 -1524 0
-1520 -1525 0
-1520 -1526 0
-1520 -1527 0
-1520 -1528 0
-1520 -1529 0
-1520 -1530 0
-1520 -1531 0
-1520 -1532 0
-1520 -1533 0
-1520 -1534 0
-1520 -1535 0
-1520 -1536 0
-1520 -1537 0
-1521 -1522 0
-1521 -1523 0
-1521 -1524 0
-1521 -1525 0
-1521 -1526 0
-1521 -1527 0
-1521 -1528 0
-1521 -1529 0
-1521 -1530 0
-1521 -1531 0
-1521 -1532 0
-1521 -1533 0
-1521 -1534 0
-1521 -1535 0
-1521 -1536 0
-1521 -1537 0
-1522 -1523 0
-1522 -1524 0
-1522 -1525 0
-1522 -1526 0
-1522 -1527 0
-1522 -1528 0
-1522 -1529 0
-1522 -1530 0
-1522 -1531 0
-1522 -1532 0
-1522 -1533 0
-1522 -1534 0
-1522 -1535 0
-1522 -1536 0
-1522 -1537 0
-1523 -1524 0
-1523 -1525 0
-1523 -1526 0
-1523 -1527 0
-1523 -1528 0
-1523 -1529 0
-1523 -1530 0
-1523 -1531 0
-1523 -1532 0
-1523 -1533 0
-1523 -1534 0
-1523 -1535 0
-1523 -1536 0
-1523 -1537 0
-1524 -1525 0
-1524 -1526 0
-1524 -1527 0
-1524 -1528 0
-1524 -1529 0
-1524 -1530 0
-1524 -1531 0
-1524 -1532 0
-1524 -1533 0
-1524 -1534 0
-1524 -1535 0
-1524 -1536 0
-1524 -1537 0
-1525 -1526 0
-1525 -1527 0
-1525 -1528 0
-1525 -1529 0
-1525 -1530 0
-1525 -1531 0
-1525 -1532 0
-1525 -1533 0
-1525 -1534 0
-1525 -1535 0
-1525 -1536 0
-1525 -1537 0
-1526 -1527 0
-1526 -1528 0
-1526 -1529 0
-1526 -1530 0
-1526 -1531 0
-1526 -1532 0
-1526 -1533 0
-1526 -1534 0
-1526 -1535 0
-1526 -1536 0
-1526 -1537 0
-1527 -1528 0
-1527 -1529 0
-1527 -1530 0
-1527 -1531 0
-1527 -1532 0
-1527 -1533 0
-1527 -1534 0
-1527 -1535 0
-1527 -1536 0
-1527 -1537 0
-1528 -1529 0
-1528 -1530 0
-1528 -1531 0
-1528 -1532 0
-1528 -1533 0
-1528 -1534 0
-1528 -1535 0
-1528 -1536 0
-1528 -1537 0
-1529 -1530 0
-1529 -1531 0
-1529 -1532 0
-1529 -1533 0
-1529 -1534 0
-1529 -1535 0
-1529 -1536 0
-1529 -1537 0
-1530 -1531 0
-1530 -1532 0
-1530 -1533 0
-1530 -1534 0
-1530 -1535 0
-1530 -1536 0
-1530 -1537 0
-1531 -1532 0
-1531 -1533 0
-1531 -1534 0
-1531 -1535 0
-1531 -1536 0
-1531 -1537 0
-1532 -1533 0
-1532 -1534 0
-1532 -1535 0
-1532 -1536 0
-1532 -1537 0
-1533 -1534 0
-1533 -1535 0
-1533 -1536 0
-1533 -1537 0
-1534 -1535 0
-1534 -1536 0
-1534 -1537 0
-1535 -1536 0
-1535 -1537 0
-1536 -1537 0
-1454 525 0
-1454 772 0
-1454 -575 0
-1454 -576 0
-1454 -577 0
-1454 -578 0
-1454 -579 0
-1454 -580 779 0
-1454 -580 -515 -522 0
-1454 -580 -587 0
-1454 -580 -645 0
-1454 -580 -702 0
-1454 -581 780 0
-1454 -581 -515 -523 0
-1454 -581 -589 0
-1454 -581 -647 0
-1454 -581 -704 0
-1454 -582 781 0
-1454 -582 -515 -524 0
-1454 -582 -591 0
-1454 -582 -649 0
-1454 -582 -706 0
-1454 -583 0
-1455 525 0
-1455 773 0
-1455 -574 0
-1455 -576 0
-1455 -577 0
-1455 -578 0
-1455 -579 0
-1455 -580 779 0
-1455 -580 -516 -522 0
-1455 -580 -595 0
-1455 -580 -653 0
-1455 -580 -710 0
-1455 -581 780 0
-1455 -581 -516 -523 0
-1455 -581 -597 0
-1455 -581 -655 0
-1455 -581 -712 0
-1455 -582 781 0
-1455 -582 -516 -524 0
-1455 -582 -599 0
-1455 -582 -657 0
-1455 -582 -714 0
-1455 -583 0
-1456 525 0
-1456 774 0
-1456 -574 0
-1456 -575 0
-1456 -577 0
-1456 -578 0
-1456 -579 0
-1456 -580 779 0
-1456 -580 -517 -522 0
-1456 -580 -603 0
-1456 -580 -661 0
-1456 -580 -718 0
-1456 -581 780 0
-1456 -581 -517 -523 0
-1456 -581 -605 0
-1456 -581 -663 0
-1456 -581 -720 0
-1456 -582 781 0
-1456 -582 -517 -524 0
-1456 -582 -607 0
-1456 -582 -665 0
-1456 -582 -722 0
-1456 -583 0
-1457 525 0
-1457 775 0
-1457 -574 0
-1457 -575 0
-1457 -576 0
-1457 -578 0
-1457 -579 0
-1457 -580 779 0
-1457 -580 -518 -522 0
-1457 -580 -611 0
-1457 -580 -669 0
-1457 -580 -726 0
-1457 -581 780 0
-1457 -581 -518 -523 0
-1457 -581 -613 0
-1457 -581 -671 0
-1457 -581 -728 0
-1457 -582 781 0
-1457 -582 -518 -524 0
-1457 -582 -615 0
-1457 -582 -673 0
-1457 -582 -730 0
-1457 -583 0
-1458 525 0
-1458 776 0
-1458 -574 0
-1458 -575 0
-1458 -576 0
-1458 -577 0
-1458 -579 0
-1458 -580 779 0
-1458 -580 -519 -522 0
-1458 -580 -619 0
-1458 -580 -677 0
-1458 -580 -734 0
-1458 -581 780 0
-1458 -581 -519 -523 0
-1458 -581 -621 0
-1458 -581 -679 0
-1458 -581 -736 0
-1458 -582 781 0
-1458 -582 -519 -524 0
-1458 -582 -623 0
-1458 -582 -681 0
-1458 -582 -738 0
-1458 -583 0
-1459 525 0
-1459 777 0
-1459 -574 0
-1459 -575 0
-1459 -576 0
-1459 -577 0
-1459 -578 0
-1459 -580 779 0
-1459 -580 -520 -522 0
-1459 -580 -627 0
-1459 -580 -685 0
-1459 -580 -742 0
-1459 -581 780 0
-1459 -581 -520 -523 0
-1459 -581 -629 0
-1459 -581 -687 0
-1459 -581 -744 0
-1459 -582 781 0
-1459 -582 -520 -524 0
-1459 -582 -631 0
-1459 -582 -689 0
-1459 -582 -746 0
-1459 -583 0
-1460 525 0
-1460 772 0
-1460 -634 0
-1460 -635 0
-1460 -636 0
-1460 -637 0
-1460 -638 779 0
-1460 -638 -515 -522 0
-1460 -638 -587 0
-1460 -638 -645 0
-1460 -638 -702 0
-1460 -639 780 0
-1460 -639 -515 -523 0
-1460 -639 -589 0
-1460 -639 -647 0
-1460 -639 -704 0
-1460 -640 781 0
-1460 -640 -515 -524 0
-1460 -640 -591 0
-1460 -640 -649 0
-1460 -640 -706 0
-1460 -641 0
-1461 525 0
-1461 773 0
-1461 -635 0
-1461 -636 0
-1461 -637 0
-1461 -638 779 0
-1461 -638 -516 -522 0
-1461 -638 -595 0
-1461 -638 -653 0
-1461 -638 -710 0
-1461 -639 780 0
-1461 -639 -516 -523 0
-1461 -639 -597 0
-1461 -639 -655 0
-1461 -639 -712 0
-1461 -640 781 0
-1461 -640 -516 -524 0
-1461 -640 -599 0
-1461 -640 -657 0
-1461 -640 -714 0
-1461 -641 0
-1462 525 0
-1462 774 0
-1462 -633 0
-1462 -636 0
-1462 -637 0
-1462 -638 779 0
-1462 -638 -517 -522 0
-1462 -638 -603 0
-1462 -638 -661 0
-1462 -638 -718 0
-1462 -639 780 0
-1462 -639 -517 -523 0
-1462 -639 -605 0
-1462 -639 -663 0
-1462 -639 -720 0
-1462 -640 781 0
-1462 -640 -517 -524 0
-1462 -640 -607 0
-1462 -640 -665 0
-1462 -640 -722 0
-1462 -641 0
-1463 525 0
-1463 775 0
-1463 -633 0
-1463 -634 0
-1463 -637 0
-1463 -638 779 0
-1463 -638 -518 -522 0
-1463 -638 -611 0
-1463 -638 -669 0
-1463 -638 -726 0
-1463 -639 780 0
-1463 -639 -518 -523 0
-1463 -639 -613 0
-1463 -639 -671 0
-1463 -639 -728 0
-1463 -640 781 0
-1463 -640 -518 -524 0
-1463 -640 -615 0
-1463 -640 -673 0
-1463 -640 -730 0
-1463 -641 0
-1464 525 0
-1464 776 0
-1464 -633 0
-1464 -634 0
-1464 -635 0
-1464 -638 779 0
-1464 -638 -519 -522 0
-1464 -638 -619 0
-1464 -638 -677 0
-1464 -638 -734 0
-1464 -639 780 0
-1464 -639 -519 -523 0
-1464 -639 -621 0
-1464 -639 -679 0
-1464 -639 -736 0
-1464 -640 781 0
-1464 -640 -519 -524 0
-1464 -640 -623 0
-1464 -640 -681 0
-1464 -640 -738 0
-1464 -641 0
-1465 525 0
-1465 777 0
-1465 -633 0
-1465 -634 0
-1465 -635 0
-1465 -636 0
-1465 -638 779 0
-1465 -638 -520 -522 0
-1465 -638 -627 0
-1465 -638 -685 0
-1465 -638 -742 0
-1465 -639 780 0
-1465 -639 -520 -523 0
-1465 -639 -629 0
-1465 -639 -687 0
-1465 -639 -744 0
-1465 -640 781 0
-1465 -640 -520 -524 0
-1465 -640 -631 0
-1465 -640 -689 0
-1465 -640 -746 0
-1465 -641 0
-1466 525 0
-1466 772 0
-1466 -692 0
-1466 -693 0
-1466 -694 0
-1466 -695 779 0
-1466 -695 -515 -522 0
-1466 -695 -587 0
-1466 -695 -645 0
-1466 -695 -702 0
-1466 -696 780 0
-1466 -696 -515 -523 0
-1466 -696 -589 0
-1466 -696 -647 0
-1466 -696 -704 0
-1466 -697 781 0
-1466 -697 -515 -524 0
-1466 -697 -591 0
-1466 -697 -649 0
-1466 -697 -706 0
-1466 -698 0
-1467 525 0
-1467 773 0
-1467 -693 0
-1467 -694 0
-1467 -695 779 0
-1467 -695 -516 -522 0
-1467 -695 -595 0
-1467 -695 -653 0
-1467 -695 -710 0
-1467 -696 780 0
-1467 -696 -516 -523 0
-1467 -696 -597 0
-1467 -696 -655 0
-1467 -696 -712 0
-1467 -697 781 0
-1467 -697 -516 -524 0
-1467 -697 -599 0
-1467 -697 -657 0
-1467 -697 -714 0
-1467 -698 0
-1468 525 0
-1468 774 0
-1468 -694 0
-1468 -695 779 0
-1468 -695 -517 -522 0
-1468 -695 -603 0
-1468 -695 -661 0
-1468 -695 -718 0
-1468 -696 780 0
-1468 -696 -517 -523 0
-1468 -696 -605 0
-1468 -696 -663 0
-1468 -696 -720 0
-1468 -697 781 0
-1468 -697 -517 -524 0
-1468 -697 -607 0
-1468 -697 -665 0
-1468 -697 -722 0
-1468 -698 0
-1469 525 0
-1469 775 0
-1469 -691 0
-1469 -695 779 0
-1469 -695 -518 -522 0
-1469 -695 -611 0
-1469 -695 -669 0
-1469 -695 -726 0
-1469 -696 780 0
-1469 -696 -518 -523 0
-1469 -696 -613 0
-1469 -696 -671 0
-1469 -696 -728 0
-1469 -697 781 0
-1469 -697 -518 -524 0
-1469 -697 -615 0
-1469 -697 -673 0
-1469 -697 -730 0
-1469 -698 0
-1470 525 0
-1470 776 0
-1470 -691 0
-1470 -692 0
-1470 -695 779 0
-1470 -695 -519 -522 0
-1470 -695 -619 0
-1470 -695 -677 0
-1470 -695 -734 0
-1470 -696 780 0
-1470 -696 -519 -523 0
-1470 -696 -621 0
-1470 -696 -679 0
-1470 -696 -736 0
-1470 -697 781 0
-1470 -697 -519 -524 0
-1470 -697 -623 0
-1470 -697 -681 0
-1470 -697 -738 0
-1470 -698 0
-1471 525 0
-1471 777 0
-1471 -691 0
-1471 -692 0
-1471 -693 0
-1471 -695 779 0
-1471 -695 -520 -522 0
-1471 -695 -627 0
-1471 -695 -685 0
-1471 -695 -742 0
-1471 -696 780 0
-1471 -696 -520 -523 0
-1471 -696 -629 0
-1471 -696 -687 0
-1471 -696 -744 0
-1471 -697 781 0
-1471 -697 -520 -524 0
-1471 -697 -631 0
-1471 -697 -689 0
-1471 -697 -746 0
-1471 -698 0
-1472 525 0
-1472 772 0
-1472 778 0
-1472 -515 -521 0
-1472 -585 0
-1472 -643 0
-1472 -700 0
-1473 525 0
-1473 773 0
-1473 778 0
-1473 -516 -521 0
-1473 -593 0
-1473 -651 0
-1473 -708 0
-1474 525 0
-1474 774 0
-1474 778 0
-1474 -517 -521 0
-1474 -601 0
-1474 -659 0
-1474 -716 0
-1475 525 0
-1475 775 0
-1475 778 0
-1475 -518 -521 0
-1475 -609 0
-1475 -667 0
-1475 -724 0
-1476 525 0
-1476 776 0
-1476 778 0
-1476 -519 -521 0
-1476 -617 0
-1476 -675 0
-1476 -732 0
-1477 525 0
-1477 777 0
-1477 778 0
-1477 -520 -521 0
-1477 -625 0
-1477 -683 0
-1477 -740 0
-1478 584 0
-1478 831 0
-1478 -516 0
-1478 -517 0
-1478 -518 0
-1478 -519 0
-1478 -520 0
-1478 -521 838 0
-1478 -521 -574 -581 0
-1478 -521 -528 0
-1478 -521 -645 0
-1478 -521 -702 0
-1478 -522 839 0
-1478 -522 -574 -582 0
-1478 -522 -530 0
-1478 -522 -647 0
-1478 -522 -704 0
-1478 -523 840 0
-1478 -523 -574 -583 0
-1478 -523 -532 0
-1478 -523 -649 0
-1478 -523 -706 0
-1478 -524 0
-1479 584 0
-1479 832 0
-1479 -515 0
-1479 -517 0
-1479 -518 0
-1479 -519 0
-1479 -520 0
-1479 -521 838 0
-1479 -521 -575 -581 0
-1479 -521 -536 0
-1479 -521 -653 0
-1479 -521 -710 0
-1479 -522 839 0
-1479 -522 -575 -582 0
-1479 -522 -538 0
-1479 -522 -655 0
-1479 -522 -712 0
-1479 -523 840 0
-1479 -523 -575 -583 0
-1479 -523 -540 0
-1479 -523 -657 0
-1479 -523 -714 0
-1479 -524 0
-1480 584 0
-1480 833 0
-1480 -515 0
-1480 -516 0
-1480 -518 0
-1480 -519 0
-1480 -520 0
-1480 -521 838 0
-1480 -521 -576 -581 0
-1480 -521 -544 0
-1480 -521 -661 0
-1480 -521 -718 0
-1480 -522 839 0
-1480 -522 -576 -582 0
-1480 -522 -546 0
-1480 -522 -663 0
-1480 -522 -720 0
-1480 -523 840 0
-1480 -523 -576 -583 0
-1480 -523 -548 0
-1480 -523 -665 0
-1480 -523 -722 0
-1480 -524 0
-1481 584 0
-1481 834 0
-1481 -515 0
-1481 -516 0
-1481 -517 0
-1481 -519 0
-1481 -520 0
-1481 -521 838 0
-1481 -521 -577 -581 0
-1481 -521 -552 0
-1481 -521 -669 0
-1481 -521 -726 0
-1481 -522 839 0
-1481 -522 -577 -582 0
-1481 -522 -554 0
-1481 -522 -671 0
-1481 -522 -728 0
-1481 -523 840 0
-1481 -523 -577 -583 0
-1481 -523 -556 0
-1481 -523 -673 0
-1481 -523 -730 0
-1481 -524 0
-1482 584 0
-1482 835 0
-1482 -515 0
-1482 -516 0
-1482 -517 0
-1482 -518 0
-1482 -520 0
-1482 -521 838 0
-1482 -521 -578 -581 0
-1482 -521 -560 0
-1482 -521 -677 0
-1482 -521 -734 0
-1482 -522 839 0
-1482 -522 -578 -582 0
-1482 -522 -562 0
-1482 -522 -679 0
-1482 -522 -736 0
-1482 -523 840 0
-1482 -523 -578 -583 0
-1482 -523 -564 0
-1482 -523 -681 0
-1482 -523 -738 0
-1482 -524 0
-1483 584 0
-1483 836 0
-1483 -515 0
-1483 -516 0
-1483 -517 0
-1483 -518 0
-1483 -519 0
-1483 -521 838 0
-1483 -521 -579 -581 0
-1483 -521 -568 0
-1483 -521 -685 0
-1483 -521 -742 0
-1483 -522 839 0
-1483 -522 -579 -582 0
-1483 -522 -570 0
-1483 -522 -687 0
-1483 -522 -744 0
-1483 -523 840 0
-1483 -523 -579 -583 0
-1483 -523 -572 0
-1483 -523 -689 0
-1483 -523 -746 0
-1483 -524 0
-1484 584 0
-1484 831 0
-1484 -634 0
-1484 -635 0
-1484 -636 0
-1484 -637 0
-1484 -638 838 0
-1484 -638 -574 -581 0
-1484 -638 -528 0
-1484 -638 -645 0
-1484 -638 -702 0
-1484 -639 839 0
-1484 -639 -574 -582 0
-1484 -639 -530 0
-1484 -639 -647 0
-1484 -639 -704 0
-1484 -640 840 0
-1484 -640 -574 -583 0
-1484 -640 -532 0
-1484 -640 -649 0
-1484 -640 -706 0
-1484 -641 0
-1485 584 0
-1485 832 0
-1485 -635 0
-1485 -636 0
-1485 -637 0
-1485 -638 838 0
-1485 -638 -575 -581 0
-1485 -638 -536 0
-1485 -638 -653 0
-1485 -638 -710 0
-1485 -639 839 0
-1485 -639 -575 -582 0
-1485 -639 -538 0
-1485 -639 -655 0
-1485 -639 -712 0
-1485 -640 840 0
-1485 -640 -575 -583 0
-1485 -640 -540 0
-1485 -640 -657 0
-1485 -640 -714 0
-1485 -641 0
-1486 584 0
-1486 833 0
-1486 -633 0
-1486 -636 0
-1486 -637 0
-1486 -638 838 0
-1486 -638 -576 -581 0
-1486 -638 -544 0
-1486 -638 -661 0
-1486 -638 -718 0
-1486 -639 839 0
-1486 -639 -576 -582 0
-1486 -639 -546 0
-1486 -639 -663 0
-1486 -639 -720 0
-1486 -640 840 0
-1486 -640 -576 -583 0
-1486 -640 -548 0
-1486 -640 -665 0
-1486 -640 -722 0
-1486 -641 0
-1487 584 0
-1487 834 0
-1487 -633 0
-1487 -634 0
-1487 -637 0
-1487 -638 838 0
-1487 -638 -577 -581 0
-1487 -638 -552 0
-1487 -638 -669 0
-1487 -638 -726 0
-1487 -639 839 0
-1487 -639 -577 -582 0
-1487 -639 -554 0
-1487 -639 -671 0
-1487 -639 -728 0
-1487 -640 840 0
-1487 -640 -577 -583 0
-1487 -640 -556 0
-1487 -640 -673 0
-1487 -640 -730 0
-1487 -641 0
-1488 584 0
-1488 835 0
-1488 -633 0
-1488 -634 0
-1488 -635 0
-1488 -638 838 0
-1488 -638 -578 -581 0
-1488 -638 -560 0
-1488 -638 -677 0
-1488 -638 -734 0
-1488 -639 839 0
-1488 -639 -578 -582 0
-1488 -639 -562 0
-1488 -639 -679 0
-1488 -639 -736 0
-1488 -640 840 0
-1488 -640 -578 -583 0
-1488 -640 -564 0
-1488 -640 -681 0
-1488 -640 -738 0
-1488 -641 0
-1489 584 0
-1489 836 0
-1489 -633 0
-1489 -634 0
-1489 -635 0
-1489 -636 0
-1489 -638 838 0
-1489 -638 -579 -581 0
-1489 -638 -568 0
-1489 -638 -685 0
-1489 -638 -742 0
-1489 -639 839 0
-1489 -639 -579 -582 0
-1489 -639 -570 0
-1489 -639 -687 0
-1489 -639 -744 0
-1489 -640 840 0
-1489 -640 -579 -583 0
-1489 -640 -572 0
-1489 -640 -689 0
-1489 -640 -746 0
-1489 -641 0
-1490 584 0
-1490 831 0
-1490 -692 0
-1490 -693 0
-1490 -694 0
-1490 -695 838 0
-1490 -695 -574 -581 0
-1490 -695 -528 0
-1490 -695 -645 0
-1490 -695 -702 0
-1490 -696 839 0
-1490 -696 -574 -582 0
-1490 -696 -530 0
-1490 -696 -647 0
-1490 -696 -704 0
-1490 -697 840 0
-1490 -697 -574 -583 0
-1490 -697 -532 0
-1490 -697 -649 0
-1490 -697 -706 0
-1490 -698 0
-1491 584 0
-1491 832 0
-1491 -693 0
-1491 -694 0
-1491 -695 838 0
-1491 -695 -575 -581 0
-1491 -695 -536 0
-1491 -695 -653 0
-1491 -695 -710 0
-1491 -696 839 0
-1491 -696 -575 -582 0
-1491 -696 -538 0
-1491 -696 -655 0
-1491 -696 -712 0
-1491 -697 840 0
-1491 -697 -575 -583 0
-1491 -697 -540 0
-1491 -697 -657 0
-1491 -697 -714 0
-1491 -698 0
-1492 584 0
-1492 833 0
-1492 -694 0
-1492 -695 838 0
-1492 -695 -576 -581 0
-1492 -695 -544 0
-1492 -695 -661 0
-1492 -695 -718 0
-1492 -696 839 0
-1492 -696 -576 -582 0
-1492 -696 -546 0
-1492 -696 -663 0
-1492 -696 -720 0
-1492 -697 840 0
-1492 -697 -576 -583 0
-1492 -697 -548 0
-1492 -697 -665 0
-1492 -697 -722 0
-1492 -698 0
-1493 584 0
-1493 834 0
-1493 -691 0
-1493 -695 838 0
-1493 -695 -577 -581 0
-1493 -695 -552 0
-1493 -695 -669 0
-1493 -695 -726 0
-1493 -696 839 0
-1493 -696 -577 -582 0
-1493 -696 -554 0
-1493 -696 -671 0
-1493 -696 -728 0
-1493 -697 840 0
-1493 -697 -577 -583 0
-1493 -697 -556 0
-1493 -697 -673 0
-1493 -697 -730 0
-1493 -698 0
-1494 584 0
-1494 835 0
-1494 -691 0
-1494 -692 0
-1494 -695 838 0
-1494 -695 -578 -581 0
-1494 -695 -560 0
-1494 -695 -677 0
-1494 -695 -734 0
-1494 -696 839 0
-1494 -696 -578 -582 0
-1494 -696 -562 0
-1494 -696 -679 0
-1494 -696 -736 0
-1494 -697 840 0
-1494 -697 -578 -583 0
-1494 -697 -564 0
-1494 -697 -681 0
-1494 -697 -738 0
-1494 -698 0
-1495 584 0
-1495 836 0
-1495 -691 0
-1495 -692 0
-1495 -693 0
-1495 -695 838 0
-1495 -695 -579 -581 0
-1495 -695 -568 0
-1495 -695 -685 0
-1495 -695 -742 0
-1495 -696 839 0
-1495 -696 -579 -582 0
-1495 -696 -570 0
-1495 -696 -687 0
-1495 -696 -744 0
-1495 -697 840 0
-1495 -697 -579 -583 0
-1495 -697 -572 0
-1495 -697 -689 0
-1495 -697 -746 0
-1495 -698 0
-1496 584 0
-1496 831 0
-1496 837 0
-1496 -574 -580 0
-1496 -526 0
-1496 -643 0
-1496 -700 0
-1497 584 0
-1497 832 0
-1497 837 0
-1497 -575 -580 0
-1497 -534 0
-1497 -651 0
-1497 -708 0
-1498 584 0
-1498 833 0
-1498 837 0
-1498 -576 -580 0
-1498 -542 0
-1498 -659 0
-1498 -716 0
-1499 584 0
-1499 834 0
-1499 837 0
-1499 -577 -580 0
-1499 -550 0
-1499 -667 0
-1499 -724 0
-1500 584 0
-1500 835 0
-1500 837 0
-1500 -578 -580 0
-1500 -558 0
-1500 -675 0
-1500 -732 0
-1501 584 0
-1501 836 0
-1501 837 0
-1501 -579 -580 0
-1501 -566 0
-1501 -683 0
-1501 -740 0
-1502 642 0
-1502 890 0
-1502 -517 0
-1502 -518 0
-1502 -519 0
-1502 -520 0
-1502 -521 896 0
-1502 -521 -633 -639 0
-1502 -521 -528 0
-1502 -521 -536 0
-1502 -521 -587 0
-1502 -521 -595 0
-1502 -521 -702 0
-1502 -521 -710 0
-1502 -522 897 0
-1502 -522 -633 -640 0
-1502 -522 -530 0
-1502 -522 -538 0
-1502 -522 -589 0
-1502 -522 -597 0
-1502 -522 -704 0
-1502 -522 -712 0
-1502 -523 898 0
-1502 -523 -633 -641 0
-1502 -523 -532 0
-1502 -523 -540 0
-1502 -523 -591 0
-1502 -523 -599 0
-1502 -523 -706 0
-1502 -523 -714 0
-1502 -524 0
-1503 642 0
-1503 891 0
-1503 -515 0
-1503 -518 0
-1503 -519 0
-1503 -520 0
-1503 -521 896 0
-1503 -521 -634 -639 0
-1503 -521 -536 0
-1503 -521 -544 0
-1503 -521 -595 0
-1503 -521 -603 0
-1503 -521 -710 0
-1503 -521 -718 0
-1503 -522 897 0
-1503 -522 -634 -640 0
-1503 -522 -538 0
-1503 -522 -546 0
-1503 -522 -597 0
-1503 -522 -605 0
-1503 -522 -712 0
-1503 -522 -720 0
-1503 -523 898 0
-1503 -523 -634 -641 0
-1503 -523 -540 0
-1503 -523 -548 0
-1503 -523 -599 0
-1503 -523 -607 0
-1503 -523 -714 0
-1503 -523 -722 0
-1503 -524 0
-1504 642 0
-1504 892 0
-1504 -515 0
-1504 -516 0
-1504 -519 0
-1504 -520 0
-1504 -521 896 0
-1504 -521 -635 -639 0
-1504 -521 -544 0
-1504 -521 -552 0
-1504 -521 -603 0
-1504 -521 -611 0
-1504 -521 -718 0
-1504 -521 -726 0
-1504 -522 897 0
-1504 -522 -635 -640 0
-1504 -522 -546 0
-1504 -522 -554 0
-1504 -522 -605 0
-1504 -522 -613 0
-1504 -522 -720 0
-1504 -522 -728 0
-1504 -523 898 0
-1504 -523 -635 -641 0
-1504 -523 -548 0
-1504 -523 -556 0
-1504 -523 -607 0
-1504 -523 -615 0
-1504 -523 -722 0
-1504 -523 -730 0
-1504 -524 0
-1505 642 0
-1505 893 0
-1505 -515 0
-1505 -516 0
-1505 -517 0
-1505 -520 0
-1505 -521 896 0
-1505 -521 -636 -639 0
-1505 -521 -552 0
-1505 -521 -560 0
-1505 -521 -611 0
-1505 -521 -619 0
-1505 -521 -726 0
-1505 -521 -734 0
-1505 -522 897 0
-1505 -522 -636 -640 0
-1505 -522 -554 0
-1505 -522 -562 0
-1505 -522 -613 0
-1505 -522 -621 0
-1505 -522 -728 0
-1505 -522 -736 0
-1505 -523 898 0
-1505 -523 -636 -641 0
-1505 -523 -556 0
-1505 -523 -564 0
-1505 -523 -615 0
-1505 -523 -623 0
-1505 -523 -730 0
-1505 -523 -738 0
-1505 -524 0
-1506 642 0
-1506 894 0
-1506 -515 0
-1506 -516 0
-1506 -517 0
-1506 -518 0
-1506 -521 896 0
-1506 -521 -637 -639 0
-1506 -521 -560 0
-1506 -521 -568 0
-1506 -521 -619 0
-1506 -521 -627 0
-1506 -521 -734 0
-1506 -521 -742 0
-1506 -522 897 0
-1506 -522 -637 -640 0
-1506 -522 -562 0
-1506 -522 -570 0
-1506 -522 -621 0
-1506 -522 -629 0
-1506 -522 -736 0
-1506 -522 -744 0
-1506 -523 898 0
-1506 -523 -637 -641 0
-1506 -523 -564 0
-1506 -523 -572 0
-1506 -523 -623 0
-1506 -523 -631 0
-1506 -523 -738 0
-1506 -523 -746 0
-1506 -524 0
-1507 642 0
-1507 890 0
-1507 -576 0
-1507 -577 0
-1507 -578 0
-1507 -579 0
-1507 -580 896 0
-1507 -580 -633 -639 0
-1507 -580 -528 0
-1507 -580 -536 0
-1507 -580 -587 0
-1507 -580 -595 0
-1507 -580 -702 0
-1507 -580 -710 0
-1507 -581 897 0
-1507 -581 -633 -640 0
-1507 -581 -530 0
-1507 -581 -538 0
-1507 -581 -589 0
-1507 -581 -597 0
-1507 -581 -704 0
-1507 -581 -712 0
-1507 -582 898 0
-1507 -582 -633 -641 0
-1507 -582 -532 0
-1507 -582 -540 0
-1507 -582 -591 0
-1507 -582 -599 0
-1507 -582 -706 0
-1507 -582 -714 0
-1507 -583 0
-1508 642 0
-1508 891 0
-1508 -574 0
-1508 -577 0
-1508 -578 0
-1508 -579 0
-1508 -580 896 0
-1508 -580 -634 -639 0
-1508 -580 -536 0
-1508 -580 -544 0
-1508 -580 -595 0
-1508 -580 -603 0
-1508 -580 -710 0
-1508 -580 -718 0
-1508 -581 897 0
-1508 -581 -634 -640 0
-1508 -581 -538 0
-1508 -581 -546 0
-1508 -581 -597 0
-1508 -581 -605 0
-1508 -581 -712 0
-1508 -581 -720 0
-1508 -582 898 0
-1508 -582 -634 -641 0
-1508 -582 -540 0
-1508 -582 -548 0
-1508 -582 -599 0
-1508 -582 -607 0
-1508 -582 -714 0
-1508 -582 -722 0
-1508 -583 0
-1509 642 0
-1509 892 0
-1509 -574 0
-1509 -575 0
-1509 -578 0
-1509 -579 0
-1509 -580 896 0
-1509 -580 -635 -639 0
-1509 -580 -544 0
-1509 -580 -552 0
-1509 -580 -603 0
-1509 -580 -611 0
-1509 -580 -718 0
-1509 -580 -726 0
-1509 -581 897 0
-1509 -581 -635 -640 0
-1509 -581 -546 0
-1509 -581 -554 0
-1509 -581 -605 0
-1509 -581 -613 0
-1509 -581 -720 0
-1509 -581 -728 0
-1509 -582 898 0
-1509 -582 -635 -641 0
-1509 -582 -548 0
-1509 -582 -556 0
-1509 -582 -607 0
-1509 -582 -615 0
-1509 -582 -722 0
-1509 -582 -730 0
-1509 -583 0
-1510 642 0
-1510 893 0
-1510 -574 0
-1510 -575 0
-1510 -576 0
-1510 -579 0
-1510 -580 896 0
-1510 -580 -636 -639 0
-1510 -580 -552 0
-1510 -580 -560 0
-1510 -580 -611 0
-1510 -580 -619 0
-1510 -580 -726 0
-1510 -580 -734 0
-1510 -581 897 0
-1510 -581 -636 -640 0
-1510 -581 -554 0
-1510 -581 -562 0
-1510 -581 -613 0
-1510 -581 -621 0
-1510 -581 -728 0
-1510 -581 -736 0
-1510 -582 898 0
-1510 -582 -636 -641 0
-1510 -582 -556 0
-1510 -582 -564 0
-1510 -582 -615 0
-1510 -582 -623 0
-1510 -582 -730 0
-1510 -582 -738 0
-1510 -583 0
-1511 642 0
-1511 894 0
-1511 -574 0
-1511 -575 0
-1511 -576 0
-1511 -577 0
-1511 -580 896 0
-1511 -580 -637 -639 0
-1511 -580 -560 0
-1511 -580 -568 0
-1511 -580 -619 0
-1511 -580 -627 0
-1511 -580 -734 0
-1511 -580 -742 0
-1511 -581 897 0
-1511 -581 -637 -640 0
-1511 -581 -562 0
-1511 -581 -570 0
-1511 -581 -621 0
-1511 -581 -629 0
-1511 -581 -736 0
-1511 -581 -744 0
-1511 -582 898 0
-1511 -582 -637 -641 0
-1511 -582 -564 0
-1511 -582 -572 0
-1511 -582 -623 0
-1511 -582 -631 0
-1511 -582 -738 0
-1511 -582 -746 0
-1511 -583 0
-1512 642 0
-1512 890 0
-1512 -693 0
-1512 -694 0
-1512 -695 896 0
-1512 -695 -633 -639 0
-1512 -695 -528 0
-1512 -695 -536 0
-1512 -695 -587 0
-1512 -695 -595 0
-1512 -695 -702 0
-1512 -695 -710 0
-1512 -696 897 0
-1512 -696 -633 -640 0
-1512 -696 -530 0
-1512 -696 -538 0
-1512 -696 -589 0
-1512 -696 -597 0
-1512 -696 -704 0
-1512 -696 -712 0
-1512 -697 898 0
-1512 -697 -633 -641 0
-1512 -697 -532 0
-1512 -697 -540 0
-1512 -697 -591 0
-1512 -697 -599 0
-1512 -697 -706 0
-1512 -697 -714 0
-1512 -698 0
-1513 642 0
-1513 891 0
-1513 -694 0
-1513 -695 896 0
-1513 -695 -634 -639 0
-1513 -695 -536 0
-1513 -695 -544 0
-1513 -695 -595 0
-1513 -695 -603 0
-1513 -695 -710 0
-1513 -695 -718 0
-1513 -696 897 0
-1513 -696 -634 -640 0
-1513 -696 -538 0
-1513 -696 -546 0
-1513 -696 -597 0
-1513 -696 -605 0
-1513 -696 -712 0
-1513 -696 -720 0
-1513 -697 898 0
-1513 -697 -634 -641 0
-1513 -697 -540 0
-1513 -697 -548 0
-1513 -697 -599 0
-1513 -697 -607 0
-1513 -697 -714 0
-1513 -697 -722 0
-1513 -698 0
-1514 642 0
-1514 892 0
-1514 -695 896 0
-1514 -695 -635 -639 0
-1514 -695 -544 0
-1514 -695 -552 0
-1514 -695 -603 0
-1514 -695 -611 0
-1514 -695 -718 0
-1514 -695 -726 0
-1514 -696 897 0
-1514 -696 -635 -640 0
-1514 -696 -546 0
-1514 -696 -554 0
-1514 -696 -605 0
-1514 -696 -613 0
-1514 -696 -720 0
-1514 -696 -728 0
-1514 -697 898 0
-1514 -697 -635 -641 0
-1514 -697 -548 0
-1514 -697 -556 0
-1514 -697 -607 0
-1514 -697 -615 0
-1514 -697 -722 0
-1514 -697 -730 0
-1514 -698 0
-1515 642 0
-1515 893 0
-1515 -691 0
-1515 -695 896 0
-1515 -695 -636 -639 0
-1515 -695 -552 0
-1515 -695 -560 0
-1515 -695 -611 0
-1515 -695 -619 0
-1515 -695 -726 0
-1515 -695 -734 0
-1515 -696 897 0
-1515 -696 -636 -640 0
-1515 -696 -554 0
-1515 -696 -562 0
-1515 -696 -613 0
-1515 -696 -621 0
-1515 -696 -728 0
-1515 -696 -736 0
-1515 -697 898 0
-1515 -697 -636 -641 0
-1515 -697 -556 0
-1515 -697 -564 0
-1515 -697 -615 0
-1515 -697 -623 0
-1515 -697 -730 0
-1515 -697 -738 0
-1515 -698 0
-1516 642 0
-1516 894 0
-1516 -691 0
-1516 -692 0
-1516 -695 896 0
-1516 -695 -637 -639 0
-1516 -695 -560 0
-1516 -695 -568 0
-1516 -695 -619 0
-1516 -695 -627 0
-1516 -695 -734 0
-1516 -695 -742 0
-1516 -696 897 0
-1516 -696 -637 -640 0
-1516 -696 -562 0
-1516 -696 -570 0
-1516 -696 -621 0
-1516 -696 -629 0
-1516 -696 -736 0
-1516 -696 -744 0
-1516 -697 898 0
-1516 -697 -637 -641 0
-1516 -697 -564 0
-1516 -697 -572 0
-1516 -697 -623 0
-1516 -697 -631 0
-1516 -697 -738 0
-1516 -697 -746 0
-1516 -698 0
-1517 642 0
-1517 890 0
-1517 895 0
-1517 -633 -638 0
-1517 -526 0
-1517 -534 0
-1517 -585 0
-1517 -593 0
-1517 -700 0
-1517 -708 0
-1518 642 0
-1518 891 0
-1518 895 0
-1518 -634 -638 0
-1518 -534 0
-1518 -542 0
-1518 -593 0
-1518 -601 0
-1518 -708 0
-1518 -716 0
-1519 642 0
-1519 892 0
-1519 895 0
-1519 -635 -638 0
-1519 -542 0
-1519 -550 0
-1519 -601 0
-1519 -609 0
-1519 -716 0
-1519 -724 0
-1520 642 0
-1520 893 0
-1520 895 0
-1520 -636 -638 0
-1520 -550 0
-1520 -558 0
-1520 -609 0
-1520 -617 0
-1520 -724 0
-1520 -732 0
-1521 642 0
-1521 894 0
-1521 895 0
-1521 -637 -638 0
-1521 -558 0
-1521 -566 0
-1521 -617 0
-1521 -625 0
-1521 -732 0
-1521 -740 0
-1522 699 0
-1522 948 0
-1522 -518 0
-1522 -519 0
-1522 -520 0
-1522 -521 953 0
-1522 -521 -691 -696 0
-1522 -521 -528 0
-1522 -521 -536 0
-1522 -521 -544 0
-1522 -521 -587 0
-1522 -521 -595 0
-1522 -521 -603 0
-1522 -521 -645 0
-1522 -521 -653 0
-1522 -521 -661 0
-1522 -522 954 0
-1522 -522 -691 -697 0
-1522 -522 -530 0
-1522 -522 -538 0
-1522 -522 -546 0
-1522 -522 -589 0
-1522 -522 -597 0
-1522 -522 -605 0
-1522 -522 -647 0
-1522 -522 -655 0
-1522 -522 -663 0
-1522 -523 955 0
-1522 -523 -691 -698 0
-1522 -523 -532 0
-1522 -523 -540 0
-1522 -523 -548 0
-1522 -523 -591 0
-1522 -523 -599 0
-1522 -523 -607 0
-1522 -523 -649 0
-1522 -523 -657 0
-1522 -523 -665 0
-1522 -524 0
-1523 699 0
-1523 949 0
-1523 -515 0
-1523 -519 0
-1523 -520 0
-1523 -521 953 0
-1523 -521 -692 -696 0
-1523 -521 -536 0
-1523 -521 -544 0
-1523 -521 -552 0
-1523 -521 -595 0
-1523 -521 -603 0
-1523 -521 -611 0
-1523 -521 -653 0
-1523 -521 -661 0
-1523 -521 -669 0
-1523 -522 954 0
-1523 -522 -692 -697 0
-1523 -522 -538 0
-1523 -522 -546 0
-1523 -522 -554 0
-1523 -522 -597 0
-1523 -522 -605 0
-1523 -522 -613 0
-1523 -522 -655 0
-1523 -522 -663 0
-1523 -522 -671 0
-1523 -523 955 0
-1523 -523 -692 -698 0
-1523 -523 -540 0
-1523 -523 -548 0
-1523 -523 -556 0
-1523 -523 -599 0
-1523 -523 -607 0
-1523 -523 -615 0
-1523 -523 -657 0
-1523 -523 -665 0
-1523 -523 -673 0
-1523 -524 0
-1524 699 0
-1524 950 0
-1524 -515 0
-1524 -516 0
-1524 -520 0
-1524 -521 953 0
-1524 -521 -693 -696 0
-1524 -521 -544 0
-1524 -521 -552 0
-1524 -521 -560 0
-1524 -521 -603 0
-1524 -521 -611 0
-1524 -521 -619 0
-1524 -521 -661 0
-1524 -521 -669 0
-1524 -521 -677 0
-1524 -522 954 0
-1524 -522 -693 -697 0
-1524 -522 -546 0
-1524 -522 -554 0
-1524 -522 -562 0
-1524 -522 -605 0
-1524 -522 -613 0
-1524 -522 -621 0
-1524 -522 -663 0
-1524 -522 -671 0
-1524 -522 -679 0
-1524 -523 955 0
-1524 -523 -693 -698 0
-1524 -523 -548 0
-1524 -523 -556 0
-1524 -523 -564 0
-1524 -523 -607 0
-1524 -523 -615 0
-1524 -523 -623 0
-1524 -523 -665 0
-1524 -523 -673 0
-1524 -523 -681 0
-1524 -524 0
-1525 699 0
-1525 951 0
-1525 -515 0
-1525 -516 0
-1525 -517 0
-1525 -521 953 0
-1525 -521 -694 -696 0
-1525 -521 -552 0
-1525 -521 -560 0
-1525 -521 -568 0
-1525 -521 -611 0
-1525 -521 -619 0
-1525 -521 -627 0
-1525 -521 -669 0
-1525 -521 -677 0
-1525 -521 -685 0
-1525 -522 954 0
-1525 -522 -694 -697 0
-1525 -522 -554 0
-1525 -522 -562 0
-1525 -522 -570 0
-1525 -522 -613 0
-1525 -522 -621 0
-1525 -522 -629 0
-1525 -522 -671 0
-1525 -522 -679 0
-1525 -522 -687 0
-1525 -523 955 0
-1525 -523 -694 -698 0
-1525 -523 -556 0
-1525 -523 -564 0
-1525 -523 -572 0
-1525 -523 -615 0
-1525 -523 -623 0
-1525 -523 -631 0
-1525 -523 -673 0
-1525 -523 -681 0
-1525 -523 -689 0
-1525 -524 0
-1526 699 0
-1526 948 0
-1526 -577 0
-1526 -578 0
-1526 -579 0
-1526 -580 953 0
-1526 -580 -691 -696 0
-1526 -580 -528 0
-1526 -580 -536 0
-1526 -580 -544 0
-1526 -580 -587 0
-1526 -580 -595 0
-1526 -580 -603 0
-1526 -580 -645 0
-1526 -580 -653 0
-1526 -580 -661 0
-1526 -581 954 0
-1526 -581 -691 -697 0
-1526 -581 -530 0
-1526 -581 -538 0
-1526 -581 -546 0
-1526 -581 -589 0
-1526 -581 -597 0
-1526 -581 -605 0
-1526 -581 -647 0
-1526 -581 -655 0
-1526 -581 -663 0
-1526 -582 955 0
-1526 -582 -691 -698 0
-1526 -582 -532 0
-1526 -582 -540 0
-1526 -582 -548 0
-1526 -582 -591 0
-1526 -582 -599 0
-1526 -582 -607 0
-1526 -582 -649 0
-1526 -582 -657 0
-1526 -582 -665 0
-1526 -583 0
-1527 699 0
-1527 949 0
-1527 -574 0
-1527 -578 0
-1527 -579 0
-1527 -580 953 0
-1527 -580 -692 -696 0
-1527 -580 -536 0
-1527 -580 -544 0
-1527 -580 -552 0
-1527 -580 -595 0
-1527 -580 -603 0
-1527 -580 -611 0
-1527 -580 -653 0
-1527 -580 -661 0
-1527 -580 -669 0
-1527 -581 954 0
-1527 -581 -692 -697 0
-1527 -581 -538 0
-1527 -581 -546 0
-1527 -581 -554 0
-1527 -581 -597 0
-1527 -581 -605 0
-1527 -581 -613 0
-1527 -581 -655 0
-1527 -581 -663 0
-1527 -581 -671 0
-1527 -582 955 0
-1527 -582 -692 -698 0
-1527 -582 -540 0
-1527 -582 -548 0
-1527 -582 -556 0
-1527 -582 -599 0
-1527 -582 -607 0
-1527 -582 -615 0
-1527 -582 -657 0
-1527 -582 -665 0
-1527 -582 -673 0
-1527 -583 0
-1528 699 0
-1528 950 0
-1528 -574 0
-1528 -575 0
-1528 -579 0
-1528 -580 953 0
-1528 -580 -693 -696 0
-1528 -580 -544 0
-1528 -580 -552 0
-1528 -580 -560 0
-1528 -580 -603 0
-1528 -580 -611 0
-1528 -580 -619 0
-1528 -580 -661 0
-1528 -580 -669 0
-1528 -580 -677 0
-1528 -581 954 0
-1528 -581 -693 -697 0
-1528 -581 -546 0
-1528 -581 -554 0
-1528 -581 -562 0
-1528 -581 -605 0
-1528 -581 -613 0
-1528 -581 -621 0
-1528 -581 -663 0
-1528 -581 -671 0
-1528 -581 -679 0
-1528 -582 955 0
-1528 -582 -693 -698 0
-1528 -582 -548 0
-1528 -582 -556 0
-1528 -582 -564 0
-1528 -582 -607 0
-1528 -582 -615 0
-1528 -582 -623 0
-1528 -582 -665 0
-1528 -582 -673 0
-1528 -582 -681 0
-1528 -583 0
-1529 699 0
-1529 951 0
-1529 -574 0
-1529 -575 0
-1529 -576 0
-1529 -580 953 0
-1529 -580 -694 -696 0
-1529 -580 -552 0
-1529 -580 -560 0
-1529 -580 -568 0
-1529 -580 -611 0
-1529 -580 -619 0
-1529 -580 -627 0
-1529 -580 -669 0
-1529 -580 -677 0
-1529 -580 -685 0
-1529 -581 954 0
-1529 -581 -694 -697 0
-1529 -581 -554 0
-1529 -581 -562 0
-1529 -581 -570 0
-1529 -581 -613 0
-1529 -581 -621 0
-1529 -581 -629 0
-1529 -581 -671 0
-1529 -581 -679 0
-1529 -581 -687 0
-1529 -582 955 0
-1529 -582 -694 -698 0
-1529 -582 -556 0
-1529 -582 -564 0
-1529 -582 -572 0
-1529 -582 -615 0
-1529 -582 -623 0
-1529 -582 -631 0
-1529 -582 -673 0
-1529 -582 -681 0
-1529 -582 -689 0
-1529 -583 0
-1530 699 0
-1530 948 0
-1530 -636 0
-1530 -637 0
-1530 -638 953 0
-1530 -638 -691 -696 0
-1530 -638 -528 0
-1530 -638 -536 0
-1530 -638 -544 0
-1530 -638 -587 0
-1530 -638 -595 0
-1530 -638 -603 0
-1530 -638 -645 0
-1530 -638 -653 0
-1530 -638 -661 0
-1530 -639 954 0
-1530 -639 -691 -697 0
-1530 -639 -530 0
-1530 -639 -538 0
-1530 -639 -546 0
-1530 -639 -589 0
-1530 -639 -597 0
-1530 -639 -605 0
-1530 -639 -647 0
-1530 -639 -655 0
-1530 -639 -663 0
-1530 -640 955 0
-1530 -640 -691 -698 0
-1530 -640 -532 0
-1530 -640 -540 0
-1530 -640 -548 0
-1530 -640 -591 0
-1530 -640 -599 0
-1530 -640 -607 0
-1530 -640 -649 0
-1530 -640 -657 0
-1530 -640 -665 0
-1530 -641 0
-1531 699 0
-1531 949 0
-1531 -637 0
-1531 -638 953 0
-1531 -638 -692 -696 0
-1531 -638 -536 0
-1531 -638 -544 0
-1531 -638 -552 0
-1531 -638 -595 0
-1531 -638 -603 0
-1531 -638 -611 0
-1531 -638 -653 0
-1531 -638 -661 0
-1531 -638 -669 0
-1531 -639 954 0
-1531 -639 -692 -697 0
-1531 -639 -538 0
-1531 -639 -546 0
-1531 -639 -554 0
-1531 -639 -597 0
-1531 -639 -605 0
-1531 -639 -613 0
-1531 -639 -655 0
-1531 -639 -663 0
-1531 -639 -671 0
-1531 -640 955 0
-1531 -640 -692 -698 0
-1531 -640 -540 0
-1531 -640 -548 0
-1531 -640 -556 0
-1531 -640 -599 0
-1531 -640 -607 0
-1531 -640 -615 0
-1531 -640 -657 0
-1531 -640 -665 0
-1531 -640 -673 0
-1531 -641 0
-1532 699 0
-1532 950 0
-1532 -633 0
-1532 -638 953 0
-1532 -638 -693 -696 0
-1532 -638 -544 0
-1532 -638 -552 0
-1532 -638 -560 0
-1532 -638 -603 0
-1532 -638 -611 0
-1532 -638 -619 0
-1532 -638 -661 0
-1532 -638 -669 0
-1532 -638 -677 0
-1532 -639 954 0
-1532 -639 -693 -697 0
-1532 -639 -546 0
-1532 -639 -554 0
-1532 -639 -562 0
-1532 -639 -605 0
-1532 -639 -613 0
-1532 -639 -621 0
-1532 -639 -663 0
-1532 -639 -671 0
-1532 -639 -679 0
-1532 -640 955 0
-1532 -640 -693 -698 0
-1532 -640 -548 0
-1532 -640 -556 0
-1532 -640 -564 0
-1532 -640 -607 0
-1532 -640 -615 0
-1532 -640 -623 0
-1532 -640 -665 0
-1532 -640 -673 0
-1532 -640 -681 0
-1532 -641 0
-1533 699 0
-1533 951 0
-1533 -633 0
-1533 -634 0
-1533 -638 953 0
-1533 -638 -694 -696 0
-1533 -638 -552 0
-1533 -638 -560 0
-1533 -638 -568 0
-1533 -638 -611 0
-1533 -638 -619 0
-1533 -638 -627 0
-1533 -638 -669 0
-1533 -638 -677 0
-1533 -638 -685 0
-1533 -639 954 0
-1533 -639 -694 -697 0
-1533 -639 -554 0
-1533 -639 -562 0
-1533 -639 -570 0
-1533 -639 -613 0
-1533 -639 -621 0
-1533 -639 -629 0
-1533 -639 -671 0
-1533 -639 -679 0
-1533 -639 -687 0
-1533 -640 955 0
-1533 -640 -694 -698 0
-1533 -640 -556 0
-1533 -640 -564 0
-1533 -640 -572 0
-1533 -640 -615 0
-1533 -640 -623 0
-1533 -640 -631 0
-1533 -640 -673 0
-1533 -640 -681 0
-1533 -640 -689 0
-1533 -641 0
-1534 699 0
-1534 948 0
-1534 952 0
-1534 -691 -695 0
-1534 -526 0
-1534 -534 0
-1534 -542 0
-1534 -585 0
-1534 -593 0
-1534 -601 0
-1534 -643 0
-1534 -651 0
-1534 -659 0
-1535 699 0
-1535 949 0
-1535 952 0
-1535 -692 -695 0
-1535 -534 0
-1535 -542 0
-1535 -550 0
-1535 -593 0
-1535 -601 0
-1535 -609 0
-1535 -651 0
-1535 -659 0
-1535 -667 0
-1536 699 0
-1536 950 0
-1536 952 0
-1536 -693 -695 0
-1536 -542 0
-1536 -550 0
-1536 -558 0
-1536 -601 0
-1536 -609 0
-1536 -617 0
-1536 -659 0
-1536 -667 0
-1536 -675 0
-1537 699 0
-1537 951 0
-1537 952 0
-1537 -694 -695 0
-1537 -550 0
-1537 -558 0
-1537 -566 0
-1537 -609 0
-1537 -617 0
-1537 -625 0
-1537 -667 0
-1537 -675 0
-1537 -683 0
-515 772 1454 1455 1456 1457 1458 1459 1460 1461 1462 1463 1464 1465 1466 1467 1468 1469 1470 1471 1472 1473 1474 1475 1476 1477 0
-516 773 1454 1455 1456 1457 1458 1459 1460 1461 1462 1463 1464 1465 1466 1467 1468 1469 1470 1471 1472 1473 1474 1475 1476 1477 0
-517 774 1454 1455 1456 1457 1458 1459 1460 1461 1462 1463 1464 1465 1466 1467 1468 1469 1470 1471 1472 1473 1474 1475 1476 1477 0
-518 775 1454 1455 1456 1457 1458 1459 1460 1461 1462 1463 1464 1465 1466 1467 1468 1469 1470 1471 1472 1473 1474 1475 1476 1477 0
-519 776 1454 1455 1456 1457 1458 1459 1460 1461 1462 1463 1464 1465 1466 1467 1468 1469 1470 1471 1472 1473 1474 1475 1476 1477 0
-520 777 1454 1455 1456 1457 1458 1459 1460 1461 1462 1463 1464 1465 1466 1467 1468 1469 1470 1471 1472 1473 1474 1475 1476 1477 0
-521 778 1454 1455 1456 1457 1458 1459 1460 1461 1462 1463 1464 1465 1466 1467 1468 1469 1470 1471 1472 1473 1474 1475 1476 1477 0
-522 779 1454 1455 1456 1457 1458 1459 1460 1461 1462 1463 1464 1465 1466 1467 1468 1469 1470 1471 1472 1473 1474 1475 1476 1477 0
-523 780 1454 1455 1456 1457 1458 1459 1460 1461 1462 1463 1464 1465 1466 1467 1468 1469 1470 1471 1472 1473 1474 1475 1476 1477 0
-524 781 1454 1455 1456 1457 1458 1459 1460 1461 1462 1463 1464 1465 1466 1467 1468 1469 1470 1471 1472 1473 1474 1475 1476 1477 0
-574 831 1478 1479 1480 1481 1482 1483 1484 1485 1486 1487 1488 1489 1490 1491 1492 1493 1494 1495 1496 1497 1498 1499 1500 1501 0
-575 832 1478 1479 1480 1481 1482 1483 1484 1485 1486 1487 1488 1489 1490 1491 1492 1493 1494 1495 1496 1497 1498 1499 1500 1501 0
-576 833 1478 1479 1480 1481 1482 1483 1484 1485 1486 1487 1488 1489 1490 1491 1492 1493 1494 1495 1496 1497 1498 1499 1500 1501 0
-577 834 1478 1479 1480 1481 1482 1483 1484 1485 1486 1487 1488 1489 1490 1491 1492 1493 1494 1495 1496 1497 1498 1499 1500 1501 0
-578 835 1478 1479 1480 1481 1482 1483 1484 1485 1486 1487 1488 1489 1490 1491 1492 1493 1494 1495 1496 1497 1498 1499 1500 1501 0
-579 836 1478 1479 1480 1481 1482 1483 1484 1485 1486 1487 1488 1489 1490 1491 1492 1493 1494 1495 1496 1497 1498 1499 1500 1501 0
-580 837 1478 1479 1480 1481 1482 1483 1484 1485 1486 1487 1488 1489 1490 1491 1492 1493 1494 1495 1496 1497 1498 1499 1500 1501 0
-581 838 1478 1479 1480 1481 1482 1483 1484 1485 1486 1487 1488 1489 1490 1491 1492 1493 1494 1495 1496 1497 1498 1499 1500 1501 0
-582 839 1478 1479 1480 1481 1482 1483 1484 1485 1486 1487 1488 1489 1490 1491 1492 1493 1494 1495 1496 1497 1498 1499 1500 1501 0
-583 840 1478 1479 1480 1481 1482 1483 1484 1485 1486 1487 1488 1489 1490 1491 1492 1493 1494 1495 1496 1497 1498 1499 1500 1501 0
-633 890 1502 1503 1504 1505 1506 1507 1508 1509 1510 1511 1512 1513 1514 1515 1516 1517 1518 1519 1520 1521 0
-634 891 1502 1503 1504 1505 1506 1507 1508 1509 1510 1511 1512 1513 1514 1515 1516 1517 1518 1519 1520 1521 0
-635 892 1502 1503 1504 1505 1506 1507 1508 1509 1510 1511 1512 1513 1514 1515 1516 1517 1518 1519 1520 1521 0
-636 893 1502 1503 1504 1505 1506 1507 1508 1509 1510 1511 1512 1513 1514 1515 1516 1517 1518 1519 1520 1521 0
-637 894 1502 1503 1504 1505 1506 1507 1508 1509 1510 1511 1512 1513 1514 1515 1516 1517 1518 1519 1520 1521 0
-638 895 1502 1503 1504 1505 1506 1507 1508 1509 1510 1511 1512 1513 1514 1515 1516 1517 1518 1519 1520 1521 0
-639 896 1502 1503 1504 1505 1506 1507 1508 1509 1510 1511 1512 1513 1514 1515 1516 1517 1518 1519 1520 1521 0
-640 897 1502 1503 1504 1505 1506 1507 1508 1509 1510 1511 1512 1513 1514 1515 1516 1517 1518 1519 1520 1521 0
-641 898 1502 1503 1504 1505 1506 1507 1508 1509 1510 1511 1512 1513 1514 1515 1516 1517 1518 1519 1520 1521 0
-691 948 1522 1523 1524 1525 1526 1527 1528 1529 1530 1531 1532 1533 1534 1535 1536 1537 0
-692 949 1522 1523 1524 1525 1526 1527 1528 1529 1530 1531 1532 1533 1534 1535 1536 1537 0
-693 950 1522 1523 1524 1525 1526 1527 1528 1529 1530 1531 1532 1533 1534 1535 1536 1537 0
-694 951 1522 1523 1524 1525 1526 1527 1528 1529 1530 1531 1532 1533 1534 1535 1536 1537 0
-695 952 1522 1523 1524 1525 1526 1527 1528 1529 1530 1531 1532 1533 1534 1535 1536 1537 0
-696 953 1522 1523 1524 1525 1526 1527 1528 1529 1530 1531 1532 1533 1534 1535 1536 1537 0
-697 954 1522 1523 1524 1525 1526 1527 1528 1529 1530 1531 1532 1533 1534 1535 1536 1537 0
-698 955 1522 1523 1524 1525 1526 1527 1528 1529 1530 1531 1532 1533 1534 1535 1536 1537 0
-1538 -1539 0
-1538 -1540 0
-1538 -1541 0
-1538 -1542 0
-1538 -1543 0
-1538 -1544 0
-1538 -1545 0
-1538 -1546 0
-1538 -1547 0
-1538 -1548 0
-1538 -1549 0
-1538 -1550 0
-1538 -1551 0
-1538 -1552 0
-1538 -1553 0
-1538 -1554 0
-1538 -1555 0
-1538 -1556 0
-1538 -1557 0
-1538 -1558 0
-1538 -1559 0
-1538 -1560 0
-1538 -1561 0
-1538 -1562 0
-1538 -1563 0
-1538 -1564 0
-1538 -1565 0
-1538 -1566 0
-1538 -1567 0
-1538 -1568 0
-1538 -1569 0
-1538 -1570 0
-1538 -1571 0
-1538 -1572 0
-1538 -1573 0
-1538 -1574 0
-1538 -1575 0
-1538 -1576 0
-1538 -1577 0
-1538 -1578 0
-1538 -1579 0
-1538 -1580 0
-1538 -1581 0
-1538 -1582 0
-1538 -1583 0
-1538 -1584 0
-1538 -1585 0
-1538 -1586 0
-1538 -1587 0
-1538 -1588 0
-1538 -1589 0
-1538 -1590 0
-1538 -1591 0
-1538 -1592 0
-1538 -1593 0
-1538 -1594 0
-1538 -1595 0
-1538 -1596 0
-1538 -1597 0
-1538 -1598 0
-1538 -1599 0
-1538 -1600 0
-1538 -1601 0
-1538 -1602 0
-1538 -1603 0
-1538 -1604 0
-1538 -1605 0
-1538 -1606 0
-1538 -1607 0
-1538 -1608 0
-1538 -1609 0
-1538 -1610 0
-1538 -1611 0
-1538 -1612 0
-1538 -1613 0
-1538 -1614 0
-1538 -1615 0
-1538 -1616 0
-1538 -1617 0
-1538 -1618 0
-1538 -1619 0
-1538 -1620 0
-1538 -1621 0
-1539 -1540 0
-1539 -1541 0
-1539 -1542 0
-1539 -1543 0
-1539 -1544 0
-1539 -1545 0
-1539 -1546 0
-1539 -1547 0
-1539 -1548 0
-1539 -1549 0
-1539 -1550 0
-1539 -1551 0
-1539 -1552 0
-1539 -1553 0
-1539 -1554 0
-1539 -1555 0
-1539 -1556 0
-1539 -1557 0
-1539 -1558 0
-1539 -1559 0
-1539 -1560 0
-1539 -1561 0
-1539 -1562 0
-1539 -1563 0
-1539 -1564 0
-1539 -1565 0
-1539 -1566 0
-1539 -1567 0
-1539 -1568 0
-1539 -1569 0
-1539 -1570 0
-1539 -1571 0
-1539 -1572 0
-1539 -1573 0
-1539 -1574 0
-1539 -1575 0
-1539 -1576 0
-1539 -1577 0
-1539 -1578 0
-1539 -1579 0
-1539 -1580 0
-1539 -1581 0
-1539 -1582 0
-1539 -1583 0
-1539 -1584 0
-1539 -1585 0
-1539 -1586 0
-1539 -1587 0
-1539 -1588 0
-1539 -1589 0
-1539 -1590 0
-1539 -1591 0
-1539 -1592 0
-1539 -1593 0
-1539 -1594 0
-1539 -1595 0
-1539 -1596 0
-1539 -1597 0
-1539 -1598 0
-1539 -1599 0
-1539 -1600 0
-1539 -1601 0
-1539 -1602 0
-1539 -1603 0
-1539 -1604 0
-1539 -1605 0
-1539 -1606 0
-1539 -1607 0
-1539 -1608 0
-1539 -1609 0
-1539 -1610 0
-1539 -1611 0
-1539 -1612 0
-1539 -1613 0
-1539 -1614 0
-1539 -1615 0
-1539 -1616 0
-1539 -1617 0
-1539 -1618 0
-1539 -1619 0
-1539 -1620 0
-1539 -1621 0
-1540 -1541 0
-1540 -1542 0
-1540 -1543 0
-1540 -1544 0
-1540 -1545 0
-1540 -1546 0
-1540 -1547 0
-1540 -1548 0
-1540 -1549 0
-1540 -1550 0
-1540 -1551 0
-1540 -1552 0
-1540 -1553 0
-1540 -1554 0
-1540 -1555 0
-1540 -1556 0
-1540 -1557 0
-1540 -1558 0
-1540 -1559 0
-1540 -1560 0
-1540 -1561 0
-1540 -1562 0
-1540 -1563 0
-1540 -1564 0
-1540 -1565 0
-1540 -1566 0
-1540 -1567 0
-1540 -1568 0
-1540 -1569 0
-1540 -1570 0
-1540 -1571 0
-1540 -1572 0
-1540 -1573 0
-1540 -1574 0
-1540 -1575 0
-1540 -1576 0
-1540 -1577 0
-1540 -1578 0
-1540 -1579 0
-1540 -1580 0
-1540 -1581 0
-1540 -1582 0
-1540 -1583 0
-1540 -1584 0
-1540 -1585 0
-1540 -1586 0
-1540 -1587 0
-1540 -1588 0
-1540 -1589 0
-1540 -1590 0
-1540 -1591 0
-1540 -1592 0
-1540 -1593 0
-1540 -1594 0
-1540 -1595 0
-1540 -1596 0
-1540 -1597 0
-1540 -1598 0
-1540 -1599 0
-1540 -1600 0
-1540 -1601 0
-1540 -1602 0
-1540 -1603 0
-1540 -1604 0
-1540 -1605 0
-1540 -1606 0
-1540 -1607 0
-1540 -1608 0
-1540 -1609 0
-1540 -1610 0
-1540 -1611 0
-1540 -1612 0
-1540 -1613 0
-1540 -1614 0
-1540 -1615 0
-1540 -1616 0
-1540 -1617 0
-1540 -1618 0
-1540 -1619 0
-1540 -1620 0
-1540 -1621 0
-1541 -1542 0
-1541 -1543 0
-1541 -1544 0
-1541 -1545 0
-1541 -1546 0
-1541 -1547 0
-1541 -1548 0
-1541 -1549 0
-1541 -1550 0
-1541 -1551 0
-1541 -1552 0
-1541 -1553 0
-1541 -1554 0
-1541 -1555 0
-1541 -1556 0
-1541 -1557 0
-1541 -1558 0
-1541 -1559 0
-1541 -1560 0
-1541 -1561 0
-1541 -1562 0
-1541 -1563 0
-1541 -1564 0
-1541 -1565 0
-1541 -1566 0
-1541 -1567 0
-1541 -1568 0
-1541 -1569 0
-1541 -1570 0
-1541 -1571 0
-1541 -1572 0
-1541 -1573 0
-1541 -1574 0
-1541 -1575 0
-1541 -1576 0
-1541 -1577 0
-1541 -1578 0
-1541 -1579 0
-1541 -1580 0
-1541 -1581 0
-1541 -1582 0
-1541 -1583 0
-1541 -1584 0
-1541 -1585 0
-1541 -1586 0
-1541 -1587 0
-1541 -1588 0
-1541 -1589 0
-1541 -1590 0
-1541 -1591 0
-1541 -1592 0
-1541 -1593 0
-1541 -1594 0
-1541 -1595 0
-1541 -1596 0
-1541 -1597 0
-1541 -1598 0
-1541 -1599 0
-1541 -1600 0
-1541 -1601 0
-1541 -1602 0
-1541 -1603 0
-1541 -1604 0
-1541 -1605 0
-1541 -1606 0
-1541 -1607 0
-1541 -1608 0
-1541 -1609 0
-1541 -1610 0
-1541 -1611 0
-1541 -1612 0
-1541 -1613 0
-1541 -1614 0
-1541 -1615 0
-1541 -1616 0
-1541 -1617 0
-1541 -1618 0
-1541 -1619 0
-1541 -1620 0
-1541 -1621 0
-1542 -1543 0
-1542 -1544 0
-1542 -1545 0
-1542 -1546 0
-1542 -1547 0
-1542 -1548 0
-1542 -1549 0
-1542 -1550 0
-1542 -1551 0
-1542 -1552 0
-1542 -1553 0
-1542 -1554 0
-1542 -1555 0
-1542 -1556 0
-1542 -1557 0
-1542 -1558 0
-1542 -1559 0
-1542 -1560 0
-1542 -1561 0
-1542 -1562 0
-1542 -1563 0
-1542 -1564 0
-1542 -1565 0
-1542 -1566 0
-1542 -1567 0
-1542 -1568 0
-1542 -1569 0
-1542 -1570 0
-1542 -1571 0
-1542 -1572 0
-1542 -1573 0
-1542 -1574 0
-1542 -1575 0
-1542 -1576 0
-1542 -1577 0
-1542 -1578 0
-1542 -1579 0
-1542 -1580 0
-1542 -1581 0
-1542 -1582 0
-1542 -1583 0
-1542 -1584 0
-1542 -1585 0
-1542 -1586 0
-1542 -1587 0
-1542 -1588 0
-1542 -1589 0
-1542 -1590 0
-1542 -1591 0
-1542 -1592 0
-1542 -1593 0
-1542 -1594 0
-1542 -1595 0
-1542 -1596 0
-1542 -1597 0
-1542 -1598 0
-1542 -1599 0
-1542 -1600 0
-1542 -1601 0
-1542 -1602 0
-1542 -1603 0
-1542 -1604 0
-1542 -1605 0
-1542 -1606 0
-1542 -1607 0
-1542 -1608 0
-1542 -1609 0
-1542 -1610 0
-1542 -1611 0
-1542 -1612 0
-1542 -1613 0
-1542 -1614 0
-1542 -1615 0
-1542 -1616 0
-1542 -1617 0
-1542 -1618 0
-1542 -1619 0
-1542 -1620 0
-1542 -1621 0
-1543 -1544 0
-1543 -1545 0
-1543 -1546 0
-1543 -1547 0
-1543 -1548 0
-1543 -1549 0
-1543 -1550 0
-1543 -1551 0
-1543 -1552 0
-1543 -1553 0
-1543 -1554 0
-1543 -1555 0
-1543 -1556 0
-1543 -1557 0
-1543 -1558 0
-1543 -1559 0
-1543 -1560 0
-1543 -1561 0
-1543 -1562 0
-1543 -1563 0
-1543 -1564 0
-1543 -1565 0
-1543 -1566 0
-1543 -1567 0
-1543 -1568 0
-1543 -1569 0
-1543 -1570 0
-1543 -1571 0
-1543 -1572 0
-1543 -1573 0
-1543 -1574 0
-1543 -1575 0
-1543 -1576 0
-1543 -1577 0
-1543 -1578 0
-1543 -1579 0
-1543 -1580 0
-1543 -1581 0
-1543 -1582 0
-1543 -1583 0
-1543 -1584 0
-1543 -1585 0
-1543 -1586 0
-1543 -1587 0
-1543 -1588 0
-1543 -1589 0
-1543 -1590 0
-1543 -1591 0
-1543 -1592 0
-1543 -1593 0
-1543 -1594 0
-1543 -1595 0
-1543 -1596 0
-1543 -1597 0
-1543 -1598 0
-1543 -1599 0
-1543 -1600 0
-1543 -1601 0
-1543 -1602 0
-1543 -1603 0
-1543 -1604 0
-1543 -1605 0
-1543 -1606 0
-1543 -1607 0
-1543 -1608 0
-1543 -1609 0
-1543 -1610 0
-1543 -1611 0
-1543 -1612 0
-1543 -1613 0
-1543 -1614 0
-1543 -1615 0
-1543 -1616 0
-1543 -1617 0
-1543 -1618 0
-1543 -1619 0
-1543 -1620 0
-1543 -1621 0
-1544 -1545 0
-1544 -1546 0
-1544 -1547 0
-1544 -1548 0
-1544 -1549 0
-1544 -1550 0
-1544 -1551 0
-1544 -1552 0
-1544 -1553 0
-1544 -1554 0
-1544 -1555 0
-1544 -1556 0
-1544 -1557 0
-1544 -1558 0
-1544 -1559 0
-1544 -1560 0
-1544 -1561 0
-1544 -1562 0
-1544 -1563 0
-1544 -1564 0
-1544 -1565 0
-1544 -1566 0
-1544 -1567 0
-1544 -1568 0
-1544 -1569 0
-1544 -1570 0
-1544 -1571 0
-1544 -1572 0
-1544 -1573 0
-1544 -1574 0
-1544 -1575 0
-1544 -1576 0
-1544 -1577 0
-1544 -1578 0
-1544 -1579 0
-1544 -1580 0
-1544 -1581 0
-1544 -1582 0
-1544 -1583 0
-1544 -1584 0
-1544 -1585 0
-1544 -1586 0
-1544 -1587 0
-1544 -1588 0
-1544 -1589 0
-1544 -1590 0
-1544 -1591 0
-1544 -1592 0
-1544 -1593 0
-1544 -1594 0
-1544 -1595 0
-1544 -1596 0
-1544 -1597 0
-1544 -1598 0
-1544 -1599 0
-1544 -1600 0
-1544 -1601 0
-1544 -1602 0
-1544 -1603 0
-1544 -1604 0
-1544 -1605 0
-1544 -1606 0
-1544 -1607 0
-1544 -1608 0
-1544 -1609 0
-1544 -1610 0
-1544 -1611 0
-1544 -1612 0
-1544 -1613 0
-1544 -1614 0
-1544 -1615 0
-1544 -1616 0
-1544 -1617 0
-1544 -1618 0
-1544 -1619 0
-1544 -1620 0
-1544 -1621 0
-1545 -1546 0
-1545 -1547 0
-1545 -1548 0
-1545 -1549 0
-1545 -1550 0
-1545 -1551 0
-1545 -1552 0
-1545 -1553 0
-1545 -1554 0
-1545 -1555 0
-1545 -1556 0
-1545 -1557 0
-1545 -1558 0
-1545 -1559 0
-1545 -1560 0
-1545 -1561 0
-1545 -1562 0
-1545 -1563 0
-1545 -1564 0
-1545 -1565 0
-1545 -1566 0
-1545 -1567 0
-1545 -1568 0
-1545 -1569 0
-1545 -1570 0
-1545 -1571 0
-1545 -1572 0
-1545 -1573 0
-1545 -1574 0
-1545 -1575 0
-1545 -1576 0
-1545 -1577 0
-1545 -1578 0
-1545 -1579 0
-1545 -1580 0
-1545 -1581 0
-1545 -1582 0
-1545 -1583 0
-1545 -1584 0
-1545 -1585 0
-1545 -1586 0
-1545 -1587 0
-1545 -1588 0
-1545 -1589 0
-1545 -1590 0
-1545 -1591 0
-1545 -1592 0
-1545 -1593 0
-1545 -1594 0
-1545 -1595 0
-1545 -1596 0
-1545 -1597 0
-1545 -1598 0
-1545 -1599 0
-1545 -1600 0
-1545 -1601 0
-1545 -1602 0
-1545 -1603 0
-1545 -1604 0
-1545 -1605 0
-1545 -1606 0
-1545 -1607 0
-1545 -1608 0
-1545 -1609 0
-1545 -1610 0
-1545 -1611 0
-1545 -1612 0
-1545 -1613 0
-1545 -1614 0
-1545 -1615 0
-1545 -1616 0
-1545 -1617 0
-1545 -1618 0
-1545 -1619 0
-1545 -1620 0
-1545 -1621 0
-1546 -1547 0
-1546 -1548 0
-1546 -1549 0
-1546 -1550 0
-1546 -1551 0
-1546 -1552 0
-1546 -1553 0
-1546 -1554 0
-1546 -1555 0
-1546 -1556 0
-1546 -1557 0
-1546 -1558 0
-1546 -1559 0
-1546 -1560 0
-1546 -1561 0
-1546 -1562 0
-1546 -1563 0
-1546 -1564 0
-1546 -1565 0
-1546 -1566 0
-1546 -1567 0
-1546 -1568 0
-1546 -1569 0
-1546 -1570 0
-1546 -1571 0
-1546 -1572 0
-1546 -1573 0
-1546 -1574 0
-1546 -1575 0
-1546 -1576 0
-1546 -1577 0
-1546 -1578 0
-1546 -1579 0
-1546 -1580 0
-1546 -1581 0
-1546 -1582 0
-1546 -1583 0
-1546 -1584 0
-1546 -1585 0
-1546 -1586 0
-1546 -1587 0
-1546 -1588 0
-1546 -1589 0
-1546 -1590 0
-1546 -1591 0
-1546 -1592 0
-1546 -1593 0
-1546 -1594 0
-1546 -1595 0
-1546 -1596 0
-1546 -1597 0
-1546 -1598 0
-1546 -1599 0
-1546 -1600 0
-1546 -1601 0
-1546 -1602 0
-1546 -1603 0
-1546 -1604 0
-1546 -1605 0
-1546 -1606 0
-1546 -1607 0
-1546 -1608 0
-1546 -1609 0
-1546 -1610 0
-1546 -1611 0
-1546 -1612 0
-1546 -1613 0
-1546 -1614 0
-1546 -1615 0
-1546 -1616 0
-1546 -1617 0
-1546 -1618 0
-1546 -1619 0
-1546 -1620 0
-1546 -1621 0
-1547 -1548 0
-1547 -1549 0
-1547 -1550 0
-1547 -1551 0
-1547 -1552 0
-1547 -1553 0
-1547 -1554 0
-1547 -1555 0
-1547 -1556 0
-1547 -1557 0
-1547 -1558 0
-1547 -1559 0
-1547 -1560 0
-1547 -1561 0
-1547 -1562 0
-1547 -1563 0
-1547 -1564 0
-1547 -1565 0
-1547 -1566 0
-1547 -1567 0
-1547 -1568 0
-1547 -1569 0
-1547 -1570 0
-1547 -1571 0
-1547 -1572 0
-1547 -1573 0
-1547 -1574 0
-1547 -1575 0
-1547 -1576 0
-1547 -1577 0
-1547 -1578 0
-1547 -1579 0
-1547 -1580 0
-1547 -1581 0
-1547 -1582 0
-1547 -1583 0
-1547 -1584 0
-1547 -1585 0
-1547 -1586 0
-1547 -1587 0
-1547 -1588 0
-1547 -1589 0
-1547 -1590 0
-1547 -1591 0
-1547 -1592 0
-1547 -1593 0
-1547 -1594 0
-1547 -1595 0
-1547 -1596 0
-1547 -1597 0
-1547 -1598 0
-1547 -1599 0
-1547 -1600 0
-1547 -1601 0
-1547 -1602 0
-1547 -1603 0
-1547 -1604 0
-1547 -1605 0
-1547 -1606 0
-1547 -1607 0
-1547 -1608 0
-1547 -1609 0
-1547 -1610 0
-1547 -1611 0
-1547 -1612 0
-1547 -1613 0
-1547 -1614 0
-1547 -1615 0
-1547 -1616 0
-1547 -1617 0
-1547 -1618 0
-1547 -1619 0
-1547 -1620 0
-1547 -1621 0
-1548 -1549 0
-1548 -1550 0
-1548 -1551 0
-1548 -1552 0
-1548 -1553 0
-1548 -1554 0
-1548 -1555 0
-1548 -1556 0
-1548 -1557 0
-1548 -1558 0
-1548 -1559 0
-1548 -1560 0
-1548 -1561 0
-1548 -1562 0
-1548 -1563 0
-1548 -1564 0
-1548 -1565 0
-1548 -1566 0
-1548 -1567 0
-1548 -1568 0
-1548 -1569 0
-1548 -1570 0
-1548 -1571 0
-1548 -1572 0
-1548 -1573 0
-1548 -1574 0
-1548 -1575 0
-1548 -1576 0
-1548 -1577 0
-1548 -1578 0
-1548 -1579 0
-1548 -1580 0
-1548 -1581 0
-1548 -1582 0
-1548 -1583 0
-1548 -1584 0
-1548 -1585 0
-1548 -1586 0
-1548 -1587 0
-1548 -1588 0
-1548 -1589 0
-1548 -1590 0
-1548 -1591 0
-1548 -1592 0
-1548 -1593 0
-1548 -1594 0
-1548 -1595 0
-1548 -1596 0
-1548 -1597 0
-1548 -1598 0
-1548 -1599 0
-1548 -1600 0
-1548 -1601 0
-1548 -1602 0
-1548 -1603 0
-1548 -1604 0
-1548 -1605 0
-1548 -1606 0
-1548 -1607 0
-1548 -1608 0
-1548 -1609 0
-1548 -1610 0
-1548 -1611 0
-1548 -1612 0
-1548 -1613 0
-1548 -1614 0
-1548 -1615 0
-1548 -1616 0
-1548 -1617 0
-1548 -1618 0
-1548 -1619 0
-1548 -1620 0
-1548 -1621 0
-1549 -1550 0
-1549 -1551 0
-1549 -1552 0
-1549 -1553 0
-1549 -1554 0
-1549 -1555 0
-1549 -1556 0
-1549 -1557 0
-1549 -1558 0
-1549 -1559 0
-1549 -1560 0
-1549 -1561 0
-1549 -1562 0
-1549 -1563 0
-1549 -1564 0
-1549 -1565 0
-1549 -1566 0
-1549 -1567 0
-1549 -1568 0
-1549 -1569 0
-1549 -1570 0
-1549 -1571 0
-1549 -1572 0
-1549 -1573 0
-1549 -1574 0
-1549 -1575 0
-1549 -1576 0
-1549 -1577 0
-1549 -1578 0
-1549 -1579 0
-1549 -1580 0
-1549 -1581 0
-1549 -1582 0
-1549 -1583 0
-1549 -1584 0
-1549 -1585 0
-1549 -1586 0
-1549 -1587 0
-1549 -1588 0
-1549 -1589 0
-1549 -1590 0
-1549 -1591 0
-1549 -1592 0
-1549 -1593 0
-1549 -1594 0
-1549 -1595 0
-1549 -1596 0
-1549 -1597 0
-1549 -1598 0
-1549 -1599 0
-1549 -1600 0
-1549 -1601 0
-1549 -1602 0
-1549 -1603 0
-1549 -1604 0
-1549 -1605 0
-1549 -1606 0
-1549 -1607 0
-1549 -1608 0
-1549 -1609 0
-1549 -1610 0
-1549 -1611 0
-1549 -1612 0
-1549 -1613 0
-1549 -1614 0
-1549 -1615 0
-1549 -1616 0
-1549 -1617 0
-1549 -1618 0
-1549 -1619 0
-1549 -1620 0
-1549 -1621 0
-1550 -1551 0
-1550 -1552 0
-1550 -1553 0
-1550 -1554 0
-1550 -1555 0
-1550 -1556 0
-1550 -1557 0
-1550 -1558 0
-1550 -1559 0
-1550 -1560 0
-1550 -1561 0
-1550 -1562 0
-1550 -1563 0
-1550 -1564 0
-1550 -1565 0
-1550 -1566 0
-1550 -1567 0
-1550 -1568 0
-1550 -1569 0
-1550 -1570 0
-1550 -1571 0
-1550 -1572 0
-1550 -1573 0
-1550 -1574 0
-1550 -1575 0
-1550 -1576 0
-1550 -1577 0
-1550 -1578 0
-1550 -1579 0
-1550 -1580 0
-1550 -1581 0
-1550 -1582 0
-1550 -1583 0
-1550 -1584 0
-1550 -1585 0
-1550 -1586 0
-1550 -1587 0
-1550 -1588 0
-1550 -1589 0
-1550 -1590 0
-1550 -1591 0
-1550 -1592 0
-1550 -1593 0
-1550 -1594 0
-1550 -1595 0
-1550 -1596 0
-1550 -1597 0
-1550 -1598 0
-1550 -1599 0
-1550 -1600 0
-1550 -1601 0
-1550 -1602 0
-1550 -1603 0
-1550 -1604 0
-1550 -1605 0
-1550 -1606 0
-1550 -1607 0
-1550 -1608 0
-1550 -1609 0
-1550 -1610 0
-1550 -1611 0
-1550 -1612 0
-1550 -1613 0
-1550 -1614 0
-1550 -1615 0
-1550 -1616 0
-1550 -1617 0
-1550 -1618 0
-1550 -1619 0
-1550 -1620 0
-1550 -1621 0
-1551 -1552 0
-1551 -1553 0
-1551 -1554 0
-1551 -1555 0
-1551 -1556 0
-1551 -1557 0
-1551 -1558 0
-1551 -1559 0
-1551 -1560 0
-1551 -1561 0
-1551 -1562 0
-1551 -1563 0
-1551 -1564 0
-1551 -1565 0
-1551 -1566 0
-1551 -1567 0
-1551 -1568 0
-1551 -1569 0
-1551 -1570 0
-1551 -1571 0
-1551 -1572 0
-1551 -1573 0
-1551 -1574 0
-1551 -1575 0
-1551 -1576 0
-1551 -1577 0
-1551 -1578 0
-1551 -1579 0
-1551 -1580 0
-1551 -1581 0
-1551 -1582 0
-1551 -1583 0
-1551 -1584 0
-1551 -1585 0
-1551 -1586 0
-1551 -1587 0
-1551 -1588 0
-1551 -1589 0
-1551 -1590 0
-1551 -1591 0
-1551 -1592 0
-1551 -1593 0
-1551 -1594 0
-1551 -1595 0
-1551 -1596 0
-1551 -1597 0
-1551 -1598 0
-1551 -1599 0
-1551 -1600 0
-1551 -1601 0
-1551 -1602 0
-1551 -1603 0
-1551 -1604 0
-1551 -1605 0
-1551 -1606 0
-1551 -1607 0
-1551 -1608 0
-1551 -1609 0
-1551 -1610 0
-1551 -1611 0
-1551 -1612 0
-1551 -1613 0
-1551 -1614 0
-1551 -1615 0
-1551 -1616 0
-1551 -1617 0
-1551 -1618 0
-1551 -1619 0
-1551 -1620 0
-1551 -1621 0
-1552 -1553 0
-1552 -1554 0
-1552 -1555 0
-1552 -1556 0
-1552 -1557 0
-1552 -1558 0
-1552 -1559 0
-1552 -1560 0
-1552 -1561 0
-1552 -1562 0
-1552 -1563 0
-1552 -1564 0
-1552 -1565 0
-1552 -1566 0
-1552 -1567 0
-1552 -1568 0
-1552 -1569 0
-1552 -1570 0
-1552 -1571 0
-1552 -1572 0
-1552 -1573 0
-1552 -1574 0
-1552 -1575 0
-1552 -1576 0
-1552 -1577 0
-1552 -1578 0
-1552 -1579 0
-1552 -1580 0
-1552 -1581 0
-1552 -1582 0
-1552 -1583 0
-1552 -1584 0
-1552 -1585 0
-1552 -1586 0
-1552 -1587 0
-1552 -1588 0
-1552 -1589 0
-1552 -1590 0
-1552 -1591 0
-1552 -1592 0
-1552 -1593 0
-1552 -1594 0
-1552 -1595 0
-1552 -1596 0
-1552 -1597 0
-1552 -1598 0
-1552 -1599 0
-1552 -1600 0
-1552 -1601 0
-1552 -1602 0
-1552 -1603 0
-1552 -1604 0
-1552 -1605 0
-1552 -1606 0
-1552 -1607 0
-1552 -1608 0
-1552 -1609 0
-1552 -1610 0
-1552 -1611 0
-1552 -1612 0
-1552 -1613 0
-1552 -1614 0
-1552 -1615 0
-1552 -1616 0
-1552 -1617 0
-1552 -1618 0
-1552 -1619 0
-1552 -1620 0
-1552 -1621 0
-1553 -1554 0
-1553 -1555 0
-1553 -1556 0
-1553 -1557 0
-1553 -1558 0
-1553 -1559 0
-1553 -1560 0
-1553 -1561 0
-1553 -1562 0
-1553 -1563 0
-1553 -1564 0
-1553 -1565 0
-1553 -1566 0
-1553 -1567 0
-1553 -1568 0
-1553 -1569 0
-1553 -1570 0
-1553 -1571 0
-1553 -1572 0
-1553 -1573 0
-1553 -1574 0
-1553 -1575 0
-1553 -1576 0
-1553 -1577 0
-1553 -1578 0
-1553 -1579 0
-1553 -1580 0
-1553 -1581 0
-1553 -1582 0
-1553 -1583 0
-1553 -1584 0
-1553 -1585 0
-1553 -1586 0
-1553 -1587 0
-1553 -1588 0
-1553 -1589 0
-1553 -1590 0
-1553 -1591 0
-1553 -1592 0
-1553 -1593 0
-1553 -1594 0
-1553 -1595 0
-1553 -1596 0
-1553 -1597 0
-1553 -1598 0
-1553 -1599 0
-1553 -1600 0
-1553 -1601 0
-1553 -1602 0
-1553 -1603 0
-1553 -1604 0
-1553 -1605 0
-1553 -1606 0
-1553 -1607 0
-1553 -1608 0
-1553 -1609 0
-1553 -1610 0
-1553 -1611 0
-1553 -1612 0
-1553 -1613 0
-1553 -1614 0
-1553 -1615 0
-1553 -1616 0
-1553 -1617 0
-1553 -1618 0
-1553 -1619 0
-1553 -1620 0
-1553 -1621 0
-1554 -1555 0
-1554 -1556 0
-1554 -1557 0
-1554 -1558 0
-1554 -1559 0
-1554 -1560 0
-1554 -1561 0
-1554 -1562 0
-1554 -1563 0
-1554 -1564 0
-1554 -1565 0
-1554 -1566 0
-1554 -1567 0
-1554 -1568 0
-1554 -1569 0
-1554 -1570 0
-1554 -1571 0
-1554 -1572 0
-1554 -1573 0
-1554 -1574 0
-1554 -1575 0
-1554 -1576 0
-1554 -1577 0
-1554 -1578 0
-1554 -1579 0
-1554 -1580 0
-1554 -1581 0
-1554 -1582 0
-1554 -1583 0
-1554 -1584 0
-1554 -1585 0
-1554 -1586 0
-1554 -1587 0
-1554 -1588 0
-1554 -1589 0
-1554 -1590 0
-1554 -1591 0
-1554 -1592 0
-1554 -1593 0
-1554 -1594 0
-1554 -1595 0
-1554 -1596 0
-1554 -1597 0
-1554 -1598 0
-1554 -1599 0
-1554 -1600 0
-1554 -1601 0
-1554 -1602 0
-1554 -1603 0
-1554 -1604 0
-1554 -1605 0
-1554 -1606 0
-1554 -1607 0
-1554 -1608 0
-1554 -1609 0
-1554 -1610 0
-1554 -1611 0
-1554 -1612 0
-1554 -1613 0
-1554 -1614 0
-1554 -1615 0
-1554 -1616 0
-1554 -1617 0
-1554 -1618 0
-1554 -1619 0
-1554 -1620 0
-1554 -1621 0
-1555 -1556 0
-1555 -1557 0
-1555 -1558 0
-1555 -1559 0
-1555 -1560 0
-1555 -1561 0
-1555 -1562 0
-1555 -1563 0
-1555 -1564 0
-1555 -1565 0
-1555 -1566 0
-1555 -1567 0
-1555 -1568 0
-1555 -1569 0
-1555 -1570 0
-1555 -1571 0
-1555 -1572 0
-1555 -1573 0
-1555 -1574 0
-1555 -1575 0
-1555 -1576 0
-1555 -1577 0
-1555 -1578 0
-1555 -1579 0
-1555 -1580 0
-1555 -1581 0
-1555 -1582 0
-1555 -1583 0
-1555 -1584 0
-1555 -1585 0
-1555 -1586 0
-1555 -1587 0
-1555 -1588 0
-1555 -1589 0
-1555 -1590 0
-1555 -1591 0
-1555 -1592 0
-1555 -1593 0
-1555 -1594 0
-1555 -1595 0
-1555 -1596 0
-1555 -1597 0
-1555 -1598 0
-1555 -1599 0
-1555 -1600 0
-1555 -1601 0
-1555 -1602 0
-1555 -1603 0
-1555 -1604 0
-1555 -1605 0
-1555 -1606 0
-1555 -1607 0
-1555 -1608 0
-1555 -1609 0
-1555 -1610 0
-1555 -1611 0
-1555 -1612 0
-1555 -1613 0
-1555 -1614 0
-1555 -1615 0
-1555 -1616 0
-1555 -1617 0
-1555 -1618 0
-1555 -1619 0
-1555 -1620 0
-1555 -1621 0
-1556 -1557 0
-1556 -1558 0
-1556 -1559 0
-1556 -1560 0
-1556 -1561 0
-1556 -1562 0
-1556 -1563 0
-1556 -1564 0
-1556 -1565 0
-1556 -1566 0
-1556 -1567 0
-1556 -1568 0
-1556 -1569 0
-1556 -1570 0
-1556 -1571 0
-1556 -1572 0
-1556 -1573 0
-1556 -1574 0
-1556 -1575 0
-1556 -1576 0
-1556 -1577 0
-1556 -1578 0
-1556 -1579 0
-1556 -1580 0
-1556 -1581 0
-1556 -1582 0
-1556 -1583 0
-1556 -1584 0
-1556 -1585 0
-1556 -1586 0
-1556 -1587 0
-1556 -1588 0
-1556 -1589 0
-1556 -1590 0
-1556 -1591 0
-1556 -1592 0
-1556 -1593 0
-1556 -1594 0
-1556 -1595 0
-1556 -1596 0
-1556 -1597 0
-1556 -1598 0
-1556 -1599 0
-1556 -1600 0
-1556 -1601 0
-1556 -1602 0
-1556 -1603 0
-1556 -1604 0
-1556 -1605 0
-1556 -1606 0
-1556 -1607 0
-1556 -1608 0
-1556 -1609 0
-1556 -1610 0
-1556 -1611 0
-1556 -1612 0
-1556 -1613 0
-1556 -1614 0
-1556 -1615 0
-1556 -1616 0
-1556 -1617 0
-1556 -1618 0
-1556 -1619 0
-1556 -1620 0
-1556 -1621 0
-1557 -1558 0
-1557 -1559 0
-1557 -1560 0
-1557 -1561 0
-1557 -1562 0
-1557 -1563 0
-1557 -1564 0
-1557 -1565 0
-1557 -1566 0
-1557 -1567 0
-1557 -1568 0
-1557 -1569 0
-1557 -1570 0
-1557 -1571 0
-1557 -1572 0
-1557 -1573 0
-1557 -1574 0
-1557 -1575 0
-1557 -1576 0
-1557 -1577 0
-1557 -1578 0
-1557 -1579 0
-1557 -1580 0
-1557 -1581 0
-1557 -1582 0
-1557 -1583 0
-1557 -1584 0
-1557 -1585 0
-1557 -1586 0
-1557 -1587 0
-1557 -1588 0
-1557 -1589 0
-1557 -1590 0
-1557 -1591 0
-1557 -1592 0
-1557 -1593 0
-1557 -1594 0
-1557 -1595 0
-1557 -1596 0
-1557 -1597 0
-1557 -1598 0
-1557 -1599 0
-1557 -1600 0
-1557 -1601 0
-1557 -1602 0
-1557 -1603 0
-1557 -1604 0
-1557 -1605 0
-1557 -1606 0
-1557 -1607 0
-1557 -1608 0
-1557 -1609 0
-1557 -1610 0
-1557 -1611 0
-1557 -1612 0
-1557 -1613 0
-1557 -1614 0
-1557 -1615 0
-1557 -1616 0
-1557 -1617 0
-1557 -1618 0
-1557 -1619 0
-1557 -1620 0
-1557 -1621 0
-1558 -1559 0
-1558 -1560 0
-1558 -1561 0
-1558 -1562 0
-1558 -1563 0
-1558 -1564 0
-1558 -1565 0
-1558 -1566 0
-1558 -1567 0
-1558 -1568 0
-1558 -1569 0
-1558 -1570 0
-1558 -1571 0
-1558 -1572 0
-1558 -1573 0
-1558 -1574 0
-1558 -1575 0
-1558 -1576 0
-1558 -1577 0
-1558 -1578 0
-1558 -1579 0
-1558 -1580 0
-1558 -1581 0
-1558 -1582 0
-1558 -1583 0
-1558 -1584 0
-1558 -1585 0
-1558 -1586 0
-1558 -1587 0
-1558 -1588 0
-1558 -1589 0
-1558 -1590 0
-1558 -1591 0
-1558 -1592 0
-1558 -1593 0
-1558 -1594 0
-1558 -1595 0
-1558 -1596 0
-1558 -1597 0
-1558 -1598 0
-1558 -1599 0
-1558 -1600 0
-1558 -1601 0
-1558 -1602 0
-1558 -1603 0
-1558 -1604 0
-1558 -1605 0
-1558 -1606 0
-1558 -1607 0
-1558 -1608 0
-1558 -1609 0
-1558 -1610 0
-1558 -1611 0
-1558 -1612 0
-1558 -1613 0
-1558 -1614 0
-1558 -1615 0
-1558 -1616 0
-1558 -1617 0
-1558 -1618 0
-1558 -1619 0
-1558 -1620 0
-1558 -1621 0
-1559 -1560 0
-1559 -1561 0
-1559 -1562 0
-1559 -1563 0
-1559 -1564 0
-1559 -1565 0
-1559 -1566 0
-1559 -1567 0
-1559 -1568 0
-1559 -1569 0
-1559 -1570 0
-1559 -1571 0
-1559 -1572 0
-1559 -1573 0
-1559 -1574 0
-1559 -1575 0
-1559 -1576 0
-1559 -1577 0
-1559 -1578 0
-1559 -1579 0
-1559 -1580 0
-1559 -1581 0
-1559 -1582 0
-1559 -1583 0
-1559 -1584 0
-1559 -1585 0
-1559 -1586 0
-1559 -1587 0
-1559 -1588 0
-1559 -1589 0
-1559 -1590 0
-1559 -1591 0
-1559 -1592 0
-1559 -1593 0
-1559 -1594 0
-1559 -1595 0
-1559 -1596 0
-1559 -1597 0
-1559 -1598 0
-1559 -1599 0
-1559 -1600 0
-1559 -1601 0
-1559 -1602 0
-1559 -1603 0
-1559 -1604 0
-1559 -1605 0
-1559 -1606 0
-1559 -1607 0
-1559 -1608 0
-1559 -1609 0
-1559 -1610 0
-1559 -1611 0
-1559 -1612 0
-1559 -1613 0
-1559 -1614 0
-1559 -1615 0
-1559 -1616 0
-1559 -1617 0
-1559 -1618 0
-1559 -1619 0
-1559 -1620 0
-1559 -1621 0
-1560 -1561 0
-1560 -1562 0
-1560 -1563 0
-1560 -1564 0
-1560 -1565 0
-1560 -1566 0
-1560 -1567 0
-1560 -1568 0
-1560 -1569 0
-1560 -1570 0
-1560 -1571 0
-1560 -1572 0
-1560 -1573 0
-1560 -1574 0
-1560 -1575 0
-1560 -1576 0
-1560 -1577 0
-1560 -1578 0
-1560 -1579 0
-1560 -1580 0
-1560 -1581 0
-1560 -1582 0
-1560 -1583 0
-1560 -1584 0
-1560 -1585 0
-1560 -1586 0
-1560 -1587 0
-1560 -1588 0
-1560 -1589 0
-1560 -1590 0
-1560 -1591 0
-1560 -1592 0
-1560 -1593 0
-1560 -1594 0
-1560 -1595 0
-1560 -1596 0
-1560 -1597 0
-1560 -1598 0
-1560 -1599 0
-1560 -1600 0
-1560 -1601 0
-1560 -1602 0
-1560 -1603 0
-1560 -1604 0
-1560 -1605 0
-1560 -1606 0
-1560 -1607 0
-1560 -1608 0
-1560 -1609 0
-1560 -1610 0
-1560 -1611 0
-1560 -1612 0
-1560 -1613 0
-1560 -1614 0
-1560 -1615 0
-1560 -1616 0
-1560 -1617 0
-1560 -1618 0
-1560 -1619 0
-1560 -1620 0
-1560 -1621 0
-1561 -1562 0
-1561 -1563 0
-1561 -1564 0
-1561 -1565 0
-1561 -1566 0
-1561 -1567 0
-1561 -1568 0
-1561 -1569 0
-1561 -1570 0
-1561 -1571 0
-1561 -1572 0
-1561 -1573 0
-1561 -1574 0
-1561 -1575 0
-1561 -1576 0
-1561 -1577 0
-1561 -1578 0
-1561 -1579 0
-1561 -1580 0
-1561 -1581 0
-1561 -1582 0
-1561 -1583 0
-1561 -1584 0
-1561 -1585 0
-1561 -1586 0
-1561 -1587 0
-1561 -1588 0
-1561 -1589 0
-1561 -1590 0
-1561 -1591 0
-1561 -1592 0
-1561 -1593 0
-1561 -1594 0
-1561 -1595 0
-1561 -1596 0
-1561 -1597 0
-1561 -1598 0
-1561 -1599 0
-1561 -1600 0
-1561 -1601 0
-1561 -1602 0
-1561 -1603 0
-1561 -1604 0
-1561 -1605 0
-1561 -1606 0
-1561 -1607 0
-1561 -1608 0
-1561 -1609 0
-1561 -1610 0
-1561 -1611 0
-1561 -1612 0
-1561 -1613 0
-1561 -1614 0
-1561 -1615 0
-1561 -1616 0
-1561 -1617 0
-1561 -1618 0
-1561 -1619 0
-1561 -1620 0
-1561 -1621 0
-1562 -1563 0
-1562 -1564 0
-1562 -1565 0
-1562 -1566 0
-1562 -1567 0
-1562 -1568 0
-1562 -1569 0
-1562 -1570 0
-1562 -1571 0
-1562 -1572 0
-1562 -1573 0
-1562 -1574 0
-1562 -1575 0
-1562 -1576 0
-1562 -1577 0
-1562 -1578 0
-1562 -1579 0
-1562 -1580 0
-1562 -1581 0
-1562 -1582 0
-1562 -1583 0
-1562 -1584 0
-1562 -1585 0
-1562 -1586 0
-1562 -1587 0
-1562 -1588 0
-1562 -1589 0
-1562 -1590 0
-1562 -1591 0
-1562 -1592 0
-1562 -1593 0
-1562 -1594 0
-1562 -1595 0
-1562 -1596 0
-1562 -1597 0
-1562 -1598 0
-1562 -1599 0
-1562 -1600 0
-1562 -1601 0
-1562 -1602 0
-1562 -1603 0
-1562 -1604 0
-1562 -1605 0
-1562 -1606 0
-1562 -1607 0
-1562 -1608 0
-1562 -1609 0
-1562 -1610 0
-1562 -1611 0
-1562 -1612 0
-1562 -1613 0
-1562 -1614 0
-1562 -1615 0
-1562 -1616 0
-1562 -1617 0
-1562 -1618 0
-1562 -1619 0
-1562 -1620 0
-1562 -1621 0
-1563 -1564 0
-1563 -1565 0
-1563 -1566 0
-1563 -1567 0
-1563 -1568 0
-1563 -1569 0
-1563 -1570 0
-1563 -1571 0
-1563 -1572 0
-1563 -1573 0
-1563 -1574 0
-1563 -1575 0
-1563 -1576 0
-1563 -1577 0
-1563 -1578 0
-1563 -1579 0
-1563 -1580 0
-1563 -1581 0
-1563 -1582 0
-1563 -1583 0
-1563 -1584 0
-1563 -1585 0
-1563 -1586 0
-1563 -1587 0
-1563 -1588 0
-1563 -1589 0
-1563 -1590 0
-1563 -1591 0
-1563 -1592 0
-1563 -1593 0
-1563 -1594 0
-1563 -1595 0
-1563 -1596 0
-1563 -1597 0
-1563 -1598 0
-1563 -1599 0
-1563 -1600 0
-1563 -1601 0
-1563 -1602 0
-1563 -1603 0
-1563 -1604 0
-1563 -1605 0
-1563 -1606 0
-1563 -1607 0
-1563 -1608 0
-1563 -1609 0
-1563 -1610 0
-1563 -1611 0
-1563 -1612 0
-1563 -1613 0
-1563 -1614 0
-1563 -1615 0
-1563 -1616 0
-1563 -1617 0
-1563 -1618 0
-1563 -1619 0
-1563 -1620 0
-1563 -1621 0
-1564 -1565 0
-1564 -1566 0
-1564 -1567 0
-1564 -1568 0
-1564 -1569 0
-1564 -1570 0
-1564 -1571 0
-1564 -1572 0
-1564 -1573 0
-1564 -1574 0
-1564 -1575 0
-1564 -1576 0
-1564 -1577 0
-1564 -1578 0
-1564 -1579 0
-1564 -1580 0
-1564 -1581 0
-1564 -1582 0
-1564 -1583 0
-1564 -1584 0
-1564 -1585 0
-1564 -1586 0
-1564 -1587 0
-1564 -1588 0
-1564 -1589 0
-1564 -1590 0
-1564 -1591 0
-1564 -1592 0
-1564 -1593 0
-1564 -1594 0
-1564 -1595 0
-1564 -1596 0
-1564 -1597 0
-1564 -1598 0
-1564 -1599 0
-1564 -1600 0
-1564 -1601 0
-1564 -1602 0
-1564 -1603 0
-1564 -1604 0
-1564 -1605 0
-1564 -1606 0
-1564 -1607 0
-1564 -1608 0
-1564 -1609 0
-1564 -1610 0
-1564 -1611 0
-1564 -1612 0
-1564 -1613 0
-1564 -1614 0
-1564 -1615 0
-1564 -1616 0
-1564 -1617 0
-1564 -1618 0
-1564 -1619 0
-1564 -1620 0
-1564 -1621 0
-1565 -1566 0
-1565 -1567 0
-1565 -1568 0
-1565 -1569 0
-1565 -1570 0
-1565 -1571 0
-1565 -1572 0
-1565 -1573 0
-1565 -1574 0
-1565 -1575 0
-1565 -1576 0
-1565 -1577 0
-1565 -1578 0
-1565 -1579 0
-1565 -1580 0
-1565 -1581 0
-1565 -1582 0
-1565 -1583 0
-1565 -1584 0
-1565 -1585 0
-1565 -1586 0
-1565 -1587 0
-1565 -1588 0
-1565 -1589 0
-1565 -1590 0
-1565 -1591 0
-1565 -1592 0
-1565 -1593 0
-1565 -1594 0
-1565 -1595 0
-1565 -1596 0
-1565 -1597 0
-1565 -1598 0
-1565 -1599 0
-1565 -1600 0
-1565 -1601 0
-1565 -1602 0
-1565 -1603 0
-1565 -1604 0
-1565 -1605 0
-1565 -1606 0
-1565 -1607 0
-1565 -1608 0
-1565 -1609 0
-1565 -1610 0
-1565 -1611 0
-1565 -1612 0
-1565 -1613 0
-1565 -1614 0
-1565 -1615 0
-1565 -1616 0
-1565 -1617 0
-1565 -1618 0
-1565 -1619 0
-1565 -1620 0
-1565 -1621 0
-1566 -1567 0
-1566 -1568 0
-1566 -1569 0
-1566 -1570 0
-1566 -1571 0
-1566 -1572 0
-1566 -1573 0
-1566 -1574 0
-1566 -1575 0
-1566 -1576 0
-1566 -1577 0
-1566 -1578 0
-1566 -1579 0
-1566 -1580 0
-1566 -1581 0
-1566 -1582 0
-1566 -1583 0
-1566 -1584 0
-1566 -1585 0
-1566 -1586 0
-1566 -1587 0
-1566 -1588 0
-1566 -1589 0
-1566 -1590 0
-1566 -1591 0
-1566 -1592 0
-1566 -1593 0
-1566 -1594 0
-1566 -1595 0
-1566 -1596 0
-1566 -1597 0
-1566 -1598 0
-1566 -1599 0
-1566 -1600 0
-1566 -1601 0
-1566 -1602 0
-1566 -1603 0
-1566 -1604 0
-1566 -1605 0
-1566 -1606 0
-1566 -1607 0
-1566 -1608 0
-1566 -1609 0
-1566 -1610 0
-1566 -1611 0
-1566 -1612 0
-1566 -1613 0
-1566 -1614 0
-1566 -1615 0
-1566 -1616 0
-1566 -1617 0
-1566 -1618 0
-1566 -1619 0
-1566 -1620 0
-1566 -1621 0
-1567 -1568 0
-1567 -1569 0
-1567 -1570 0
-1567 -1571 0
-1567 -1572 0
-1567 -1573 0
-1567 -1574 0
-1567 -1575 0
-1567 -1576 0
-1567 -1577 0
-1567 -1578 0
-1567 -1579 0
-1567 -1580 0
-1567 -1581 0
-1567 -1582 0
-1567 -1583 0
-1567 -1584 0
-1567 -1585 0
-1567 -1586 0
-1567 -1587 0
-1567 -1588 0
-1567 -1589 0
-1567 -1590 0
-1567 -1591 0
-1567 -1592 0
-1567 -1593 0
-1567 -1594 0
-1567 -1595 0
-1567 -1596 0
-1567 -1597 0
-1567 -1598 0
-1567 -1599 0
-1567 -1600 0
-1567 -1601 0
-1567 -1602 0
-1567 -1603 0
-1567 -1604 0
-1567 -1605 0
-1567 -1606 0
-1567 -1607 0
-1567 -1608 0
-1567 -1609 0
-1567 -1610 0
-1567 -1611 0
-1567 -1612 0
-1567 -1613 0
-1567 -1614 0
-1567 -1615 0
-1567 -1616 0
-1567 -1617 0
-1567 -1618 0
-1567 -1619 0
-1567 -1620 0
-1567 -1621 0
-1568 -1569 0
-1568 -1570 0
-1568 -1571 0
-1568 -1572 0
-1568 -1573 0
-1568 -1574 0
-1568 -1575 0
-1568 -1576 0
-1568 -1577 0
-1568 -1578 0
-1568 -1579 0
-1568 -1580 0
-1568 -1581 0
-1568 -1582 0
-1568 -1583 0
-1568 -1584 0
-1568 -1585 0
-1568 -1586 0
-1568 -1587 0
-1568 -1588 0
-1568 -1589 0
-1568 -1590 0
-1568 -1591 0
-1568 -1592 0
-1568 -1593 0
-1568 -1594 0
-1568 -1595 0
-1568 -1596 0
-1568 -1597 0
-1568 -1598 0
-1568 -1599 0
-1568 -1600 0
-1568 -1601 0
-1568 -1602 0
-1568 -1603 0
-1568 -1604 0
-1568 -1605 0
-1568 -1606 0
-1568 -1607 0
-1568 -1608 0
-1568 -1609 0
-1568 -1610 0
-1568 -1611 0
-1568 -1612 0
-1568 -1613 0
-1568 -1614 0
-1568 -1615 0
-1568 -1616 0
-1568 -1617 0
-1568 -1618 0
-1568 -1619 0
-1568 -1620 0
-1568 -1621 0
-1569 -1570 0
-1569 -1571 0
-1569 -1572 0
-1569 -1573 0
-1569 -1574 0
-1569 -1575 0
-1569 -1576 0
-1569 -1577 0
-1569 -1578 0
-1569 -1579 0
-1569 -1580 0
-1569 -1581 0
-1569 -1582 0
-1569 -1583 0
-1569 -1584 0
-1569 -1585 0
-1569 -1586 0
-1569 -1587 0
-1569 -1588 0
-1569 -1589 0
-1569 -1590 0
-1569 -1591 0
-1569 -1592 0
-1569 -1593 0
-1569 -1594 0
-1569 -1595 0
-1569 -1596 0
-1569 -1597 0
-1569 -1598 0
-1569 -1599 0
-1569 -1600 0
-1569 -1601 0
-1569 -1602 0
-1569 -1603 0
-1569 -1604 0
-1569 -1605 0
-1569 -1606 0
-1569 -1607 0
-1569 -1608 0
-1569 -1609 0
-1569 -1610 0
-1569 -1611 0
-1569 -1612 0
-1569 -1613 0
-1569 -1614 0
-1569 -1615 0
-1569 -1616 0
-1569 -1617 0
-1569 -1618 0
-1569 -1619 0
-1569 -1620 0
-1569 -1621 0
-1570 -1571 0
-1570 -1572 0
-1570 -1573 0
-1570 -1574 0
-1570 -1575 0
-1570 -1576 0
-1570 -1577 0
-1570 -1578 0
-1570 -1579 0
-1570 -1580 0
-1570 -1581 0
-1570 -1582 0
-1570 -1583 0
-1570 -1584 0
-1570 -1585 0
-1570 -1586 0
-1570 -1587 0
-1570 -1588 0
-1570 -1589 0
-1570 -1590 0
-1570 -1591 0
-1570 -1592 0
-1570 -1593 0
-1570 -1594 0
-1570 -1595 0
-1570 -1596 0
-1570 -1597 0
-1570 -1598 0
-1570 -1599 0
-1570 -1600 0
-1570 -1601 0
-1570 -1602 0
-1570 -1603 0
-1570 -1604 0
-1570 -1605 0
-1570 -1606 0
-1570 -1607 0
-1570 -1608 0
-1570 -1609 0
-1570 -1610 0
-1570 -1611 0
-1570 -1612 0
-1570 -1613 0
-1570 -1614 0
-1570 -1615 0
-1570 -1616 0
-1570 -1617 0
-1570 -1618 0
-1570 -1619 0
-1570 -1620 0
-1570 -1621 0
-1571 -1572 0
-1571 -1573 0
-1571 -1574 0
-1571 -1575 0
-1571 -1576 0
-1571 -1577 0
-1571 -1578 0
-1571 -1579 0
-1571 -1580 0
-1571 -1581 0
-1571 -1582 0
-1571 -1583 0
-1571 -1584 0
-1571 -1585 0
-1571 -1586 0
-1571 -1587 0
-1571 -1588 0
-1571 -1589 0
-1571 -1590 0
-1571 -1591 0
-1571 -1592 0
-1571 -1593 0
-1571 -1594 0
-1571 -1595 0
-1571 -1596 0
-1571 -1597 0
-1571 -1598 0
-1571 -1599 0
-1571 -1600 0
-1571 -1601 0
-1571 -1602 0
-1571 -1603 0
-1571 -1604 0
-1571 -1605 0
-1571 -1606 0
-1571 -1607 0
-1571 -1608 0
-1571 -1609 0
-1571 -1610 0
-1571 -1611 0
-1571 -1612 0
-1571 -1613 0
-1571 -1614 0
-1571 -1615 0
-1571 -1616 0
-1571 -1617 0
-1571 -1618 0
-1571 -1619 0
-1571 -1620 0
-1571 -1621 0
-1572 -1573 0
-1572 -1574 0
-1572 -1575 0
-1572 -1576 0
-1572 -1577 0
-1572 -1578 0
-1572 -1579 0
-1572 -1580 0
-1572 -1581 0
-1572 -1582 0
-1572 -1583 0
-1572 -1584 0
-1572 -1585 0
-1572 -1586 0
-1572 -1587 0
-1572 -1588 0
-1572 -1589 0
-1572 -1590 0
-1572 -1591 0
-1572 -1592 0
-1572 -1593 0
-1572 -1594 0
-1572 -1595 0
-1572 -1596 0
-1572 -1597 0
-1572 -1598 0
-1572 -1599 0
-1572 -1600 0
-1572 -1601 0
-1572 -1602 0
-1572 -1603 0
-1572 -1604 0
-1572 -1605 0
-1572 -1606 0
-1572 -1607 0
-1572 -1608 0
-1572 -1609 0
-1572 -1610 0
-1572 -1611 0
-1572 -1612 0
-1572 -1613 0
-1572 -1614 0
-1572 -1615 0
-1572 -1616 0
-1572 -1617 0
-1572 -1618 0
-1572 -1619 0
-1572 -1620 0
-1572 -1621 0
-1573 -1574 0
-1573 -1575 0
-1573 -1576 0
-1573 -1577 0
-1573 -1578 0
-1573 -1579 0
-1573 -1580 0
-1573 -1581 0
-1573 -1582 0
-1573 -1583 0
-1573 -1584 0
-1573 -1585 0
-1573 -1586 0
-1573 -1587 0
-1573 -1588 0
-1573 -1589 0
-1573 -1590 0
-1573 -1591 0
-1573 -1592 0
-1573 -1593 0
-1573 -1594 0
-1573 -1595 0
-1573 -1596 0
-1573 -1597 0
-1573 -1598 0
-1573 -1599 0
-1573 -1600 0
-1573 -1601 0
-1573 -1602 0
-1573 -1603 0
-1573 -1604 0
-1573 -1605 0
-1573 -1606 0
-1573 -1607 0
-1573 -1608 0
-1573 -1609 0
-1573 -1610 0
-1573 -1611 0
-1573 -1612 0
-1573 -1613 0
-1573 -1614 0
-1573 -1615 0
-1573 -1616 0
-1573 -1617 0
-1573 -1618 0
-1573 -1619 0
-1573 -1620 0
-1573 -1621 0
-1574 -1575 0
-1574 -1576 0
-1574 -1577 0
-1574 -1578 0
-1574 -1579 0
-1574 -1580 0
-1574 -1581 0
-1574 -1582 0
-1574 -1583 0
-1574 -1584 0
-1574 -1585 0
-1574 -1586 0
-1574 -1587 0
-1574 -1588 0
-1574 -1589 0
-1574 -1590 0
-1574 -1591 0
-1574 -1592 0
-1574 -1593 0
-1574 -1594 0
-1574 -1595 0
-1574 -1596 0
-1574 -1597 0
-1574 -1598 0
-1574 -1599 0
-1574 -1600 0
-1574 -1601 0
-1574 -1602 0
-1574 -1603 0
-1574 -1604 0
-1574 -1605 0
-1574 -1606 0
-1574 -1607 0
-1574 -1608 0
-1574 -1609 0
-1574 -1610 0
-1574 -1611 0
-1574 -1612 0
-1574 -1613 0
-1574 -1614 0
-1574 -1615 0
-1574 -1616 0
-1574 -1617 0
-1574 -1618 0
-1574 -1619 0
-1574 -1620 0
-1574 -1621 0
-1575 -1576 0
-1575 -1577 0
-1575 -1578 0
-1575 -1579 0
-1575 -1580 0
-1575 -1581 0
-1575 -1582 0
-1575 -1583 0
-1575 -1584 0
-1575 -1585 0
-1575 -1586 0
-1575 -1587 0
-1575 -1588 0
-1575 -1589 0
-1575 -1590 0
-1575 -1591 0
-1575 -1592 0
-1575 -1593 0
-1575 -1594 0
-1575 -1595 0
-1575 -1596 0
-1575 -1597 0
-1575 -1598 0
-1575 -1599 0
-1575 -1600 0
-1575 -1601 0
-1575 -1602 0
-1575 -1603 0
-1575 -1604 0
-1575 -1605 0
-1575 -1606 0
-1575 -1607 0
-1575 -1608 0
-1575 -1609 0
-1575 -1610 0
-1575 -1611 0
-1575 -1612 0
-1575 -1613 0
-1575 -1614 0
-1575 -1615 0
-1575 -1616 0
-1575 -1617 0
-1575 -1618 0
-1575 -1619 0
-1575 -1620 0
-1575 -1621 0
-1576 -1577 0
-1576 -1578 0
-1576 -1579 0
-1576 -1580 0
-1576 -1581 0
-1576 -1582 0
-1576 -1583 0
-1576 -1584 0
-1576 -1585 0
-1576 -1586 0
-1576 -1587 0
-1576 -1588 0
-1576 -1589 0
-1576 -1590 0
-1576 -1591 0
-1576 -1592 0
-1576 -1593 0
-1576 -1594 0
-1576 -1595 0
-1576 -1596 0
-1576 -1597 0
-1576 -1598 0
-1576 -1599 0
-1576 -1600 0
-1576 -1601 0
-1576 -1602 0
-1576 -1603 0
-1576 -1604 0
-1576 -1605 0
-1576 -1606 0
-1576 -1607 0
-1576 -1608 0
-1576 -1609 0
-1576 -1610 0
-1576 -1611 0
-1576 -1612 0
-1576 -1613 0
-1576 -1614 0
-1576 -1615 0
-1576 -1616 0
-1576 -1617 0
-1576 -1618 0
-1576 -1619 0
-1576 -1620 0
-1576 -1621 0
-1577 -1578 0
-1577 -1579 0
-1577 -1580 0
-1577 -1581 0
-1577 -1582 0
-1577 -1583 0
-1577 -1584 0
-1577 -1585 0
-1577 -1586 0
-1577 -1587 0
-1577 -1588 0
-1577 -1589 0
-1577 -1590 0
-1577 -1591 0
-1577 -1592 0
-1577 -1593 0
-1577 -1594 0
-1577 -1595 0
-1577 -1596 0
-1577 -1597 0
-1577 -1598 0
-1577 -1599 0
-1577 -1600 0
-1577 -1601 0
-1577 -1602 0
-1577 -1603 0
-1577 -1604 0
-1577 -1605 0
-1577 -1606 0
-1577 -1607 0
-1577 -1608 0
-1577 -1609 0
-1577 -1610 0
-1577 -1611 0
-1577 -1612 0
-1577 -1613 0
-1577 -1614 0
-1577 -1615 0
-1577 -1616 0
-1577 -1617 0
-1577 -1618 0
-1577 -1619 0
-1577 -1620 0
-1577 -1621 0
-1578 -1579 0
-1578 -1580 0
-1578 -1581 0
-1578 -1582 0
-1578 -1583 0
-1578 -1584 0
-1578 -1585 0
-1578 -1586 0
-1578 -1587 0
-1578 -1588 0
-1578 -1589 0
-1578 -1590 0
-1578 -1591 0
-1578 -1592 0
-1578 -1593 0
-1578 -1594 0
-1578 -1595 0
-1578 -1596 0
-1578 -1597 0
-1578 -1598 0
-1578 -1599 0
-1578 -1600 0
-1578 -1601 0
-1578 -1602 0
-1578 -1603 0
-1578 -1604 0
-1578 -1605 0
-1578 -1606 0
-1578 -1607 0
-1578 -1608 0
-1578 -1609 0
-1578 -1610 0
-1578 -1611 0
-1578 -1612 0
-1578 -1613 0
-1578 -1614 0
-1578 -1615 0
-1578 -1616 0
-1578 -1617 0
-1578 -1618 0
-1578 -1619 0
-1578 -1620 0
-1578 -1621 0
-1579 -1580 0
-1579 -1581 0
-1579 -1582 0
-1579 -1583 0
-1579 -1584 0
-1579 -1585 0
-1579 -1586 0
-1579 -1587 0
-1579 -1588 0
-1579 -1589 0
-1579 -1590 0
-1579 -1591 0
-1579 -1592 0
-1579 -1593 0
-1579 -1594 0
-1579 -1595 0
-1579 -1596 0
-1579 -1597 0
-1579 -1598 0
-1579 -1599 0
-1579 -1600 0
-1579 -1601 0
-1579 -1602 0
-1579 -1603 0
-1579 -1604 0
-1579 -1605 0
-1579 -1606 0
-1579 -1607 0
-1579 -1608 0
-1579 -1609 0
-1579 -1610 0
-1579 -1611 0
-1579 -1612 0
-1579 -1613 0
-1579 -1614 0
-1579 -1615 0
-1579 -1616 0
-1579 -1617 0
-1579 -1618 0
-1579 -1619 0
-1579 -1620 0
-1579 -1621 0
-1580 -1581 0
-1580 -1582 0
-1580 -1583 0
-1580 -1584 0
-1580 -1585 0
-1580 -1586 0
-1580 -1587 0
-1580 -1588 0
-1580 -1589 0
-1580 -1590 0
-1580 -1591 0
-1580 -1592 0
-1580 -1593 0
-1580 -1594 0
-1580 -1595 0
-1580 -1596 0
-1580 -1597 0
-1580 -1598 0
-1580 -1599 0
-1580 -1600 0
-1580 -1601 0
-1580 -1602 0
-1580 -1603 0
-1580 -1604 0
-1580 -1605 0
-1580 -1606 0
-1580 -1607 0
-1580 -1608 0
-1580 -1609 0
-1580 -1610 0
-1580 -1611 0
-1580 -1612 0
-1580 -1613 0
-1580 -1614 0
-1580 -1615 0
-1580 -1616 0
-1580 -1617 0
-1580 -1618 0
-1580 -1619 0
-1580 -1620 0
-1580 -1621 0
-1581 -1582 0
-1581 -1583 0
-1581 -1584 0
-1581 -1585 0
-1581 -1586 0
-1581 -1587 0
-1581 -1588 0
-1581 -1589 0
-1581 -1590 0
-1581 -1591 0
-1581 -1592 0
-1581 -1593 0
-1581 -1594 0
-1581 -1595 0
-1581 -1596 0
-1581 -1597 0
-1581 -1598 0
-1581 -1599 0
-1581 -1600 0
-1581 -1601 0
-1581 -1602 0
-1581 -1603 0
-1581 -1604 0
-1581 -1605 0
-1581 -1606 0
-1581 -1607 0
-1581 -1608 0
-1581 -1609 0
-1581 -1610 0
-1581 -1611 0
-1581 -1612 0
-1581 -1613 0
-1581 -1614 0
-1581 -1615 0
-1581 -1616 0
-1581 -1617 0
-1581 -1618 0
-1581 -1619 0
-1581 -1620 0
-1581 -1621 0
-1582 -1583 0
-1582 -1584 0
-1582 -1585 0
-1582 -1586 0
-1582 -1587 0
-1582 -1588 0
-1582 -1589 0
-1582 -1590 0
-1582 -1591 0
-1582 -1592 0
-1582 -1593 0
-1582 -1594 0
-1582 -1595 0
-1582 -1596 0
-1582 -1597 0
-1582 -1598 0
-1582 -1599 0
-1582 -1600 0
-1582 -1601 0
-1582 -1602 0
-1582 -1603 0
-1582 -1604 0
-1582 -1605 0
-1582 -1606 0
-1582 -1607 0
-1582 -1608 0
-1582 -1609 0
-1582 -1610 0
-1582 -1611 0
-1582 -1612 0
-1582 -1613 0
-1582 -1614 0
-1582 -1615 0
-1582 -1616 0
-1582 -1617 0
-1582 -1618 0
-1582 -1619 0
-1582 -1620 0
-1582 -1621 0
-1583 -1584 0
-1583 -1585 0
-1583 -1586 0
-1583 -1587 0
-1583 -1588 0
-1583 -1589 0
-1583 -1590 0
-1583 -1591 0
-1583 -1592 0
-1583 -1593 0
-1583 -1594 0
-1583 -1595 0
-1583 -1596 0
-1583 -1597 0
-1583 -1598 0
-1583 -1599 0
-1583 -1600 0
-1583 -1601 0
-1583 -1602 0
-1583 -1603 0
-1583 -1604 0
-1583 -1605 0
-1583 -1606 0
-1583 -1607 0
-1583 -1608 0
-1583 -1609 0
-1583 -1610 0
-1583 -1611 0
-1583 -1612 0
-1583 -1613 0
-1583 -1614 0
-1583 -1615 0
-1583 -1616 0
-1583 -1617 0
-1583 -1618 0
-1583 -1619 0
-1583 -1620 0
-1583 -1621 0
-1584 -1585 0
-1584 -1586 0
-1584 -1587 0
-1584 -1588 0
-1584 -1589 0
-1584 -1590 0
-1584 -1591 0
-1584 -1592 0
-1584 -1593 0
-1584 -1594 0
-1584 -1595 0
-1584 -1596 0
-1584 -1597 0
-1584 -1598 0
-1584 -1599 0
-1584 -1600 0
-1584 -1601 0
-1584 -1602 0
-1584 -1603 0
-1584 -1604 0
-1584 -1605 0
-1584 -1606 0
-1584 -1607 0
-1584 -1608 0
-1584 -1609 0
-1584 -1610 0
-1584 -1611 0
-1584 -1612 0
-1584 -1613 0
-1584 -1614 0
-1584 -1615 0
-1584 -1616 0
-1584 -1617 0
-1584 -1618 0
-1584 -1619 0
-1584 -1620 0
-1584 -1621 0
-1585 -1586 0
-1585 -1587 0
-1585 -1588 0
-1585 -1589 0
-1585 -1590 0
-1585 -1591 0
-1585 -1592 0
-1585 -1593 0
-1585 -1594 0
-1585 -1595 0
-1585 -1596 0
-1585 -1597 0
-1585 -1598 0
-1585 -1599 0
-1585 -1600 0
-1585 -1601 0
-1585 -1602 0
-1585 -1603 0
-1585 -1604 0
-1585 -1605 0
-1585 -1606 0
-1585 -1607 0
-1585 -1608 0
-1585 -1609 0
-1585 -1610 0
-1585 -1611 0
-1585 -1612 0
-1585 -1613 0
-1585 -1614 0
-1585 -1615 0
-1585 -1616 0
-1585 -1617 0
-1585 -1618 0
-1585 -1619 0
-1585 -1620 0
-1585 -1621 0
-1586 -1587 0
-1586 -1588 0
-1586 -1589 0
-1586 -1590 0
-1586 -1591 0
-1586 -1592 0
-1586 -1593 0
-1586 -1594 0
-1586 -1595 0
-1586 -1596 0
-1586 -1597 0
-1586 -1598 0
-1586 -1599 0
-1586 -1600 0
-1586 -1601 0
-1586 -1602 0
-1586 -1603 0
-1586 -1604 0
-1586 -1605 0
-1586 -1606 0
-1586 -1607 0
-1586 -1608 0
-1586 -1609 0
-1586 -1610 0
-1586 -1611 0
-1586 -1612 0
-1586 -1613 0
-1586 -1614 0
-1586 -1615 0
-1586 -1616 0
-1586 -1617 0
-1586 -1618 0
-1586 -1619 0
-1586 -1620 0
-1586 -1621 0
-1587 -1588 0
-1587 -1589 0
-1587 -1590 0
-1587 -1591 0
-1587 -1592 0
-1587 -1593 0
-1587 -1594 0
-1587 -1595 0
-1587 -1596 0
-1587 -1597 0
-1587 -1598 0
-1587 -1599 0
-1587 -1600 0
-1587 -1601 0
-1587 -1602 0
-1587 -1603 0
-1587 -1604 0
-1587 -1605 0
-1587 -1606 0
-1587 -1607 0
-1587 -1608 0
-1587 -1609 0
-1587 -1610 0
-1587 -1611 0
-1587 -1612 0
-1587 -1613 0
-1587 -1614 0
-1587 -1615 0
-1587 -1616 0
-1587 -1617 0
-1587 -1618 0
-1587 -1619 0
-1587 -1620 0
-1587 -1621 0
-1588 -1589 0
-1588 -1590 0
-1588 -1591 0
-1588 -1592 0
-1588 -1593 0
-1588 -1594 0
-1588 -1595 0
-1588 -1596 0
-1588 -1597 0
-1588 -1598 0
-1588 -1599 0
-1588 -1600 0
-1588 -1601 0
-1588 -1602 0
-1588 -1603 0
-1588 -1604 0
-1588 -1605 0
-1588 -1606 0
-1588 -1607 0
-1588 -1608 0
-1588 -1609 0
-1588 -1610 0
-1588 -1611 0
-1588 -1612 0
-1588 -1613 0
-1588 -1614 0
-1588 -1615 0
-1588 -1616 0
-1588 -1617 0
-1588 -1618 0
-1588 -1619 0
-1588 -1620 0
-1588 -1621 0
-1589 -1590 0
-1589 -1591 0
-1589 -1592 0
-1589 -1593 0
-1589 -1594 0
-1589 -1595 0
-1589 -1596 0
-1589 -1597 0
-1589 -1598 0
-1589 -1599 0
-1589 -1600 0
-1589 -1601 0
-1589 -1602 0
-1589 -1603 0
-1589 -1604 0
-1589 -1605 0
-1589 -1606 0
-1589 -1607 0
-1589 -1608 0
-1589 -1609 0
-1589 -1610 0
-1589 -1611 0
-1589 -1612 0
-1589 -1613 0
-1589 -1614 0
-1589 -1615 0
-1589 -1616 0
-1589 -1617 0
-1589 -1618 0
-1589 -1619 0
-1589 -1620 0
-1589 -1621 0
-1590 -1591 0
-1590 -1592 0
-1590 -1593 0
-1590 -1594 0
-1590 -1595 0
-1590 -1596 0
-1590 -1597 0
-1590 -1598 0
-1590 -1599 0
-1590 -1600 0
-1590 -1601 0
-1590 -1602 0
-1590 -1603 0
-1590 -1604 0
-1590 -1605 0
-1590 -1606 0
-1590 -1607 0
-1590 -1608 0
-1590 -1609 0
-1590 -1610 0
-1590 -1611 0
-1590 -1612 0
-1590 -1613 0
-1590 -1614 0
-1590 -1615 0
-1590 -1616 0
-1590 -1617 0
-1590 -1618 0
-1590 -1619 0
-1590 -1620 0
-1590 -1621 0
-1591 -1592 0
-1591 -1593 0
-1591 -1594 0
-1591 -1595 0
-1591 -1596 0
-1591 -1597 0
-1591 -1598 0
-1591 -1599 0
-1591 -1600 0
-1591 -1601 0
-1591 -1602 0
-1591 -1603 0
-1591 -1604 0
-1591 -1605 0
-1591 -1606 0
-1591 -1607 0
-1591 -1608 0
-1591 -1609 0
-1591 -1610 0
-1591 -1611 0
-1591 -1612 0
-1591 -1613 0
-1591 -1614 0
-1591 -1615 0
-1591 -1616 0
-1591 -1617 0
-1591 -1618 0
-1591 -1619 0
-1591 -1620 0
-1591 -1621 0
-1592 -1593 0
-1592 -1594 0
-1592 -1595 0
-1592 -1596 0
-1592 -1597 0
-1592 -1598 0
-1592 -1599 0
-1592 -1600 0
-1592 -1601 0
-1592 -1602 0
-1592 -1603 0
-1592 -1604 0
-1592 -1605 0
-1592 -1606 0
-1592 -1607 0
-1592 -1608 0
-1592 -1609 0
-1592 -1610 0
-1592 -1611 0
-1592 -1612 0
-1592 -1613 0
-1592 -1614 0
-1592 -1615 0
-1592 -1616 0
-1592 -1617 0
-1592 -1618 0
-1592 -1619 0
-1592 -1620 0
-1592 -1621 0
-1593 -1594 0
-1593 -1595 0
-1593 -1596 0
-1593 -1597 0
-1593 -1598 0
-1593 -1599 0
-1593 -1600 0
-1593 -1601 0
-1593 -1602 0
-1593 -1603 0
-1593 -1604 0
-1593 -1605 0
-1593 -1606 0
-1593 -1607 0
-1593 -1608 0
-1593 -1609 0
-1593 -1610 0
-1593 -1611 0
-1593 -1612 0
-1593 -1613 0
-1593 -1614 0
-1593 -1615 0
-1593 -1616 0
-1593 -1617 0
-1593 -1618 0
-1593 -1619 0
-1593 -1620 0
-1593 -1621 0
-1594 -1595 0
-1594 -1596 0
-1594 -1597 0
-1594 -1598 0
-1594 -1599 0
-1594 -1600 0
-1594 -1601 0
-1594 -1602 0
-1594 -1603 0
-1594 -1604 0
-1594 -1605 0
-1594 -1606 0
-1594 -1607 0
-1594 -1608 0
-1594 -1609 0
-1594 -1610 0
-1594 -1611 0
-1594 -1612 0
-1594 -1613 0
-1594 -1614 0
-1594 -1615 0
-1594 -1616 0
-1594 -1617 0
-1594 -1618 0
-1594 -1619 0
-1594 -1620 0
-1594 -1621 0
-1595 -1596 0
-1595 -1597 0
-1595 -1598 0
-1595 -1599 0
-1595 -1600 0
-1595 -1601 0
-1595 -1602 0
-1595 -1603 0
-1595 -1604 0
-1595 -1605 0
-1595 -1606 0
-1595 -1607 0
-1595 -1608 0
-1595 -1609 0
-1595 -1610 0
-1595 -1611 0
-1595 -1612 0
-1595 -1613 0
-1595 -1614 0
-1595 -1615 0
-1595 -1616 0
-1595 -1617 0
-1595 -1618 0
-1595 -1619 0
-1595 -1620 0
-1595 -1621 0
-1596 -1597 0
-1596 -1598 0
-1596 -1599 0
-1596 -1600 0
-1596 -1601 0
-1596 -1602 0
-1596 -1603 0
-1596 -1604 0
-1596 -1605 0
-1596 -1606 0
-1596 -1607 0
-1596 -1608 0
-1596 -1609 0
-1596 -1610 0
-1596 -1611 0
-1596 -1612 0
-1596 -1613 0
-1596 -1614 0
-1596 -1615 0
-1596 -1616 0
-1596 -1617 0
-1596 -1618 0
-1596 -1619 0
-1596 -1620 0
-1596 -1621 0
-1597 -1598 0
-1597 -1599 0
-1597 -1600 0
-1597 -1601 0
-1597 -1602 0
-1597 -1603 0
-1597 -1604 0
-1597 -1605 0
-1597 -1606 0
-1597 -1607 0
-1597 -1608 0
-1597 -1609 0
-1597 -1610 0
-1597 -1611 0
-1597 -1612 0
-1597 -1613 0
-1597 -1614 0
-1597 -1615 0
-1597 -1616 0
-1597 -1617 0
-1597 -1618 0
-1597 -1619 0
-1597 -1620 0
-1597 -1621 0
-1598 -1599 0
-1598 -1600 0
-1598 -1601 0
-1598 -1602 0
-1598 -1603 0
-1598 -1604 0
-1598 -1605 0
-1598 -1606 0
-1598 -1607 0
-1598 -1608 0
-1598 -1609 0
-1598 -1610 0
-1598 -1611 0
-1598 -1612 0
-1598 -1613 0
-1598 -1614 0
-1598 -1615 0
-1598 -1616 0
-1598 -1617 0
-1598 -1618 0
-1598 -1619 0
-1598 -1620 0
-1598 -1621 0
-1599 -1600 0
-1599 -1601 0
-1599 -1602 0
-1599 -1603 0
-1599 -1604 0
-1599 -1605 0
-1599 -1606 0
-1599 -1607 0
-1599 -1608 0
-1599 -1609 0
-1599 -1610 0
-1599 -1611 0
-1599 -1612 0
-1599 -1613 0
-1599 -1614 0
-1599 -1615 0
-1599 -1616 0
-1599 -1617 0
-1599 -1618 0
-1599 -1619 0
-1599 -1620 0
-1599 -1621 0
-1600 -1601 0
-1600 -1602 0
-1600 -1603 0
-1600 -1604 0
-1600 -1605 0
-1600 -1606 0
-1600 -1607 0
-1600 -1608 0
-1600 -1609 0
-1600 -1610 0
-1600 -1611 0
-1600 -1612 0
-1600 -1613 0
-1600 -1614 0
-1600 -1615 0
-1600 -1616 0
-1600 -1617 0
-1600 -1618 0
-1600 -1619 0
-1600 -1620 0
-1600 -1621 0
-1601 -1602 0
-1601 -1603 0
-1601 -1604 0
-1601 -1605 0
-1601 -1606 0
-1601 -1607 0
-1601 -1608 0
-1601 -1609 0
-1601 -1610 0
-1601 -1611 0
-1601 -1612 0
-1601 -1613 0
-1601 -1614 0
-1601 -1615 0
-1601 -1616 0
-1601 -1617 0
-1601 -1618 0
-1601 -1619 0
-1601 -1620 0
-1601 -1621 0
-1602 -1603 0
-1602 -1604 0
-1602 -1605 0
-1602 -1606 0
-1602 -1607 0
-1602 -1608 0
-1602 -1609 0
-1602 -1610 0
-1602 -1611 0
-1602 -1612 0
-1602 -1613 0
-1602 -1614 0
-1602 -1615 0
-1602 -1616 0
-1602 -1617 0
-1602 -1618 0
-1602 -1619 0
-1602 -1620 0
-1602 -1621 0
-1603 -1604 0
-1603 -1605 0
-1603 -1606 0
-1603 -1607 0
-1603 -1608 0
-1603 -1609 0
-1603 -1610 0
-1603 -1611 0
-1603 -1612 0
-1603 -1613 0
-1603 -1614 0
-1603 -1615 0
-1603 -1616 0
-1603 -1617 0
-1603 -1618 0
-1603 -1619 0
-1603 -1620 0
-1603 -1621 0
-1604 -1605 0
-1604 -1606 0
-1604 -1607 0
-1604 -1608 0
-1604 -1609 0
-1604 -1610 0
-1604 -1611 0
-1604 -1612 0
-1604 -1613 0
-1604 -1614 0
-1604 -1615 0
-1604 -1616 0
-1604 -1617 0
-1604 -1618 0
-1604 -1619 0
-1604 -1620 0
-1604 -1621 0
-1605 -1606 0
-1605 -1607 0
-1605 -1608 0
-1605 -1609 0
-1605 -1610 0
-1605 -1611 0
-1605 -1612 0
-1605 -1613 0
-1605 -1614 0
-1605 -1615 0
-1605 -1616 0
-1605 -1617 0
-1605 -1618 0
-1605 -1619 0
-1605 -1620 0
-1605 -1621 0
-1606 -1607 0
-1606 -1608 0
-1606 -1609 0
-1606 -1610 0
-1606 -1611 0
-1606 -1612 0
-1606 -1613 0
-1606 -1614 0
-1606 -1615 0
-1606 -1616 0
-1606 -1617 0
-1606 -1618 0
-1606 -1619 0
-1606 -1620 0
-1606 -1621 0
-1607 -1608 0
-1607 -1609 0
-1607 -1610 0
-1607 -1611 0
-1607 -1612 0
-1607 -1613 0
-1607 -1614 0
-1607 -1615 0
-1607 -1616 0
-1607 -1617 0
-1607 -1618 0
-1607 -1619 0
-1607 -1620 0
-1607 -1621 0
-1608 -1609 0
-1608 -1610 0
-1608 -1611 0
-1608 -1612 0
-1608 -1613 0
-1608 -1614 0
-1608 -1615 0
-1608 -1616 0
-1608 -1617 0
-1608 -1618 0
-1608 -1619 0
-1608 -1620 0
-1608 -1621 0
-1609 -1610 0
-1609 -1611 0
-1609 -1612 0
-1609 -1613 0
-1609 -1614 0
-1609 -1615 0
-1609 -1616 0
-1609 -1617 0
-1609 -1618 0
-1609 -1619 0
-1609 -1620 0
-1609 -1621 0
-1610 -1611 0
-1610 -1612 0
-1610 -1613 0
-1610 -1614 0
-1610 -1615 0
-1610 -1616 0
-1610 -1617 0
-1610 -1618 0
-1610 -1619 0
-1610 -1620 0
-1610 -1621 0
-1611 -1612 0
-1611 -1613 0
-1611 -1614 0
-1611 -1615 0
-1611 -1616 0
-1611 -1617 0
-1611 -1618 0
-1611 -1619 0
-1611 -1620 0
-1611 -1621 0
-1612 -1613 0
-1612 -1614 0
-1612 -1615 0
-1612 -1616 0
-1612 -1617 0
-1612 -1618 0
-1612 -1619 0
-1612 -1620 0
-1612 -1621 0
-1613 -1614 0
-1613 -1615 0
-1613 -1616 0
-1613 -1617 0
-1613 -1618 0
-1613 -1619 0
-1613 -1620 0
-1613 -1621 0
-1614 -1615 0
-1614 -1616 0
-1614 -1617 0
-1614 -1618 0
-1614 -1619 0
-1614 -1620 0
-1614 -1621 0
-1615 -1616 0
-1615 -1617 0
-1615 -1618 0
-1615 -1619 0
-1615 -1620 0
-1615 -1621 0
-1616 -1617 0
-1616 -1618 0
-1616 -1619 0
-1616 -1620 0
-1616 -1621 0
-1617 -1618 0
-1617 -1619 0
-1617 -1620 0
-1617 -1621 0
-1618 -1619 0
-1618 -1620 0
-1618 -1621 0
-1619 -1620 0
-1619 -1621 0
-1620 -1621 0
-1538 782 0
-1538 1029 0
-1538 -832 0
-1538 -833 0
-1538 -834 0
-1538 -835 0
-1538 -836 0
-1538 -837 1036 0
-1538 -837 -772 -779 0
-1538 -837 -844 0
-1538 -837 -902 0
-1538 -837 -959 0
-1538 -838 1037 0
-1538 -838 -772 -780 0
-1538 -838 -846 0
-1538 -838 -904 0
-1538 -838 -961 0
-1538 -839 1038 0
-1538 -839 -772 -781 0
-1538 -839 -848 0
-1538 -839 -906 0
-1538 -839 -963 0
-1538 -840 0
-1539 782 0
-1539 1030 0
-1539 -831 0
-1539 -833 0
-1539 -834 0
-1539 -835 0
-1539 -836 0
-1539 -837 1036 0
-1539 -837 -773 -779 0
-1539 -837 -852 0
-1539 -837 -910 0
-1539 -837 -967 0
-1539 -838 1037 0
-1539 -838 -773 -780 0
-1539 -838 -854 0
-1539 -838 -912 0
-1539 -838 -969 0
-1539 -839 1038 0
-1539 -839 -773 -781 0
-1539 -839 -856 0
-1539 -839 -914 0
-1539 -839 -971 0
-1539 -840 0
-1540 782 0
-1540 1031 0
-1540 -831 0
-1540 -832 0
-1540 -834 0
-1540 -835 0
-1540 -836 0
-1540 -837 1036 0
-1540 -837 -774 -779 0
-1540 -837 -860 0
-1540 -837 -918 0
-1540 -837 -975 0
-1540 -838 1037 0
-1540 -838 -774 -780 0
-1540 -838 -862 0
-1540 -838 -920 0
-1540 -838 -977 0
-1540 -839 1038 0
-1540 -839 -774 -781 0
-1540 -839 -864 0
-1540 -839 -922 0
-1540 -839 -979 0
-1540 -840 0
-1541 782 0
-1541 1032 0
-1541 -831 0
-1541 -832 0
-1541 -833 0
-1541 -835 0
-1541 -836 0
-1541 -837 1036 0
-1541 -837 -775 -779 0
-1541 -837 -868 0
-1541 -837 -926 0
-1541 -837 -983 0
-1541 -838 1037 0
-1541 -838 -775 -780 0
-1541 -838 -870 0
-1541 -838 -928 0
-1541 -838 -985 0
-1541 -839 1038 0
-1541 -839 -775 -781 0
-1541 -839 -872 0
-1541 -839 -930 0
-1541 -839 -987 0
-1541 -840 0
-1542 782 0
-1542 1033 0
-1542 -831 0
-1542 -832 0
-1542 -833 0
-1542 -834 0
-1542 -836 0
-1542 -837 1036 0
-1542 -837 -776 -779 0
-1542 -837 -876 0
-1542 -837 -934 0
-1542 -837 -991 0
-1542 -838 1037 0
-1542 -838 -776 -780 0
-1542 -838 -878 0
-1542 -838 -936 0
-1542 -838 -993 0
-1542 -839 1038 0
-1542 -839 -776 -781 0
-1542 -839 -880 0
-1542 -839 -938 0
-1542 -839 -995 0
-1542 -840 0
-1543 782 0
-1543 1034 0
-1543 -831 0
-1543 -832 0
-1543 -833 0
-1543 -834 0
-1543 -835 0
-1543 -837 1036 0
-1543 -837 -777 -779 0
-1543 -837 -884 0
-1543 -837 -942 0
-1543 -837 -999 0
-1543 -838 1037 0
-1543 -838 -777 -780 0
-1543 -838 -886 0
-1543 -838 -944 0
-1543 -838 -1001 0
-1543 -839 1038 0
-1543 -839 -777 -781 0
-1543 -839 -888 0
-1543 -839 -946 0
-1543 -839 -1003 0
-1543 -840 0
-1544 782 0
-1544 1029 0
-1544 -891 0
-1544 -892 0
-1544 -893 0
-1544 -894 0
-1544 -895 1036 0
-1544 -895 -772 -779 0
-1544 -895 -844 0
-1544 -895 -902 0
-1544 -895 -959 0
-1544 -896 1037 0
-1544 -896 -772 -780 0
-1544 -896 -846 0
-1544 -896 -904 0
-1544 -896 -961 0
-1544 -897 1038 0
-1544 -897 -772 -781 0
-1544 -897 -848 0
-1544 -897 -906 0
-1544 -897 -963 0
-1544 -898 0
-1545 782 0
-1545 1030 0
-1545 -892 0
-1545 -893 0
-1545 -894 0
-1545 -895 1036 0
-1545 -895 -773 -779 0
-1545 -895 -852 0
-1545 -895 -910 0
-1545 -895 -967 0
-1545 -896 1037 0
-1545 -896 -773 -780 0
-1545 -896 -854 0
-1545 -896 -912 0
-1545 -896 -969 0
-1545 -897 1038 0
-1545 -897 -773 -781 0
-1545 -897 -856 0
-1545 -897 -914 0
-1545 -897 -971 0
-1545 -898 0
-1546 782 0
-1546 1031 0
-1546 -890 0
-1546 -893 0
-1546 -894 0
-1546 -895 1036 0
-1546 -895 -774 -779 0
-1546 -895 -860 0
-1546 -895 -918 0
-1546 -895 -975 0
-1546 -896 1037 0
-1546 -896 -774 -780 0
-1546 -896 -862 0
-1546 -896 -920 0
-1546 -896 -977 0
-1546 -897 1038 0
-1546 -897 -774 -781 0
-1546 -897 -864 0
-1546 -897 -922 0
-1546 -897 -979 0
-1546 -898 0
-1547 782 0
-1547 1032 0
-1547 -890 0
-1547 -891 0
-1547 -894 0
-1547 -895 1036 0
-1547 -895 -775 -779 0
-1547 -895 -868 0
-1547 -895 -926 0
-1547 -895 -983 0
-1547 -896 1037 0
-1547 -896 -775 -780 0
-1547 -896 -870 0
-1547 -896 -928 0
-1547 -896 -985 0
-1547 -897 1038 0
-1547 -897 -775 -781 0
-1547 -897 -872 0
-1547 -897 -930 0
-1547 -897 -987 0
-1547 -898 0
-1548 782 0
-1548 1033 0
-1548 -890 0
-1548 -891 0
-1548 -892 0
-1548 -895 1036 0
-1548 -895 -776 -779 0
-1548 -895 -876 0
-1548 -895 -934 0
-1548 -895 -991 0
-1548 -896 1037 0
-1548 -896 -776 -780 0
-1548 -896 -878 0
-1548 -896 -936 0
-1548 -896 -993 0
-1548 -897 1038 0
-1548 -897 -776 -781 0
-1548 -897 -880 0
-1548 -897 -938 0
-1548 -897 -995 0
-1548 -898 0
-1549 782 0
-1549 1034 0
-1549 -890 0
-1549 -891 0
-1549 -892 0
-1549 -893 0
-1549 -895 1036 0
-1549 -895 -777 -779 0
-1549 -895 -884 0
-1549 -895 -942 0
-1549 -895 -999 0
-1549 -896 1037 0
-1549 -896 -777 -780 0
-1549 -896 -886 0
-1549 -896 -944 0
-1549 -896 -1001 0
-1549 -897 1038 0
-1549 -897 -777 -781 0
-1549 -897 -888 0
-1549 -897 -946 0
-1549 -897 -1003 0
-1549 -898 0
-1550 782 0
-1550 1029 0
-1550 -949 0
-1550 -950 0
-1550 -951 0
-1550 -952 1036 0
-1550 -952 -772 -779 0
-1550 -952 -844 0
-1550 -952 -902 0
-1550 -952 -959 0
-1550 -953 1037 0
-1550 -953 -772 -780 0
-1550 -953 -846 0
-1550 -953 -904 0
-1550 -953 -961 0
-1550 -954 1038 0
-1550 -954 -772 -781 0
-1550 -954 -848 0
-1550 -954 -906 0
-1550 -954 -963 0
-1550 -955 0
-1551 782 0
-1551 1030 0
-1551 -950 0
-1551 -951 0
-1551 -952 1036 0
-1551 -952 -773 -779 0
-1551 -952 -852 0
-1551 -952 -910 0
-1551 -952 -967 0
-1551 -953 1037 0
-1551 -953 -773 -780 0
-1551 -953 -854 0
-1551 -953 -912 0
-1551 -953 -969 0
-1551 -954 1038 0
-1551 -954 -773 -781 0
-1551 -954 -856 0
-1551 -954 -914 0
-1551 -954 -971 0
-1551 -955 0
-1552 782 0
-1552 1031 0
-1552 -951 0
-1552 -952 1036 0
-1552 -952 -774 -779 0
-1552 -952 -860 0
-1552 -952 -918 0
-1552 -952 -975 0
-1552 -953 1037 0
-1552 -953 -774 -780 0
-1552 -953 -862 0
-1552 -953 -920 0
-1552 -953 -977 0
-1552 -954 1038 0
-1552 -954 -774 -781 0
-1552 -954 -864 0
-1552 -954 -922 0
-1552 -954 -979 0
-1552 -955 0
-1553 782 0
-1553 1032 0
-1553 -948 0
-1553 -952 1036 0
-1553 -952 -775 -779 0
-1553 -952 -868 0
-1553 -952 -926 0
-1553 -952 -983 0
-1553 -953 1037 0
-1553 -953 -775 -780 0
-1553 -953 -870 0
-1553 -953 -928 0
-1553 -953 -985 0
-1553 -954 1038 0
-1553 -954 -775 -781 0
-1553 -954 -872 0
-1553 -954 -930 0
-1553 -954 -987 0
-1553 -955 0
-1554 782 0
-1554 1033 0
-1554 -948 0
-1554 -949 0
-1554 -952 1036 0
-1554 -952 -776 -779 0
-1554 -952 -876 0
-1554 -952 -934 0
-1554 -952 -991 0
-1554 -953 1037 0
-1554 -953 -776 -780 0
-1554 -953 -878 0
-1554 -953 -936 0
-1554 -953 -993 0
-1554 -954 1038 0
-1554 -954 -776 -781 0
-1554 -954 -880 0
-1554 -954 -938 0
-1554 -954 -995 0
-1554 -955 0
-1555 782 0
-1555 1034 0
-1555 -948 0
-1555 -949 0
-1555 -950 0
-1555 -952 1036 0
-1555 -952 -777 -779 0
-1555 -952 -884 0
-1555 -952 -942 0
-1555 -952 -999 0
-1555 -953 1037 0
-1555 -953 -777 -780 0
-1555 -953 -886 0
-1555 -953 -944 0
-1555 -953 -1001 0
-1555 -954 1038 0
-1555 -954 -777 -781 0
-1555 -954 -888 0
-1555 -954 -946 0
-1555 -954 -1003 0
-1555 -955 0
-1556 782 0
-1556 1029 0
-1556 1035 0
-1556 -772 -778 0
-1556 -842 0
-1556 -900 0
-1556 -957 0
-1557 782 0
-1557 1030 0
-1557 1035 0
-1557 -773 -778 0
-1557 -850 0
-1557 -908 0
-1557 -965 0
-1558 782 0
-1558 1031 0
-1558 1035 0
-1558 -774 -778 0
-1558 -858 0
-1558 -916 0
-1558 -973 0
-1559 782 0
-1559 1032 0
-1559 1035 0
-1559 -775 -778 0
-1559 -866 0
-1559 -924 0
-1559 -981 0
-1560 782 0
-1560 1033 0
-1560 1035 0
-1560 -776 -778 0
-1560 -874 0
-1560 -932 0
-1560 -989 0
-1561 782 0
-1561 1034 0
-1561 1035 0
-1561 -777 -778 0
-1561 -882 0
-1561 -940 0
-1561 -997 0
-1562 841 0
-1562 1088 0
-1562 -773 0
-1562 -774 0
-1562 -775 0
-1562 -776 0
-1562 -777 0
-1562 -778 1095 0
-1562 -778 -831 -838 0
-1562 -778 -785 0
-1562 -778 -902 0
-1562 -778 -959 0
-1562 -779 1096 0
-1562 -779 -831 -839 0
-1562 -779 -787 0
-1562 -779 -904 0
-1562 -779 -961 0
-1562 -780 1097 0
-1562 -780 -831 -840 0
-1562 -780 -789 0
-1562 -780 -906 0
-1562 -780 -963 0
-1562 -781 0
-1563 841 0
-1563 1089 0
-1563 -772 0
-1563 -774 0
-1563 -775 0
-1563 -776 0
-1563 -777 0
-1563 -778 1095 0
-1563 -778 -832 -838 0
-1563 -778 -793 0
-1563 -778 -910 0
-1563 -778 -967 0
-1563 -779 1096 0
-1563 -779 -832 -839 0
-1563 -779 -795 0
-1563 -779 -912 0
-1563 -779 -969 0
-1563 -780 1097 0
-1563 -780 -832 -840 0
-1563 -780 -797 0
-1563 -780 -914 0
-1563 -780 -971 0
-1563 -781 0
-1564 841 0
-1564 1090 0
-1564 -772 0
-1564 -773 0
-1564 -775 0
-1564 -776 0
-1564 -777 0
-1564 -778 1095 0
-1564 -778 -833 -838 0
-1564 -778 -801 0
-1564 -778 -918 0
-1564 -778 -975 0
-1564 -779 1096 0
-1564 -779 -833 -839 0
-1564 -779 -803 0
-1564 -779 -920 0
-1564 -779 -977 0
-1564 -780 1097 0
-1564 -780 -833 -840 0
-1564 -780 -805 0
-1564 -780 -922 0
-1564 -780 -979 0
-1564 -781 0
-1565 841 0
-1565 1091 0
-1565 -772 0
-1565 -773 0
-1565 -774 0
-1565 -776 0
-1565 -777 0
-1565 -778 1095 0
-1565 -778 -834 -838 0
-1565 -778 -809 0
-1565 -778 -926 0
-1565 -778 -983 0
-1565 -779 1096 0
-1565 -779 -834 -839 0
-1565 -779 -811 0
-1565 -779 -928 0
-1565 -779 -985 0
-1565 -780 1097 0
-1565 -780 -834 -840 0
-1565 -780 -813 0
-1565 -780 -930 0
-1565 -780 -987 0
-1565 -781 0
-1566 841 0
-1566 1092 0
-1566 -772 0
-1566 -773 0
-1566 -774 0
-1566 -775 0
-1566 -777 0
-1566 -778 1095 0
-1566 -778 -835 -838 0
-1566 -778 -817 0
-1566 -778 -934 0
-1566 -778 -991 0
-1566 -779 1096 0
-1566 -779 -835 -839 0
-1566 -779 -819 0
-1566 -779 -936 0
-1566 -779 -993 0
-1566 -780 1097 0
-1566 -780 -835 -840 0
-1566 -780 -821 0
-1566 -780 -938 0
-1566 -780 -995 0
-1566 -781 0
-1567 841 0
-1567 1093 0
-1567 -772 0
-1567 -773 0
-1567 -774 0
-1567 -775 0
-1567 -776 0
-1567 -778 1095 0
-1567 -778 -836 -838 0
-1567 -778 -825 0
-1567 -778 -942 0
-1567 -778 -999 0
-1567 -779 1096 0
-1567 -779 -836 -839 0
-1567 -779 -827 0
-1567 -779 -944 0
-1567 -779 -1001 0
-1567 -780 1097 0
-1567 -780 -836 -840 0
-1567 -780 -829 0
-1567 -780 -946 0
-1567 -780 -1003 0
-1567 -781 0
-1568 841 0
-1568 1088 0
-1568 -891 0
-1568 -892 0
-1568 -893 0
-1568 -894 0
-1568 -895 1095 0
-1568 -895 -831 -838 0
-1568 -895 -785 0
-1568 -895 -902 0
-1568 -895 -959 0
-1568 -896 1096 0
-1568 -896 -831 -839 0
-1568 -896 -787 0
-1568 -896 -904 0
-1568 -896 -961 0
-1568 -897 1097 0
-1568 -897 -831 -840 0
-1568 -897 -789 0
-1568 -897 -906 0
-1568 -897 -963 0
-1568 -898 0
-1569 841 0
-1569 1089 0
-1569 -892 0
-1569 -893 0
-1569 -894 0
-1569 -895 1095 0
-1569 -895 -832 -838 0
-1569 -895 -793 0
-1569 -895 -910 0
-1569 -895 -967 0
-1569 -896 1096 0
-1569 -896 -832 -839 0
-1569 -896 -795 0
-1569 -896 -912 0
-1569 -896 -969 0
-1569 -897 1097 0
-1569 -897 -832 -840 0
-1569 -897 -797 0
-1569 -897 -914 0
-1569 -897 -971 0
-1569 -898 0
-1570 841 0
-1570 1090 0
-1570 -890 0
-1570 -893 0
-1570 -894 0
-1570 -895 1095 0
-1570 -895 -833 -838 0
-1570 -895 -801 0
-1570 -895 -918 0
-1570 -895 -975 0
-1570 -896 1096 0
-1570 -896 -833 -839 0
-1570 -896 -803 0
-1570 -896 -920 0
-1570 -896 -977 0
-1570 -897 1097 0
-1570 -897 -833 -840 0
-1570 -897 -805 0
-1570 -897 -922 0
-1570 -897 -979 0
-1570 -898 0
-1571 841 0
-1571 1091 0
-1571 -890 0
-1571 -891 0
-1571 -894 0
-1571 -895 1095 0
-1571 -895 -834 -838 0
-1571 -895 -809 0
-1571 -895 -926 0
-1571 -895 -983 0
-1571 -896 1096 0
-1571 -896 -834 -839 0
-1571 -896 -811 0
-1571 -896 -928 0
-1571 -896 -985 0
-1571 -897 1097 0
-1571 -897 -834 -840 0
-1571 -897 -813 0
-1571 -897 -930 0
-1571 -897 -987 0
-1571 -898 0
-1572 841 0
-1572 1092 0
-1572 -890 0
-1572 -891 0
-1572 -892 0
-1572 -895 1095 0
-1572 -895 -835 -838 0
-1572 -895 -817 0
-1572 -895 -934 0
-1572 -895 -991 0
-1572 -896 1096 0
-1572 -896 -835 -839 0
-1572 -896 -819 0
-1572 -896 -936 0
-1572 -896 -993 0
-1572 -897 1097 0
-1572 -897 -835 -840 0
-1572 -897 -821 0
-1572 -897 -938 0
-1572 -897 -995 0
-1572 -898 0
-1573 841 0
-1573 1093 0
-1573 -890 0
-1573 -891 0
-1573 -892 0
-1573 -893 0
-1573 -895 1095 0
-1573 -895 -836 -838 0
-1573 -895 -825 0
-1573 -895 -942 0
-1573 -895 -999 0
-1573 -896 1096 0
-1573 -896 -836 -839 0
-1573 -896 -827 0
-1573 -896 -944 0
-1573 -896 -1001 0
-1573 -897 1097 0
-1573 -897 -836 -840 0
-1573 -897 -829 0
-1573 -897 -946 0
-1573 -897 -1003 0
-1573 -898 0
-1574 841 0
-1574 1088 0
-1574 -949 0
-1574 -950 0
-1574 -951 0
-1574 -952 1095 0
-1574 -952 -831 -838 0
-1574 -952 -785 0
-1574 -952 -902 0
-1574 -952 -959 0
-1574 -953 1096 0
-1574 -953 -831 -839 0
-1574 -953 -787 0
-1574 -953 -904 0
-1574 -953 -961 0
-1574 -954 1097 0
-1574 -954 -831 -840 0
-1574 -954 -789 0
-1574 -954 -906 0
-1574 -954 -963 0
-1574 -955 0
-1575 841 0
-1575 1089 0
-1575 -950 0
-1575 -951 0
-1575 -952 1095 0
-1575 -952 -832 -838 0
-1575 -952 -793 0
-1575 -952 -910 0
-1575 -952 -967 0
-1575 -953 1096 0
-1575 -953 -832 -839 0
-1575 -953 -795 0
-1575 -953 -912 0
-1575 -953 -969 0
-1575 -954 1097 0
-1575 -954 -832 -840 0
-1575 -954 -797 0
-1575 -954 -914 0
-1575 -954 -971 0
-1575 -955 0
-1576 841 0
-1576 1090 0
-1576 -951 0
-1576 -952 1095 0
-1576 -952 -833 -838 0
-1576 -952 -801 0
-1576 -952 -918 0
-1576 -952 -975 0
-1576 -953 1096 0
-1576 -953 -833 -839 0
-1576 -953 -803 0
-1576 -953 -920 0
-1576 -953 -977 0
-1576 -954 1097 0
-1576 -954 -833 -840 0
-1576 -954 -805 0
-1576 -954 -922 0
-1576 -954 -979 0
-1576 -955 0
-1577 841 0
-1577 1091 0
-1577 -948 0
-1577 -952 1095 0
-1577 -952 -834 -838 0
-1577 -952 -809 0
-1577 -952 -926 0
-1577 -952 -983 0
-1577 -953 1096 0
-1577 -953 -834 -839 0
-1577 -953 -811 0
-1577 -953 -928 0
-1577 -953 -985 0
-1577 -954 1097 0
-1577 -954 -834 -840 0
-1577 -954 -813 0
-1577 -954 -930 0
-1577 -954 -987 0
-1577 -955 0
-1578 841 0
-1578 1092 0
-1578 -948 0
-1578 -949 0
-1578 -952 1095 0
-1578 -952 -835 -838 0
-1578 -952 -817 0
-1578 -952 -934 0
-1578 -952 -991 0
-1578 -953 1096 0
-1578 -953 -835 -839 0
-1578 -953 -819 0
-1578 -953 -936 0
-1578 -953 -993 0
-1578 -954 1097 0
-1578 -954 -835 -840 0
-1578 -954 -821 0
-1578 -954 -938 0
-1578 -954 -995 0
-1578 -955 0
-1579 841 0
-1579 1093 0
-1579 -948 0
-1579 -949 0
-1579 -950 0
-1579 -952 1095 0
-1579 -952 -836 -838 0
-1579 -952 -825 0
-1579 -952 -942 0
-1579 -952 -999 0
-1579 -953 1096 0
-1579 -953 -836 -839 0
-1579 -953 -827 0
-1579 -953 -944 0
-1579 -953 -1001 0
-1579 -954 1097 0
-1579 -954 -836 -840 0
-1579 -954 -829 0
-1579 -954 -946 0
-1579 -954 -1003 0
-1579 -955 0
-1580 841 0
-1580 1088 0
-1580 1094 0
-1580 -831 -837 0
-1580 -783 0
-1580 -900 0
-1580 -957 0
-1581 841 0
-1581 1089 0
-1581 1094 0
-1581 -832 -837 0
-1581 -791 0
-1581 -908 0
-1581 -965 0
-1582 841 0
-1582 1090 0
-1582 1094 0
-1582 -833 -837 0
-1582 -799 0
-1582 -916 0
-1582 -973 0
-1583 841 0
-1583 1091 0
-1583 1094 0
-1583 -834 -837 0
-1583 -807 0
-1583 -924 0
-1583 -981 0
-1584 841 0
-1584 1092 0
-1584 1094 0
-1584 -835 -837 0
-1584 -815 0
-1584 -932 0
-1584 -989 0
-1585 841 0
-1585 1093 0
-1585 1094 0
-1585 -836 -837 0
-1585 -823 0
-1585 -940 0
-1585 -997 0
-1586 899 0
-1586 1147 0
-1586 -774 0
-1586 -775 0
-1586 -776 0
-1586 -777 0
-1586 -778 1153 0
-1586 -778 -890 -896 0
-1586 -778 -785 0
-1586 -778 -793 0
-1586 -778 -844 0
-1586 -778 -852 0
-1586 -778 -959 0
-1586 -778 -967 0
-1586 -779 1154 0
-1586 -779 -890 -897 0
-1586 -779 -787 0
-1586 -779 -795 0
-1586 -779 -846 0
-1586 -779 -854 0
-1586 -779 -961 0
-1586 -779 -969 0
-1586 -780 1155 0
-1586 -780 -890 -898 0
-1586 -780 -789 0
-1586 -780 -797 0
-1586 -780 -848 0
-1586 -780 -856 0
-1586 -780 -963 0
-1586 -780 -971 0
-1586 -781 0
-1587 899 0
-1587 1148 0
-1587 -772 0
-1587 -775 0
-1587 -776 0
-1587 -777 0
-1587 -778 1153 0
-1587 -778 -891 -896 0
-1587 -778 -793 0
-1587 -778 -801 0
-1587 -778 -852 0
-1587 -778 -860 0
-1587 -778 -967 0
-1587 -778 -975 0
-1587 -779 1154 0
-1587 -779 -891 -897 0
-1587 -779 -795 0
-1587 -779 -803 0
-1587 -779 -854 0
-1587 -779 -862 0
-1587 -779 -969 0
-1587 -779 -977 0
-1587 -780 1155 0
-1587 -780 -891 -898 0
-1587 -780 -797 0
-1587 -780 -805 0
-1587 -780 -856 0
-1587 -780 -864 0
-1587 -780 -971 0
-1587 -780 -979 0
-1587 -781 0
-1588 899 0
-1588 1149 0
-1588 -772 0
-1588 -773 0
-1588 -776 0
-1588 -777 0
-1588 -778 1153 0
-1588 -778 -892 -896 0
-1588 -778 -801 0
-1588 -778 -809 0
-1588 -778 -860 0
-1588 -778 -868 0
-1588 -778 -975 0
-1588 -778 -983 0
-1588 -779 1154 0
-1588 -779 -892 -897 0
-1588 -779 -803 0
-1588 -779 -811 0
-1588 -779 -862 0
-1588 -779 -870 0
-1588 -779 -977 0
-1588 -779 -985 0
-1588 -780 1155 0
-1588 -780 -892 -898 0
-1588 -780 -805 0
-1588 -780 -813 0
-1588 -780 -864 0
-1588 -780 -872 0
-1588 -780 -979 0
-1588 -780 -987 0
-1588 -781 0
-1589 899 0
-1589 1150 0
-1589 -772 0
-1589 -773 0
-1589 -774 0
-1589 -777 0
-1589 -778 1153 0
-1589 -778 -893 -896 0
-1589 -778 -809 0
-1589 -778 -817 0
-1589 -778 -868 0
-1589 -778 -876 0
-1589 -778 -983 0
-1589 -778 -991 0
-1589 -779 1154 0
-1589 -779 -893 -897 0
-1589 -779 -811 0
-1589 -779 -819 0
-1589 -779 -870 0
-1589 -779 -878 0
-1589 -779 -985 0
-1589 -779 -993 0
-1589 -780 1155 0
-1589 -780 -893 -898 0
-1589 -780 -813 0
-1589 -780 -821 0
-1589 -780 -872 0
-1589 -780 -880 0
-1589 -780 -987 0
-1589 -780 -995 0
-1589 -781 0
-1590 899 0
-1590 1151 0
-1590 -772 0
-1590 -773 0
-1590 -774 0
-1590 -775 0
-1590 -778 1153 0
-1590 -778 -894 -896 0
-1590 -778 -817 0
-1590 -778 -825 0
-1590 -778 -876 0
-1590 -778 -884 0
-1590 -778 -991 0
-1590 -778 -999 0
-1590 -779 1154 0
-1590 -779 -894 -897 0
-1590 -779 -819 0
-1590 -779 -827 0
-1590 -779 -878 0
-1590 -779 -886 0
-1590 -779 -993 0
-1590 -779 -1001 0
-1590 -780 1155 0
-1590 -780 -894 -898 0
-1590 -780 -821 0
-1590 -780 -829 0
-1590 -780 -880 0
-1590 -780 -888 0
-1590 -780 -995 0
-1590 -780 -1003 0
-1590 -781 0
-1591 899 0
-1591 1147 0
-1591 -833 0
-1591 -834 0
-1591 -835 0
-1591 -836 0
-1591 -837 1153 0
-1591 -837 -890 -896 0
-1591 -837 -785 0
-1591 -837 -793 0
-1591 -837 -844 0
-1591 -837 -852 0
-1591 -837 -959 0
-1591 -837 -967 0
-1591 -838 1154 0
-1591 -838 -890 -897 0
-1591 -838 -787 0
-1591 -838 -795 0
-1591 -838 -846 0
-1591 -838 -854 0
-1591 -838 -961 0
-1591 -838 -969 0
-1591 -839 1155 0
-1591 -839 -890 -898 0
-1591 -839 -789 0
-1591 -839 -797 0
-1591 -839 -848 0
-1591 -839 -856 0
-1591 -839 -963 0
-1591 -839 -971 0
-1591 -840 0
-1592 899 0
-1592 1148 0
-1592 -831 0
-1592 -834 0
-1592 -835 0
-1592 -836 0
-1592 -837 1153 0
-1592 -837 -891 -896 0
-1592 -837 -793 0
-1592 -837 -801 0
-1592 -837 -852 0
-1592 -837 -860 0
-1592 -837 -967 0
-1592 -837 -975 0
-1592 -838 1154 0
-1592 -838 -891 -897 0
-1592 -838 -795 0
-1592 -838 -803 0
-1592 -838 -854 0
-1592 -838 -862 0
-1592 -838 -969 0
-1592 -838 -977 0
-1592 -839 1155 0
-1592 -839 -891 -898 0
-1592 -839 -797 0
-1592 -839 -805 0
-1592 -839 -856 0
-1592 -839 -864 0
-1592 -839 -971 0
-1592 -839 -979 0
-1592 -840 0
-1593 899 0
-1593 1149 0
-1593 -831 0
-1593 -832 0
-1593 -835 0
-1593 -836 0
-1593 -837 1153 0
-1593 -837 -892 -896 0
-1593 -837 -801 0
-1593 -837 -809 0
-1593 -837 -860 0
-1593 -837 -868 0
-1593 -837 -975 0
-1593 -837 -983 0
-1593 -838 1154 0
-1593 -838 -892 -897 0
-1593 -838 -803 0
-1593 -838 -811 0
-1593 -838 -862 0
-1593 -838 -870 0
-1593 -838 -977 0
-1593 -838 -985 0
-1593 -839 1155 0
-1593 -839 -892 -898 0
-1593 -839 -805 0
-1593 -839 -813 0
-1593 -839 -864 0
-1593 -839 -872 0
-1593 -839 -979 0
-1593 -839 -987 0
-1593 -840 0
-1594 899 0
-1594 1150 0
-1594 -831 0
-1594 -832 0
-1594 -833 0
-1594 -836 0
-1594 -837 1153 0
-1594 -837 -893 -896 0
-1594 -837 -809 0
-1594 -837 -817 0
-1594 -837 -868 0
-1594 -837 -876 0
-1594 -837 -983 0
-1594 -837 -991 0
-1594 -838 1154 0
-1594 -838 -893 -897 0
-1594 -838 -811 0
-1594 -838 -819 0
-1594 -838 -870 0
-1594 -838 -878 0
-1594 -838 -985 0
-1594 -838 -993 0
-1594 -839 1155 0
-1594 -839 -893 -898 0
-1594 -839 -813 0
-1594 -839 -821 0
-1594 -839 -872 0
-1594 -839 -880 0
-1594 -839 -987 0
-1594 -839 -995 0
-1594 -840 0
-1595 899 0
-1595 1151 0
-1595 -831 0
-1595 -832 0
-1595 -833 0
-1595 -834 0
-1595 -837 1153 0
-1595 -837 -894 -896 0
-1595 -837 -817 0
-1595 -837 -825 0
-1595 -837 -876 0
-1595 -837 -884 0
-1595 -837 -991 0
-1595 -837 -999 0
-1595 -838 1154 0
-1595 -838 -894 -897 0
-1595 -838 -819 0
-1595 -838 -827 0
-1595 -838 -878 0
-1595 -838 -886 0
-1595 -838 -993 0
-1595 -838 -1001 0
-1595 -839 1155 0
-1595 -839 -894 -898 0
-1595 -839 -821 0
-1595 -839 -829 0
-1595 -839 -880 0
-1595 -839 -888 0
-1595 -839 -995 0
-1595 -839 -1003 0
-1595 -840 0
-1596 899 0
-1596 1147 0
-1596 -950 0
-1596 -951 0
-1596 -952 1153 0
-1596 -952 -890 -896 0
-1596 -952 -785 0
-1596 -952 -793 0
-1596 -952 -844 0
-1596 -952 -852 0
-1596 -952 -959 0
-1596 -952 -967 0
-1596 -953 1154 0
-1596 -953 -890 -897 0
-1596 -953 -787 0
-1596 -953 -795 0
-1596 -953 -846 0
-1596 -953 -854 0
-1596 -953 -961 0
-1596 -953 -969 0
-1596 -954 1155 0
-1596 -954 -890 -898 0
-1596 -954 -789 0
-1596 -954 -797 0
-1596 -954 -848 0
-1596 -954 -856 0
-1596 -954 -963 0
-1596 -954 -971 0
-1596 -955 0
-1597 899 0
-1597 1148 0
-1597 -951 0
-1597 -952 1153 0
-1597 -952 -891 -896 0
-1597 -952 -793 0
-1597 -952 -801 0
-1597 -952 -852 0
-1597 -952 -860 0
-1597 -952 -967 0
-1597 -952 -975 0
-1597 -953 1154 0
-1597 -953 -891 -897 0
-1597 -953 -795 0
-1597 -953 -803 0
-1597 -953 -854 0
-1597 -953 -862 0
-1597 -953 -969 0
-1597 -953 -977 0
-1597 -954 1155 0
-1597 -954 -891 -898 0
-1597 -954 -797 0
-1597 -954 -805 0
-1597 -954 -856 0
-1597 -954 -864 0
-1597 -954 -971 0
-1597 -954 -979 0
-1597 -955 0
-1598 899 0
-1598 1149 0
-1598 -952 1153 0
-1598 -952 -892 -896 0
-1598 -952 -801 0
-1598 -952 -809 0
-1598 -952 -860 0
-1598 -952 -868 0
-1598 -952 -975 0
-1598 -952 -983 0
-1598 -953 1154 0
-1598 -953 -892 -897 0
-1598 -953 -803 0
-1598 -953 -811 0
-1598 -953 -862 0
-1598 -953 -870 0
-1598 -953 -977 0
-1598 -953 -985 0
-1598 -954 1155 0
-1598 -954 -892 -898 0
-1598 -954 -805 0
-1598 -954 -813 0
-1598 -954 -864 0
-1598 -954 -872 0
-1598 -954 -979 0
-1598 -954 -987 0
-1598 -955 0
-1599 899 0
-1599 1150 0
-1599 -948 0
-1599 -952 1153 0
-1599 -952 -893 -896 0
-1599 -952 -809 0
-1599 -952 -817 0
-1599 -952 -868 0
-1599 -952 -876 0
-1599 -952 -983 0
-1599 -952 -991 0
-1599 -953 1154 0
-1599 -953 -893 -897 0
-1599 -953 -811 0
-1599 -953 -819 0
-1599 -953 -870 0
-1599 -953 -878 0
-1599 -953 -985 0
-1599 -953 -993 0
-1599 -954 1155 0
-1599 -954 -893 -898 0
-1599 -954 -813 0
-1599 -954 -821 0
-1599 -954 -872 0
-1599 -954 -880 0
-1599 -954 -987 0
-1599 -954 -995 0
-1599 -955 0
-1600 899 0
-1600 1151 0
-1600 -948 0
-1600 -949 0
-1600 -952 1153 0
-1600 -952 -894 -896 0
-1600 -952 -817 0
-1600 -952 -825 0
-1600 -952 -876 0
-1600 -952 -884 0
-1600 -952 -991 0
-1600 -952 -999 0
-1600 -953 1154 0
-1600 -953 -894 -897 0
-1600 -953 -819 0
-1600 -953 -827 0
-1600 -953 -878 0
-1600 -953 -886 0
-1600 -953 -993 0
-1600 -953 -1001 0
-1600 -954 1155 0
-1600 -954 -894 -898 0
-1600 -954 -821 0
-1600 -954 -829 0
-1600 -954 -880 0
-1600 -954 -888 0
-1600 -954 -995 0
-1600 -954 -1003 0
-1600 -955 0
-1601 899 0
-1601 1147 0
-1601 1152 0
-1601 -890 -895 0
-1601 -783 0
-1601 -791 0
-1601 -842 0
-1601 -850 0
-1601 -957 0
-1601 -965 0
-1602 899 0
-1602 1148 0
-1602 1152 0
-1602 -891 -895 0
-1602 -791 0
-1602 -799 0
-1602 -850 0
-1602 -858 0
-1602 -965 0
-1602 -973 0
-1603 899 0
-1603 1149 0
-1603 1152 0
-1603 -892 -895 0
-1603 -799 0
-1603 -807 0
-1603 -858 0
-1603 -866 0
-1603 -973 0
-1603 -981 0
-1604 899 0
-1604 1150 0
-1604 1152 0
-1604 -893 -895 0
-1604 -807 0
-1604 -815 0
-1604 -866 0
-1604 -874 0
-1604 -981 0
-1604 -989 0
-1605 899 0
-1605 1151 0
-1605 1152 0
-1605 -894 -895 0
-1605 -815 0
-1605 -823 0
-1605 -874 0
-1605 -882 0
-1605 -989 0
-1605 -997 0
-1606 956 0
-1606 1205 0
-1606 -775 0
-1606 -776 0
-1606 -777 0
-1606 -778 1210 0
-1606 -778 -948 -953 0
-1606 -778 -785 0
-1606 -778 -793 0
-1606 -778 -801 0
-1606 -778 -844 0
-1606 -778 -852 0
-1606 -778 -860 0
-1606 -778 -902 0
-1606 -778 -910 0
-1606 -778 -918 0
-1606 -779 1211 0
-1606 -779 -948 -954 0
-1606 -779 -787 0
-1606 -779 -795 0
-1606 -779 -803 0
-1606 -779 -846 0
-1606 -779 -854 0
-1606 -779 -862 0
-1606 -779 -904 0
-1606 -779 -912 0
-1606 -779 -920 0
-1606 -780 1212 0
-1606 -780 -948 -955 0
-1606 -780 -789 0
-1606 -780 -797 0
-1606 -780 -805 0
-1606 -780 -848 0
-1606 -780 -856 0
-1606 -780 -864 0
-1606 -780 -906 0
-1606 -780 -914 0
-1606 -780 -922 0
-1606 -781 0
-1607 956 0
-1607 1206 0
-1607 -772 0
-1607 -776 0
-1607 -777 0
-1607 -778 1210 0
-1607 -778 -949 -953 0
-1607 -778 -793 0
-1607 -778 -801 0
-1607 -778 -809 0
-1607 -778 -852 0
-1607 -778 -860 0
-1607 -778 -868 0
-1607 -778 -910 0
-1607 -778 -918 0
-1607 -778 -926 0
-1607 -779 1211 0
-1607 -779 -949 -954 0
-1607 -779 -795 0
-1607 -779 -803 0
-1607 -779 -811 0
-1607 -779 -854 0
-1607 -779 -862 0
-1607 -779 -870 0
-1607 -779 -912 0
-1607 -779 -920 0
-1607 -779 -928 0
-1607 -780 1212 0
-1607 -780 -949 -955 0
-1607 -780 -797 0
-1607 -780 -805 0
-1607 -780 -813 0
-1607 -780 -856 0
-1607 -780 -864 0
-1607 -780 -872 0
-1607 -780 -914 0
-1607 -780 -922 0
-1607 -780 -930 0
-1607 -781 0
-1608 956 0
-1608 1207 0
-1608 -772 0
-1608 -773 0
-1608 -777 0
-1608 -778 1210 0
-1608 -778 -950 -953 0
-1608 -778 -801 0
-1608 -778 -809 0
-1608 -778 -817 0
-1608 -778 -860 0
-1608 -778 -868 0
-1608 -778 -876 0
-1608 -778 -918 0
-1608 -778 -926 0
-1608 -778 -934 0
-1608 -779 1211 0
-1608 -779 -950 -954 0
-1608 -779 -803 0
-1608 -779 -811 0
-1608 -779 -819 0
-1608 -779 -862 0
-1608 -779 -870 0
-1608 -779 -878 0
-1608 -779 -920 0
-1608 -779 -928 0
-1608 -779 -936 0
-1608 -780 1212 0
-1608 -780 -950 -955 0
-1608 -780 -805 0
-1608 -780 -813 0
-1608 -780 -821 0
-1608 -780 -864 0
-1608 -780 -872 0
-1608 -780 -880 0
-1608 -780 -922 0
-1608 -780 -930 0
-1608 -780 -938 0
-1608 -781 0
-1609 956 0
-1609 1208 0
-1609 -772 0
-1609 -773 0
-1609 -774 0
-1609 -778 1210 0
-1609 -778 -951 -953 0
-1609 -778 -809 0
-1609 -778 -817 0
-1609 -778 -825 0
-1609 -778 -868 0
-1609 -778 -876 0
-1609 -778 -884 0
-1609 -778 -926 0
-1609 -778 -934 0
-1609 -778 -942 0
-1609 -779 1211 0
-1609 -779 -951 -954 0
-1609 -779 -811 0
-1609 -779 -819 0
-1609 -779 -827 0
-1609 -779 -870 0
-1609 -779 -878 0
-1609 -779 -886 0
-1609 -779 -928 0
-1609 -779 -936 0
-1609 -779 -944 0
-1609 -780 1212 0
-1609 -780 -951 -955 0
-1609 -780 -813 0
-1609 -780 -821 0
-1609 -780 -829 0
-1609 -780 -872 0
-1609 -780 -880 0
-1609 -780 -888 0
-1609 -780 -930 0
-1609 -780 -938 0
-1609 -780 -946 0
-1609 -781 0
-1610 956 0
-1610 1205 0
-1610 -834 0
-1610 -835 0
-1610 -836 0
-1610 -837 1210 0
-1610 -837 -948 -953 0
-1610 -837 -785 0
-1610 -837 -793 0
-1610 -837 -801 0
-1610 -837 -844 0
-1610 -837 -852 0
-1610 -837 -860 0
-1610 -837 -902 0
-1610 -837 -910 0
-1610 -837 -918 0
-1610 -838 1211 0
-1610 -838 -948 -954 0
-1610 -838 -787 0
-1610 -838 -795 0
-1610 -838 -803 0
-1610 -838 -846 0
-1610 -838 -854 0
-1610 -838 -862 0
-1610 -838 -904 0
-1610 -838 -912 0
-1610 -838 -920 0
-1610 -839 1212 0
-1610 -839 -948 -955 0
-1610 -839 -789 0
-1610 -839 -797 0
-1610 -839 -805 0
-1610 -839 -848 0
-1610 -839 -856 0
-1610 -839 -864 0
-1610 -839 -906 0
-1610 -839 -914 0
-1610 -839 -922 0
-1610 -840 0
-1611 956 0
-1611 1206 0
-1611 -831 0
-1611 -835 0
-1611 -836 0
-1611 -837 1210 0
-1611 -837 -949 -953 0
-1611 -837 -793 0
-1611 -837 -801 0
-1611 -837 -809 0
-1611 -837 -852 0
-1611 -837 -860 0
-1611 -837 -868 0
-1611 -837 -910 0
-1611 -837 -918 0
-1611 -837 -926 0
-1611 -838 1211 0
-1611 -838 -949 -954 0
-1611 -838 -795 0
-1611 -838 -803 0
-1611 -838 -811 0
-1611 -838 -854 0
-1611 -838 -862 0
-1611 -838 -870 0
-1611 -838 -912 0
-1611 -838 -920 0
-1611 -838 -928 0
-1611 -839 1212 0
-1611 -839 -949 -955 0
-1611 -839 -797 0
-1611 -839 -805 0
-1611 -839 -813 0
-1611 -839 -856 0
-1611 -839 -864 0
-1611 -839 -872 0
-1611 -839 -914 0
-1611 -839 -922 0
-1611 -839 -930 0
-1611 -840 0
-1612 956 0
-1612 1207 0
-1612 -831 0
-1612 -832 0
-1612 -836 0
-1612 -837 1210 0
-1612 -837 -950 -953 0
-1612 -837 -801 0
-1612 -837 -809 0
-1612 -837 -817 0
-1612 -837 -860 0
-1612 -837 -868 0
-1612 -837 -876 0
-1612 -837 -918 0
-1612 -837 -926 0
-1612 -837 -934 0
-1612 -838 1211 0
-1612 -838 -950 -954 0
-1612 -838 -803 0
-1612 -838 -811 0
-1612 -838 -819 0
-1612 -838 -862 0
-1612 -838 -870 0
-1612 -838 -878 0
-1612 -838 -920 0
-1612 -838 -928 0
-1612 -838 -936 0
-1612 -839 1212 0
-1612 -839 -950 -955 0
-1612 -839 -805 0
-1612 -839 -813 0
-1612 -839 -821 0
-1612 -839 -864 0
-1612 -839 -872 0
-1612 -839 -880 0
-1612 -839 -922 0
-1612 -839 -930 0
-1612 -839 -938 0
-1612 -840 0
-1613 956 0
-1613 1208 0
-1613 -831 0
-1613 -832 0
-1613 -833 0
-1613 -837 1210 0
-1613 -837 -951 -953 0
-1613 -837 -809 0
-1613 -837 -817 0
-1613 -837 -825 0
-1613 -837 -868 0
-1613 -837 -876 0
-1613 -837 -884 0
-1613 -837 -926 0
-1613 -837 -934 0
-1613 -837 -942 0
-1613 -838 1211 0
-1613 -838 -951 -954 0
-1613 -838 -811 0
-1613 -838 -819 0
-1613 -838 -827 0
-1613 -838 -870 0
-1613 -838 -878 0
-1613 -838 -886 0
-1613 -838 -928 0
-1613 -838 -936 0
-1613 -838 -944 0
-1613 -839 1212 0
-1613 -839 -951 -955 0
-1613 -839 -813 0
-1613 -839 -821 0
-1613 -839 -829 0
-1613 -839 -872 0
-1613 -839 -880 0
-1613 -839 -888 0
-1613 -839 -930 0
-1613 -839 -938 0
-1613 -839 -946 0
-1613 -840 0
-1614 956 0
-1614 1205 0
-1614 -893 0
-1614 -894 0
-1614 -895 1210 0
-1614 -895 -948 -953 0
-1614 -895 -785 0
-1614 -895 -793 0
-1614 -895 -801 0
-1614 -895 -844 0
-1614 -895 -852 0
-1614 -895 -860 0
-1614 -895 -902 0
-1614 -895 -910 0
-1614 -895 -918 0
-1614 -896 1211 0
-1614 -896 -948 -954 0
-1614 -896 -787 0
-1614 -896 -795 0
-1614 -896 -803 0
-1614 -896 -846 0
-1614 -896 -854 0
-1614 -896 -862 0
-1614 -896 -904 0
-1614 -896 -912 0
-1614 -896 -920 0
-1614 -897 1212 0
-1614 -897 -948 -955 0
-1614 -897 -789 0
-1614 -897 -797 0
-1614 -897 -805 0
-1614 -897 -848 0
-1614 -897 -856 0
-1614 -897 -864 0
-1614 -897 -906 0
-1614 -897 -914 0
-1614 -897 -922 0
-1614 -898 0
-1615 956 0
-1615 1206 0
-1615 -894 0
-1615 -895 1210 0
-1615 -895 -949 -953 0
-1615 -895 -793 0
-1615 -895 -801 0
-1615 -895 -809 0
-1615 -895 -852 0
-1615 -895 -860 0
-1615 -895 -868 0
-1615 -895 -910 0
-1615 -895 -918 0
-1615 -895 -926 0
-1615 -896 1211 0
-1615 -896 -949 -954 0
-1615 -896 -795 0
-1615 -896 -803 0
-1615 -896 -811 0
-1615 -896 -854 0
-1615 -896 -862 0
-1615 -896 -870 0
-1615 -896 -912 0
-1615 -896 -920 0
-1615 -896 -928 0
-1615 -897 1212 0
-1615 -897 -949 -955 0
-1615 -897 -797 0
-1615 -897 -805 0
-1615 -897 -813 0
-1615 -897 -856 0
-1615 -897 -864 0
-1615 -897 -872 0
-1615 -897 -914 0
-1615 -897 -922 0
-1615 -897 -930 0
-1615 -898 0
-1616 956 0
-1616 1207 0
-1616 -890 0
-1616 -895 1210 0
-1616 -895 -950 -953 0
-1616 -895 -801 0
-1616 -895 -809 0
-1616 -895 -817 0
-1616 -895 -860 0
-1616 -895 -868 0
-1616 -895 -876 0
-1616 -895 -918 0
-1616 -895 -926 0
-1616 -895 -934 0
-1616 -896 1211 0
-1616 -896 -950 -954 0
-1616 -896 -803 0
-1616 -896 -811 0
-1616 -896 -819 0
-1616 -896 -862 0
-1616 -896 -870 0
-1616 -896 -878 0
-1616 -896 -920 0
-1616 -896 -928 0
-1616 -896 -936 0
-1616 -897 1212 0
-1616 -897 -950 -955 0
-1616 -897 -805 0
-1616 -897 -813 0
-1616 -897 -821 0
-1616 -897 -864 0
-1616 -897 -872 0
-1616 -897 -880 0
-1616 -897 -922 0
-1616 -897 -930 0
-1616 -897 -938 0
-1616 -898 0
-1617 956 0
-1617 1208 0
-1617 -890 0
-1617 -891 0
-1617 -895 1210 0
-1617 -895 -951 -953 0
-1617 -895 -809 0
-1617 -895 -817 0
-1617 -895 -825 0
-1617 -895 -868 0
-1617 -895 -876 0
-1617 -895 -884 0
-1617 -895 -926 0
-1617 -895 -934 0
-1617 -895 -942 0
-1617 -896 1211 0
-1617 -896 -951 -954 0
-1617 -896 -811 0
-1617 -896 -819 0
-1617 -896 -827 0
-1617 -896 -870 0
-1617 -896 -878 0
-1617 -896 -886 0
-1617 -896 -928 0
-1617 -896 -936 0
-1617 -896 -944 0
-1617 -897 1212 0
-1617 -897 -951 -955 0
-1617 -897 -813 0
-1617 -897 -821 0
-1617 -897 -829 0
-1617 -897 -872 0
-1617 -897 -880 0
-1617 -897 -888 0
-1617 -897 -930 0
-1617 -897 -938 0
-1617 -897 -946 0
-1617 -898 0
-1618 956 0
-1618 1205 0
-1618 1209 0
-1618 -948 -952 0
-1618 -783 0
-1618 -791 0
-1618 -799 0
-1618 -842 0
-1618 -850 0
-1618 -858 0
-1618 -900 0
-1618 -908 0
-1618 -916 0
-1619 956 0
-1619 1206 0
-1619 1209 0
-1619 -949 -952 0
-1619 -791 0
-1619 -799 0
-1619 -807 0
-1619 -850 0
-1619 -858 0
-1619 -866 0
-1619 -908 0
-1619 -916 0
-1619 -924 0
-1620 956 0
-1620 1207 0
-1620 1209 0
-1620 -950 -952 0
-1620 -799 0
-1620 -807 0
-1620 -815 0
-1620 -858 0
-1620 -866 0
-1620 -874 0
-1620 -916 0
-1620 -924 0
-1620 -932 0
-1621 956 0
-1621 1208 0
-1621 1209 0
-1621 -951 -952 0
-1621 -807 0
-1621 -815 0
-1621 -823 0
-1621 -866 0
-1621 -874 0
-1621 -882 0
-1621 -924 0
-1621 -932 0
-1621 -940 0
-772 1029 1538 1539 1540 1541 1542 1543 1544 1545 1546 1547 1548 1549 1550 1551 1552 1553 1554 1555 1556 1557 1558 1559 1560 1561 0
-773 1030 1538 1539 1540 1541 1542 1543 1544 1545 1546 1547 1548 1549 1550 1551 1552 1553 1554 1555 1556 1557 1558 1559 1560 1561 0
-774 1031 1538 1539 1540 1541 1542 1543 1544 1545 1546 1547 1548 1549 1550 1551 1552 1553 1554 1555 1556 1557 1558 1559 1560 1561 0
-775 1032 1538 1539 1540 1541 1542 1543 1544 1545 1546 1547 1548 1549 1550 1551 1552 1553 1554 1555 1556 1557 1558 1559 1560 1561 0
-776 1033 1538 1539 1540 1541 1542 1543 1544 1545 1546 1547 1548 1549 1550 1551 1552 1553 1554 1555 1556 1557 1558 1559 1560 1561 0
-777 1034 1538 1539 1540 1541 1542 1543 1544 1545 1546 1547 1548 1549 1550 1551 1552 1553 1554 1555 1556 1557 1558 1559 1560 1561 0
-778 1035 1538 1539 1540 1541 1542 1543 1544 1545 1546 1547 1548 1549 1550 1551 1552 1553 1554 1555 1556 1557 1558 1559 1560 1561 0
-779 1036 1538 1539 1540 1541 1542 1543 1544 1545 1546 1547 1548 1549 1550 1551 1552 1553 1554 1555 1556 1557 1558 1559 1560 1561 0
-780 1037 1538 1539 1540 1541 1542 1543 1544 1545 1546 1547 1548 1549 1550 1551 1552 1553 1554 1555 1556 1557 1558 1559 1560 1561 0
-781 1038 1538 1539 1540 1541 1542 1543 1544 1545 1546 1547 1548 1549 1550 1551 1552 1553 1554 1555 1556 1557 1558 1559 1560 1561 0
-831 1088 1562 1563 1564 1565 1566 1567 1568 1569 1570 1571 1572 1573 1574 1575 1576 1577 1578 1579 1580 1581 1582 1583 1584 1585 0
-832 1089 1562 1563 1564 1565 1566 1567 1568 1569 1570 1571 1572 1573 1574 1575 1576 1577 1578 1579 1580 1581 1582 1583 1584 1585 0
-833 1090 1562 1563 1564 1565 1566 1567 1568 1569 1570 1571 1572 1573 1574 1575 1576 1577 1578 1579 1580 1581 1582 1583 1584 1585 0
-834 1091 1562 1563 1564 1565 1566 1567 1568 1569 1570 1571 1572 1573 1574 1575 1576 1577 1578 1579 1580 1581 1582 1583 1584 1585 0
-835 1092 1562 1563 1564 1565 1566 1567 1568 1569 1570 1571 1572 1573 1574 1575 1576 1577 1578 1579 1580 1581 1582 1583 1584 1585 0
-836 1093 1562 1563 1564 1565 1566 1567 1568 1569 1570 1571 1572 1573 1574 1575 1576 1577 1578 1579 1580 1581 1582 1583 1584 1585 0
-837 1094 1562 1563 1564 1565 1566 1567 1568 1569 1570 1571 1572 1573 1574 1575 1576 1577 1578 1579 1580 1581 1582 1583 1584 1585 0
-838 1095 1562 1563 1564 1565 1566 1567 1568 1569 1570 1571 1572 1573 1574 1575 1576 1577 1578 1579 1580 1581 1582 1583 1584 1585 0
-839 1096 1562 1563 1564 1565 1566 1567 1568 1569 1570 1571 1572 1573 1574 1575 1576 1577 1578 1579 1580 1581 1582 1583 1584 1585 0
-840 1097 1562 1563 1564 1565 1566 1567 1568 1569 1570 1571 1572 1573 1574 1575 1576 1577 1578 1579 1580 1581 1582 1583 1584 1585 0
-890 1147 1586 1587 1588 1589 1590 1591 1592 1593 1594 1595 1596 1597 1598 1599 1600 1601 1602 1603 1604 1605 0
-891 1148 1586 1587 1588 1589 1590 1591 1592 1593 1594 1595 1596 1597 1598 1599 1600 1601 1602 1603 1604 1605 0
-892 1149 1586 1587 1588 1589 1590 1591 1592 1593 1594 1595 1596 1597 1598 1599 1600 1601 1602 1603 1604 1605 0
-893 1150 1586 1587 1588 1589 1590 1591 1592 1593 1594 1595 1596 1597 1598 1599 1600 1601 1602 1603 1604 1605 0
-894 1151 1586 1587 1588 1589 1590 1591 1592 1593 1594 1595 1596 1597 1598 1599 1600 1601 1602 1603 1604 1605 0
-895 1152 1586 1587 1588 1589 1590 1591 1592 1593 1594 1595 1596 1597 1598 1599 1600 1601 1602 1603 1604 1605 0
-896 1153 1586 1587 1588 1589 1590 1591 1592 1593 1594 1595 1596 1597 1598 1599 1600 1601 1602 1603 1604 1605 0
-897 1154 1586 1587 1588 1589 1590 1591 1592 1593 1594 1595 1596 1597 1598 1599 1600 1601 1602 1603 1604 1605 0
-898 1155 1586 1587 1588 1589 1590 1591 1592 1593 1594 1595 1596 1597 1598 1599 1600 1601 1602 1603 1604 1605 0
-948 1205 1606 1607 1608 1609 1610 1611 1612 1613 1614 1615 1616 1617 1618 1619 1620 1621 0
-949 1206 1606 1607 1608 1609 1610 1611 1612 1613 1614 1615 1616 1617 1618 1619 1620 1621 0
-950 1207 1606 1607 1608 1609 1610 1611 1612 1613 1614 1615 1616 1617 1618 1619 1620 1621 0
-951 1208 1606 1607 1608 1609 1610 1611 1612 1613 1614 1615 1616 1617 1618 1619 1620 1621 0
-952 1209 1606 1607 1608 1609 1610 1611 1612 1613 1614 1615 1616 1617 1618 1619 1620 1621 0
-953 1210 1606 1607 1608 1609 1610 1611 1612 1613 1614 1615 1616 1617 1618 1619 1620 1621 0
-954 1211 1606 1607 1608 1609 1610 1611 1612 1613 1614 1615 1616 1617 1618 1619 1620 1621 0
-955 1212 1606 1607 1608 1609 1610 1611 1612 1613 1614 1615 1616 1617 1618 1619 1620 1621 0
